# vtk DataFile Version 3.0
vtk output at time 0.5
ASCII
DATASET UNSTRUCTURED_GRID
POINTS 1524 float
0 0 0 0 0 0.05 0 0 0.1 
0 0 0.15 0 0 0.2 0 0.05 0 
0 0.05 0.05 0 0.05 0.1 0 0.05 0.15 
0 0.05 0.2 0 0.1 0 0 0.1 0.05 
0 0.1 0.1 0 0.1 0.15 0 0.1 0.2 
0 0.15 0 0 0.15 0.05 0 0.15 0.1 
0 0.15 0.15 0 0.15 0.2 0 0.2 0 
0 0.2 0.05 0 0.2 0.1 0 0.2 0.15 
0 0.2 0.2 0.0423616 -0.00552651 -0.00584201 0.0437146 -0.00597697 0.0470523 
0.0440741 -0.00600257 0.100012 0.0437292 -0.00598727 0.152948 0.0423842 -0.00554867 0.205822 
0.0437009 0.0470825 -0.00600852 0.0436885 0.0470765 0.206032 0.0441182 0.100012 -0.00619263 
0.0441407 0.100025 0.206156 0.0437051 0.152903 -0.00596778 0.0436852 0.152921 0.205999 
0.042395 0.205513 -0.00582558 0.0437096 0.206003 0.0470396 0.04408 0.206015 0.100003 
0.0437207 0.206009 0.15294 0.0423874 0.205559 0.205794 0.0875391 -0.00637547 -0.00638597 
0.087516 -0.00662851 0.0464204 0.0874714 -0.00715875 0.0999928 0.0874032 -0.00669402 0.153532 
0.0875382 -0.00639177 0.206338 0.087579 0.0464008 -0.00654322 0.0875746 0.0464032 0.206561 
0.0874673 0.100025 -0.00724521 0.0875421 0.0999709 0.207192 0.0873294 0.153567 -0.00660653 
0.0873259 0.153504 0.206544 0.087521 0.206327 -0.0063845 0.0875039 0.206584 0.0463943 
0.0875508 0.207187 0.0999964 0.08746 0.206688 0.153565 0.0875402 0.206348 0.206392 
0.13261 -0.00553472 -0.00582198 0.131393 -0.00612859 0.0470771 0.130899 -0.00623478 0.100003 
0.131285 -0.00606957 0.152968 0.1326 -0.00552855 0.205817 0.131463 0.0470799 -0.00612519 
0.13144 0.0470904 0.206076 0.130788 0.100037 -0.00627894 0.130777 0.100058 0.206225 
0.131334 0.152938 -0.00600246 0.131301 0.152934 0.205978 0.132641 0.205543 -0.00581998 
0.131417 0.206107 0.0470262 0.130875 0.206133 0.100029 0.131308 0.20618 0.152881 
0.132645 0.205563 0.205793 0.175 0 0 0.175 0 0.05 
0.175 0 0.1 0.175 0 0.15 0.175 0 0.2 
0.175 0.05 0 0.175 0.05 0.05 0.175 0.05 0.1 
0.175 0.05 0.15 0.175 0.05 0.2 0.175 0.1 0 
0.175 0.1 0.05 0.175 0.1 0.1 0.175 0.1 0.15 
0.175 0.1 0.2 0.175 0.15 0 0.175 0.15 0.05 
0.175 0.15 0.1 0.175 0.15 0.15 0.175 0.15 0.2 
0.175 0.2 0 0.175 0.2 0.05 0.175 0.2 0.1 
0.175 0.2 0.15 0.175 0.2 0.2 0 0 0.0166667 
0 0 0.0333333 0 0.0166667 0 0 0.0333333 0 
0.0123279 -0.00323104 -0.00419544 0.026956 -0.00484759 -0.00490082 0.0142757 -0.00378067 0.0139158 
0.0283999 -0.00486261 0.0300917 0 0 0.0666667 0 0 0.0833333 
0 0.0166667 0.0333333 0 0.0333333 0.0166667 0 0.0166667 0.05 
0 0.0333333 0.05 0 0.0166667 0.0666667 0 0.0333333 0.0833333 
0.0147778 -0.00390392 0.0486549 0.0289591 -0.00510384 0.0477429 0 0 0.116667 
0 0 0.133333 0 0.0166667 0.1 0 0.0333333 0.1 
0.014805 -0.00401021 0.0828469 0.0291044 -0.00506057 0.0651992 0.0149844 -0.00381964 0.100028 
0.0294488 -0.00521911 0.100023 0.0148108 -0.00398533 0.117206 0.0291082 -0.00504292 0.134832 
0 0 0.166667 0 0 0.183333 0 0.0166667 0.133333 
0 0.0333333 0.116667 0 0.0166667 0.15 0 0.0333333 0.15 
0 0.0166667 0.166667 0 0.0333333 0.183333 0.0147914 -0.00385772 0.151351 
0.0289662 -0.00507306 0.15228 0 0.0166667 0.2 0 0.0333333 0.2 
0.0142843 -0.00377086 0.186075 0.0284135 -0.00484479 0.169914 0.0123339 -0.0032331 0.204181 
0.0269694 -0.00485249 0.20489 0 0.05 0.0166667 0 0.05 0.0333333 
0 0.0666667 0 0 0.0833333 0 0 0.0666667 0.0166667 
0 0.0833333 0.0333333 0.0138495 0.0317053 -0.00384587 0.0278978 0.0126601 -0.00504107 
0.0152592 0.0314022 0.0138813 0.0296531 0.0126149 0.0301174 0.0147404 0.0488107 -0.00380194 
0.0291659 0.0478239 -0.00531516 0.0148808 0.0661115 -0.00395999 0.029256 0.08266 -0.00522305 
0 0.05 0.0666667 0 0.05 0.0833333 0 0.0666667 0.05 
0 0.0833333 0.05 0.0156295 0.031296 0.0486844 0.0300828 0.0125187 0.0477524 
0.0155452 0.0486342 0.0312874 0.0299775 0.0477371 0.0124403 0.0157478 0.0658222 0.0312493 
0.0303795 0.0826095 0.0124314 0.0304265 0.0301456 0.0476604 0.0588823 0.0110661 0.046644 
0.0306868 0.0300751 0.0651524 0.059175 0.0109472 0.0822136 0.0305086 0.047662 0.0300489 
0.0588678 0.0466989 0.0110285 0.0307239 0.0650886 0.0300459 0.0591604 0.0822505 0.0109503 
0 0.05 0.116667 0 0.05 0.133333 0 0.0666667 0.0833333 
0 0.0833333 0.0666667 0 0.0666667 0.1 0 0.0833333 0.1 
0 0.0666667 0.116667 0 0.0833333 0.133333 0.0157559 0.0312684 0.0829543 
0.0302834 0.0124466 0.0651767 0.0157606 0.0312349 0.100031 0.0302894 0.0124508 0.10002 
0.0157836 0.0312745 0.117123 0.0303197 0.0124364 0.134884 0.0308456 0.030062 0.10001 
0.0593154 0.0109073 0.10003 0.0308226 0.0300301 0.117444 0.0591138 0.0110091 0.135544 
0.0310881 0.0650712 0.0650885 0.0595204 0.0822196 0.0287282 0 0.05 0.166667 
0 0.05 0.183333 0 0.0666667 0.15 0 0.0833333 0.15 
0.0156673 0.0313368 0.151394 0.0301456 0.0125504 0.152295 0.0155633 0.0486504 0.16873 
0.0299811 0.0477456 0.187586 0.0157302 0.0658224 0.168756 0.0303562 0.0826179 0.187567 
0.0306102 0.0301296 0.152408 0.0589355 0.0111089 0.153303 0.0305278 0.0476859 0.169977 
0.0588439 0.046677 0.188989 0.0306998 0.0651218 0.169966 0.0591645 0.0822115 0.189067 
0 0.0666667 0.183333 0 0.0833333 0.166667 0 0.0666667 0.2 
0 0.0833333 0.2 0.0152679 0.0314016 0.186142 0.0296875 0.0126303 0.169894 
0.0138494 0.0316935 0.203865 0.0279107 0.0126484 0.205043 0.0147333 0.0488058 0.203812 
0.0291564 0.0478227 0.205334 0.0148714 0.0661163 0.203967 0.0292462 0.0826803 0.205223 
0 0.1 0.0166667 0 0.1 0.0333333 0 0.116667 0 
0 0.133333 0 0.0146992 0.10003 -0.00406002 0.0290214 0.0999507 -0.00500734 
0 0.1 0.0666667 0 0.1 0.0833333 0 0.116667 0.0333333 
0 0.133333 0.0166667 0 0.116667 0.05 0 0.133333 0.05 
0 0.116667 0.0666667 0 0.133333 0.0833333 0.0157847 0.100001 0.0312348 
0.0304459 0.0999929 0.0123623 0.0157535 0.117122 0.0312537 0.0302538 0.134838 0.0124498 
0.0308934 0.0999994 0.0299691 0.0592841 0.0999947 0.010925 0.0308259 0.117412 0.029971 
0.059083 0.135511 0.0110197 0 0.1 0.116667 0 0.1 0.133333 
0 0.116667 0.1 0 0.133333 0.1 0.0311559 0.0651058 0.0999919 
0.0595121 0.0287417 0.0999826 0.0311112 0.0651739 0.117417 0.0594346 0.0287551 0.135546 
0.0311278 0.100002 0.065121 0.0595307 0.100001 0.0287564 0.0312826 0.0999879 0.134887 
0.0595313 0.0999839 0.17129 0.0311069 0.117417 0.0651552 0.0594321 0.135512 0.0287713 
0.0311742 0.1174 0.134879 0.0594257 0.135628 0.171267 0.0312294 0.134887 0.0999978 
0.0595195 0.171279 0.0999653 0.0311492 0.134848 0.117392 0.0594167 0.171258 0.135565 
0.0601555 0.0999937 0.0999848 0.114887 0.100016 0.100005 0 0.1 0.166667 
0 0.1 0.183333 0 0.116667 0.133333 0 0.133333 0.116667 
0 0.116667 0.15 0 0.133333 0.15 0 0.116667 0.166667 
0 0.133333 0.183333 0.0157953 0.0999937 0.168698 0.0304601 0.099999 0.187572 
0.0157679 0.117076 0.168688 0.0302612 0.134798 0.187536 0.030961 0.0650843 0.152425 
0.0592641 0.0288075 0.153358 0.0308985 0.0999703 0.169951 0.0593322 0.100003 0.189118 
0.0308405 0.117396 0.169952 0.0590995 0.135575 0.189024 0.030943 0.134862 0.152391 
0.0592697 0.171198 0.153359 0 0.116667 0.2 0 0.133333 0.2 
0.0147094 0.100041 0.204042 0.02904 0.0999642 0.204976 0 0.15 0.0166667 
0 0.15 0.0333333 0 0.166667 0 0 0.183333 0 
0 0.166667 0.0166667 0 0.183333 0.0333333 0.0147642 0.13419 -0.00392728 
0.0291415 0.117346 -0.00514304 0.0149445 0.151181 -0.00375791 0.0293186 0.152187 -0.00526731 
0.0139241 0.168226 -0.00380293 0.027915 0.187344 -0.00500951 0.0152755 0.168539 0.0138837 
0.0296719 0.187434 0.0301395 0 0.15 0.0666667 0 0.15 0.0833333 
0 0.166667 0.05 0 0.183333 0.05 0.0156501 0.151387 0.031294 
0.0301358 0.152288 0.0124994 0.0156435 0.168707 0.0486928 0.0300972 0.187506 0.0477627 
0.0305847 0.152374 0.0301013 0.0588851 0.153252 0.0111069 0.0305197 0.16991 0.0476674 
0.058897 0.188936 0.0466531 0.0307288 0.169948 0.0651459 0.0591752 0.189037 0.0822025 
0 0.15 0.116667 0 0.15 0.133333 0 0.166667 0.0833333 
0 0.183333 0.0666667 0 0.166667 0.1 0 0.183333 0.1 
0 0.166667 0.116667 0 0.183333 0.133333 0.0157673 0.168726 0.0829495 
0.0302981 0.187573 0.0651738 0.015774 0.168764 0.100013 0.0302973 0.187559 0.100008 
0.0157797 0.168733 0.117094 0.0303089 0.187588 0.134867 0.030957 0.152408 0.0650855 
0.0592518 0.153311 0.0288184 0.0308814 0.169952 0.100003 0.0593144 0.189099 0.10002 
0.0308139 0.169977 0.117425 0.0590945 0.189006 0.135557 0 0.15 0.166667 
0 0.15 0.183333 0 0.166667 0.15 0 0.183333 0.15 
0.0156422 0.151332 0.168707 0.0301154 0.152258 0.187526 0.0156636 0.168661 0.151367 
0.0301309 0.18747 0.152277 0.0305696 0.152317 0.169928 0.0588613 0.153337 0.188948 
0.0306448 0.169906 0.152364 0.0589331 0.188909 0.153302 0 0.166667 0.183333 
0 0.183333 0.166667 0 0.166667 0.2 0 0.183333 0.2 
0.0147644 0.134169 0.203921 0.0291482 0.117338 0.205107 0.0149307 0.151163 0.20377 
0.0292974 0.152175 0.205285 0.0152807 0.16852 0.186124 0.029691 0.187399 0.169865 
0.0139218 0.168218 0.203809 0.027914 0.187347 0.205008 0 0.2 0.0166667 
0 0.2 0.0333333 0.012327 0.203177 -0.0041923 0.0269481 0.204843 -0.00488333 
0.0142823 0.203749 0.0139142 0.0283868 0.2049 0.0300929 0 0.2 0.0666667 
0 0.2 0.0833333 0.0147689 0.203902 0.0486609 0.0289361 0.205123 0.04776 
0 0.2 0.116667 0 0.2 0.133333 0.0148064 0.204008 0.0828405 
0.029104 0.205072 0.0652063 0.014982 0.20382 0.100014 0.0294494 0.205229 0.100011 
0.0148038 0.203995 0.11719 0.0290931 0.205067 0.134815 0 0.2 0.166667 
0 0.2 0.183333 0.0147765 0.203868 0.151348 0.0289379 0.205095 0.152257 
0.0142851 0.203735 0.18608 0.0283896 0.204873 0.169903 0.0123247 0.203171 0.204184 
0.0269405 0.204845 0.20487 0.0428028 -0.0056326 0.0117351 0.0431963 -0.00580333 0.0294321 
0.0428321 0.0118507 -0.00575374 0.043293 0.0294255 -0.00582945 0.0573843 -0.00609456 -0.00611734 
0.0724809 -0.00634844 -0.00632083 0.0577793 0.0113883 -0.00619104 0.0728444 0.0287445 -0.00653782 
0.0439853 -0.00601905 0.0647819 0.0440196 -0.00602007 0.0823878 0.0440417 0.0117614 0.0293805 
0.0440078 0.0294469 0.0116597 0.0580266 -0.00629371 0.0288896 0.0726332 -0.00637068 0.0111039 
0.0582588 -0.00648841 0.0466237 0.0728674 -0.00672513 0.0464359 0.0584552 -0.0065988 0.0643762 
0.0730121 -0.00698805 0.0820882 0.0585216 0.0112146 0.0289084 0.0730136 0.028756 0.0109466 
0.0440312 -0.00602745 0.117629 0.0440085 -0.00602485 0.135222 0.0586365 -0.00662794 0.100011 
0.0730937 -0.007022 0.100008 0.0432091 -0.00580269 0.170558 0.0428155 -0.0056387 0.188249 
0.0440848 0.0117619 0.170611 0.0440264 0.029439 0.188362 0.058514 -0.00658821 0.135561 
0.0730813 -0.00697406 0.117889 0.0582285 -0.00648517 0.153332 0.0727729 -0.00671845 0.153488 
0.0580417 -0.00629737 0.171074 0.0726481 -0.00637269 0.18884 0.0585511 0.0112124 0.171055 
0.0730077 0.0287518 0.189042 0.0428521 0.0118278 0.20575 0.0433002 0.0294058 0.205849 
0.0574063 -0.00612745 0.206078 0.0724962 -0.00637472 0.206268 0.0577993 0.0113552 0.206177 
0.0728515 0.0287199 0.206536 0.0439178 0.064746 -0.00604532 0.0440126 0.0823897 -0.00607103 
0.0583544 0.0466512 -0.00652755 0.072966 0.046441 -0.0067039 0.0438997 0.0647523 0.206062 
0.0440039 0.0824041 0.206073 0.0583365 0.0466307 0.20655 0.0729479 0.0464173 0.206723 
0.0440077 0.117605 -0.00605528 0.0439005 0.135238 -0.00602055 0.0585751 0.0822468 -0.00665971 
0.0730375 0.0642959 -0.00683821 0.0585778 0.100012 -0.00673602 0.0730062 0.100036 -0.00707637 
0.0586017 0.117791 -0.00662796 0.07302 0.135731 -0.00681771 0.0440142 0.117611 0.206026 
0.0439034 0.135236 0.206014 0.0585692 0.0822359 0.206668 0.0730121 0.0642629 0.206859 
0.058606 0.100017 0.206716 0.0730571 0.100013 0.207064 0.0586093 0.117813 0.206645 
0.0730299 0.135761 0.206861 0.0433135 0.170597 -0.00579778 0.0428457 0.188166 -0.00571825 
0.0440581 0.170585 0.0117047 0.044079 0.188297 0.0294041 0.0582469 0.153282 -0.00650443 
0.0727777 0.153452 -0.0067329 0.0440555 0.170599 0.188312 0.0440949 0.188284 0.17058 
0.0433006 0.170628 0.205812 0.0428376 0.188204 0.205713 0.0582358 0.153348 0.206543 
0.0727716 0.153525 0.206738 0.0428343 0.20565 0.0117375 0.0432193 0.205847 0.029421 
0.0577995 0.188594 -0.00617366 0.0727866 0.171194 -0.00652176 0.0574283 0.206084 -0.0061123 
0.0725043 0.206307 -0.0063197 0.0439972 0.206039 0.0647748 0.0440344 0.206034 0.0823807 
0.0585549 0.188797 0.0289285 0.0729836 0.171188 0.010963 0.0580764 0.206303 0.0288903 
0.0726755 0.206334 0.0111149 0.058279 0.206522 0.0466084 0.0728722 0.206719 0.0464143 
0.0584789 0.206599 0.0643766 0.0730446 0.206956 0.0820903 0.0440295 0.206046 0.11762 
0.043998 0.206054 0.135215 0.0586442 0.206629 0.100004 0.0731162 0.207018 0.100004 
0.0432141 0.20584 0.170545 0.0428182 0.205662 0.188228 0.0585608 0.188818 0.171041 
0.0729678 0.171245 0.189038 0.0585127 0.206607 0.135563 0.0730924 0.206955 0.117887 
0.0582661 0.206515 0.153325 0.0728406 0.20674 0.153501 0.0580686 0.20632 0.171058 
0.0726765 0.206376 0.188852 0.0577939 0.188667 0.206165 0.0727941 0.171264 0.206537 
0.0574082 0.206152 0.206068 0.0725037 0.206367 0.206286 0.0875155 -0.00642066 0.0110863 
0.0875133 -0.00651088 0.0287057 0.0875363 0.0111132 -0.00639087 0.0875524 0.0286956 -0.00646145 
0.102557 -0.00634846 -0.00625953 0.117608 -0.0060901 -0.00607513 0.102377 -0.00634794 0.0111744 
0.116977 -0.00626154 0.0289356 0.0874811 -0.00681698 0.0642275 0.0874443 -0.00700082 0.082101 
0.0874764 0.0110055 0.0287071 0.0875019 0.028742 0.0110247 0.0874562 0.0286364 0.0286295 
0.0875009 0.0642934 0.0107225 0.102176 -0.00661529 0.0464855 0.116814 -0.00643483 0.0466699 
0.101814 0.0286861 0.0286777 0.116086 0.0644624 0.0109908 0.0874779 -0.00701442 0.117866 
0.0874871 -0.00687261 0.135736 0.0874664 0.0283482 0.0641868 0.0875183 0.0641907 0.0283712 
0.0875228 0.0283952 0.135792 0.0874935 0.0641918 0.171621 0.101999 -0.00683308 0.0821028 
0.116633 -0.00651182 0.0643909 0.101988 -0.00699949 0.100008 0.116436 -0.00672021 0.100007 
0.101934 -0.00694026 0.117871 0.116511 -0.00662462 0.135595 0.101531 0.0284361 0.0642712 
0.115684 0.064419 0.0286981 0.101582 0.028484 0.135705 0.11564 0.0644281 0.171271 
0.115512 0.0287568 0.099999 0.143761 0.0651152 0.100026 0.11554 0.028734 0.117788 
0.143839 0.0650644 0.134897 0.0874925 -0.00649732 0.171245 0.0875215 -0.00640531 0.188865 
0.0874721 0.0110075 0.171261 0.0875013 0.0287606 0.18897 0.087471 0.0286875 0.171423 
0.0874667 0.0642959 0.189326 0.10209 -0.00659505 0.15351 0.11671 -0.00640403 0.153362 
0.101819 0.0287097 0.17131 0.11606 0.0644846 0.188994 0.0875291 0.0111051 0.206358 
0.0875494 0.028692 0.206445 0.102372 -0.00633186 0.188811 0.116946 -0.00625225 0.171073 
0.102543 -0.00633432 0.206248 0.117593 -0.0060726 0.206074 0.0875131 0.0641964 -0.00671985 
0.0875048 0.0820622 -0.00693678 0.102205 0.0287505 -0.0064837 0.117223 0.0114033 -0.00614704 
0.102006 0.0287783 0.0110354 0.116515 0.0112276 0.0289644 0.102116 0.0464611 -0.00660134 
0.116785 0.0466564 -0.00640815 0.102066 0.0642487 -0.00671814 0.116455 0.0821562 -0.00666826 
0.0875046 0.0641956 0.206761 0.0875061 0.082059 0.206969 0.102013 0.0287913 0.188953 
0.11651 0.0112455 0.171037 0.102199 0.0287582 0.206476 0.117219 0.0114156 0.206142 
0.102105 0.0464645 0.206609 0.116768 0.0466588 0.206405 0.10205 0.0642546 0.206722 
0.116399 0.0821757 0.206645 0.0874909 0.117869 -0.0070904 0.087456 0.135745 -0.00686028 
0.0875734 0.135786 0.0283626 0.0875204 0.171629 0.0641765 0.101942 0.100019 -0.00707885 
0.116346 0.100012 -0.00678024 0.101605 0.135713 0.0284448 0.115644 0.171304 0.0644021 
0.115502 0.0999948 0.0287271 0.14377 0.100011 0.0651187 0.11554 0.117794 0.0287205 
0.143837 0.134911 0.0650773 0.0875115 0.117842 0.207021 0.0874531 0.135717 0.206785 
0.0874797 0.135813 0.171609 0.0875188 0.17162 0.135776 0.0875296 0.135705 0.189312 
0.0875536 0.171361 0.171355 0.101951 0.100009 0.207039 0.116331 0.100022 0.206747 
0.10152 0.135727 0.171518 0.115665 0.171269 0.135554 0.101748 0.135634 0.189266 
0.116126 0.171124 0.171093 0.115456 0.0999978 0.171227 0.143827 0.0999846 0.134869 
0.115707 0.100014 0.189059 0.144095 0.099972 0.170013 0.115448 0.117774 0.171274 
0.143882 0.134861 0.134892 0.115801 0.117791 0.189019 0.14421 0.134822 0.170008 
0.0874843 0.171272 -0.00644911 0.0875294 0.188841 -0.00638024 0.0874916 0.171281 0.0110308 
0.0875279 0.188977 0.02874 0.0875197 0.171438 0.0286877 0.0875052 0.189348 0.0642856 
0.102043 0.135753 -0.00683168 0.116459 0.117813 -0.00667071 0.102099 0.153512 -0.00669986 
0.116737 0.153326 -0.00650448 0.102201 0.171183 -0.00647021 0.11724 0.188608 -0.00615726 
0.102021 0.1712 0.0109966 0.116565 0.188805 0.0289504 0.101857 0.171316 0.0286633 
0.116069 0.189024 0.0644442 0.115863 0.153371 0.0288024 0.144017 0.15243 0.0651226 
0.0874838 0.171252 0.188961 0.0875161 0.188984 0.171282 0.0874843 0.171235 0.206395 
0.0875294 0.18884 0.206356 0.101992 0.135758 0.206786 0.116405 0.117807 0.206651 
0.102035 0.153568 0.206639 0.116664 0.15338 0.206467 0.102046 0.171196 0.188998 
0.116546 0.188817 0.171046 0.102175 0.171219 0.206479 0.117246 0.188629 0.206151 
0.116194 0.153343 0.18889 0.14442 0.15228 0.169961 0.0875391 0.206361 0.0110849 
0.0875391 0.206461 0.0286955 0.102546 0.206306 -0.00630177 0.117608 0.2061 -0.0060921 
0.10238 0.20632 0.0111396 0.116971 0.20627 0.0289376 0.0874694 0.206777 0.0641991 
0.0874896 0.206985 0.0820871 0.102103 0.206623 0.0464427 0.116693 0.206427 0.0466188 
0.0874847 0.206973 0.117863 0.0874753 0.206824 0.135744 0.101933 0.206873 0.0820935 
0.116462 0.206557 0.0644087 0.101954 0.207012 0.100007 0.116378 0.206693 0.100016 
0.10195 0.206839 0.117893 0.11648 0.206527 0.135588 0.115496 0.171236 0.0999895 
0.143849 0.134897 0.0999945 0.115734 0.18905 0.099996 0.144146 0.170034 0.0999937 
0.0875154 0.20649 0.171288 0.0875298 0.206394 0.188909 0.102056 0.206603 0.153537 
0.116683 0.206429 0.153355 0.102371 0.206339 0.188848 0.116961 0.206301 0.171074 
0.102539 0.206324 0.206286 0.117622 0.206114 0.206073 0.132197 -0.00567475 0.0117412 
0.131836 -0.00589539 0.0294392 0.132191 0.0118103 -0.00573483 0.131749 0.0293782 -0.00585337 
0.148094 -0.00486182 -0.00488501 0.162704 -0.00319011 -0.00418658 0.147134 0.0126356 -0.00502718 
0.161114 0.031788 -0.00380786 0.131103 -0.00622952 0.0647628 0.130966 -0.00623998 0.0823939 
0.131018 0.0116535 0.0293692 0.131032 0.0293836 0.0116206 0.13038 0.0293263 0.0292829 
0.13039 0.0648096 0.0114557 0.146665 -0.00487448 0.030096 0.160734 -0.00374536 0.0139231 
0.146146 -0.00511639 0.0477623 0.160242 -0.00383112 0.0486664 0.146024 -0.00513959 0.0651911 
0.160221 -0.00397687 0.0828288 0.145383 0.0125974 0.0301458 0.159738 0.0314974 0.0138956 
0.144906 0.0125111 0.0477653 0.159328 0.0314168 0.0486684 0.144673 0.012359 0.0651521 
0.159199 0.0313042 0.0829123 0.144431 0.030123 0.0476575 0.15906 0.065747 0.0486293 
0.144267 0.0300552 0.0651809 0.158946 0.0658066 0.082917 0.130918 -0.00612544 0.11765 
0.130996 -0.00610959 0.135298 0.129795 0.029201 0.0647099 0.129853 0.0647116 0.0292062 
0.145592 -0.00534949 0.0999867 0.160024 -0.00382642 0.0999833 0.144634 0.0122724 0.0999922 
0.159219 0.0312107 0.0999947 0.144209 0.02993 0.100002 0.158955 0.0657309 0.0999935 
0.144221 0.029947 0.1174 0.159007 0.0657522 0.134202 0.131796 -0.00586115 0.170581 
0.132185 -0.00566054 0.188262 0.13102 0.0116935 0.170639 0.131036 0.0294025 0.188367 
0.130409 0.0293316 0.170693 0.130355 0.0647697 0.188508 0.145971 -0.00515744 0.134816 
0.160216 -0.0040114 0.117146 0.14611 -0.00516112 0.152244 0.160244 -0.00387657 0.151334 
0.146657 -0.00490349 0.169908 0.160744 -0.0037537 0.186095 0.14469 0.0123203 0.134825 
0.159231 0.0312408 0.117069 0.144934 0.0124452 0.152238 0.159352 0.0313916 0.151343 
0.145399 0.012565 0.169862 0.15975 0.0314978 0.186094 0.144476 0.0300408 0.152308 
0.159078 0.0658319 0.151404 0.132191 0.0118171 0.205728 0.131746 0.0293858 0.205839 
0.14809 -0.00485996 0.204892 0.162705 -0.00317812 0.20421 0.147134 0.0126371 0.205023 
0.16111 0.0318007 0.203796 0.131162 0.0647363 -0.00624173 0.131023 0.0823901 -0.00624733 
0.145816 0.0478118 -0.00535382 0.160107 0.0488321 -0.00378349 0.144961 0.0477736 0.0124082 
0.15934 0.048701 0.0313515 0.144809 0.0652486 0.0123907 0.15924 0.0829267 0.0313373 
0.13111 0.0647743 0.206186 0.130967 0.0824372 0.206197 0.144957 0.0477613 0.187582 
0.159341 0.0487036 0.168663 0.145802 0.0477935 0.205334 0.160106 0.0488404 0.203796 
0.144787 0.0652329 0.187614 0.159254 0.0829186 0.16872 0.130958 0.117656 -0.00613635 
0.131104 0.135304 -0.00605822 0.145975 0.0826741 -0.00523097 0.160292 0.0658472 -0.00394504 
0.146016 0.100077 -0.00508489 0.160332 0.100001 -0.00409471 0.14457 0.100018 0.0122572 
0.15921 0.0999932 0.031282 0.144176 0.100009 0.0299421 0.158918 0.10001 0.0657241 
0.14577 0.117359 -0.00531924 0.160131 0.133889 -0.00395389 0.144628 0.117366 0.012312 
0.159259 0.134167 0.0312945 0.144151 0.117375 0.0299243 0.158976 0.134188 0.0657603 
0.130922 0.117654 0.206104 0.131068 0.135278 0.206049 0.145864 0.082709 0.205193 
0.160258 0.0658453 0.203984 0.144602 0.100019 0.187607 0.159231 0.0999727 0.168745 
0.145941 0.100076 0.205017 0.160307 0.0999915 0.204107 0.144629 0.117369 0.187595 
0.159265 0.134155 0.168774 0.145689 0.117329 0.205246 0.160105 0.133881 0.203979 
0.131731 0.17062 -0.00582147 0.13218 0.188188 -0.00574064 0.131042 0.17059 0.0116627 
0.13102 0.188342 0.0293736 0.130417 0.170686 0.029324 0.130353 0.188552 0.0647574 
0.145837 0.152201 -0.00534537 0.160233 0.151178 -0.00377519 0.144958 0.152267 0.0124123 
0.159351 0.151295 0.031279 0.144492 0.152289 0.0300314 0.15907 0.151348 0.0658074 
0.13102 0.170571 0.188305 0.13099 0.188294 0.170554 0.131723 0.170599 0.20581 
0.132178 0.188179 0.205721 0.144989 0.152237 0.187567 0.159377 0.151292 0.16876 
0.145825 0.152186 0.205306 0.160251 0.151193 0.203806 0.132218 0.205678 0.0117314 
0.131861 0.20591 0.0294045 0.147126 0.187355 -0.00503786 0.161148 0.16827 -0.00382847 
0.148076 0.204859 -0.00490954 0.162695 0.203215 -0.00421209 0.131094 0.206223 0.0647434 
0.130968 0.20622 0.0824113 0.145388 0.187434 0.0301319 0.159739 0.168573 0.0139043 
0.145003 0.187508 0.0477665 0.159362 0.168553 0.0486419 0.144759 0.187639 0.0651977 
0.159256 0.168688 0.0829281 0.146678 0.204895 0.0300831 0.160747 0.203779 0.0139066 
0.146173 0.205147 0.0477465 0.16026 0.203873 0.0486642 0.146048 0.205153 0.0651985 
0.160249 0.204035 0.0828388 0.130972 0.206216 0.117615 0.131065 0.206245 0.135228 
0.144711 0.18759 0.100011 0.159263 0.168787 0.100002 0.14556 0.205273 0.100022 
0.160027 0.203864 0.100005 0.131836 0.20586 0.170515 0.132226 0.205652 0.188218 
0.144813 0.187571 0.134826 0.159266 0.168606 0.117084 0.145035 0.187446 0.152254 
0.159385 0.168536 0.151379 0.145352 0.187368 0.169858 0.159748 0.168571 0.186129 
0.146051 0.205123 0.134812 0.160263 0.204025 0.117173 0.146104 0.205118 0.152262 
0.160239 0.203872 0.151355 0.146627 0.204842 0.169885 0.160738 0.203771 0.186083 
0.147103 0.18735 0.205023 0.161149 0.168296 0.203855 0.14805 0.204857 0.204875 
0.162672 0.203231 0.204191 0.175 0 0.0166667 0.175 0 0.0333333 
0.175 0.0166667 0 0.175 0.0333333 0 0.175 0 0.0666667 
0.175 0 0.0833333 0.175 0.0166667 0.0333333 0.175 0.0333333 0.0166667 
0.175 0.0166667 0.05 0.175 0.0333333 0.05 0.175 0.0166667 0.0666667 
0.175 0.0333333 0.0833333 0.175 0 0.116667 0.175 0 0.133333 
0.175 0.0166667 0.1 0.175 0.0333333 0.1 0.175 0 0.166667 
0.175 0 0.183333 0.175 0.0166667 0.133333 0.175 0.0333333 0.116667 
0.175 0.0166667 0.15 0.175 0.0333333 0.15 0.175 0.0166667 0.166667 
0.175 0.0333333 0.183333 0.175 0.0166667 0.2 0.175 0.0333333 0.2 
0.175 0.05 0.0166667 0.175 0.05 0.0333333 0.175 0.0666667 0 
0.175 0.0833333 0 0.175 0.0666667 0.0166667 0.175 0.0833333 0.0333333 
0.175 0.05 0.0666667 0.175 0.05 0.0833333 0.175 0.0666667 0.05 
0.175 0.0833333 0.05 0.175 0.05 0.116667 0.175 0.05 0.133333 
0.175 0.0666667 0.0833333 0.175 0.0833333 0.0666667 0.175 0.0666667 0.1 
0.175 0.0833333 0.1 0.175 0.0666667 0.116667 0.175 0.0833333 0.133333 
0.175 0.05 0.166667 0.175 0.05 0.183333 0.175 0.0666667 0.15 
0.175 0.0833333 0.15 0.175 0.0666667 0.183333 0.175 0.0833333 0.166667 
0.175 0.0666667 0.2 0.175 0.0833333 0.2 0.175 0.1 0.0166667 
0.175 0.1 0.0333333 0.175 0.116667 0 0.175 0.133333 0 
0.175 0.1 0.0666667 0.175 0.1 0.0833333 0.175 0.116667 0.0333333 
0.175 0.133333 0.0166667 0.175 0.116667 0.05 0.175 0.133333 0.05 
0.175 0.116667 0.0666667 0.175 0.133333 0.0833333 0.175 0.1 0.116667 
0.175 0.1 0.133333 0.175 0.116667 0.1 0.175 0.133333 0.1 
0.175 0.1 0.166667 0.175 0.1 0.183333 0.175 0.116667 0.133333 
0.175 0.133333 0.116667 0.175 0.116667 0.15 0.175 0.133333 0.15 
0.175 0.116667 0.166667 0.175 0.133333 0.183333 0.175 0.116667 0.2 
0.175 0.133333 0.2 0.175 0.15 0.0166667 0.175 0.15 0.0333333 
0.175 0.166667 0 0.175 0.183333 0 0.175 0.166667 0.0166667 
0.175 0.183333 0.0333333 0.175 0.15 0.0666667 0.175 0.15 0.0833333 
0.175 0.166667 0.05 0.175 0.183333 0.05 0.175 0.15 0.116667 
0.175 0.15 0.133333 0.175 0.166667 0.0833333 0.175 0.183333 0.0666667 
0.175 0.166667 0.1 0.175 0.183333 0.1 0.175 0.166667 0.116667 
0.175 0.183333 0.133333 0.175 0.15 0.166667 0.175 0.15 0.183333 
0.175 0.166667 0.15 0.175 0.183333 0.15 0.175 0.166667 0.183333 
0.175 0.183333 0.166667 0.175 0.166667 0.2 0.175 0.183333 0.2 
0.175 0.2 0.0166667 0.175 0.2 0.0333333 0.175 0.2 0.0666667 
0.175 0.2 0.0833333 0.175 0.2 0.116667 0.175 0.2 0.133333 
0.175 0.2 0.166667 0.175 0.2 0.183333 0.147087 0.204985 0.0125072 
0.161729 0.185844 -0.00393492 0.0727913 -0.00652128 0.17126 0.160477 0.203886 0.031424 
0.175 0.183333 0.0166667 0.160118 0.185989 0.013924 0 0.0333333 0.0333333 
0.175 0.0666667 0.166667 0 0.0666667 0.0666667 0.0585972 0.20662 0.0821986 
0.175 0.116667 0.116667 0.143953 0.0999718 0.15242 0.0577321 0.206111 0.0113478 
0.0726721 0.188817 -0.00638264 0.175 0.133333 0.166667 0.145743 0.0653021 0.205307 
0.159555 0.065886 0.18621 0.0279647 -0.00495818 0.0125204 0.0132781 0.0141367 -0.00393723 
0.073039 0.0821531 -0.00693923 0.116944 0.0289798 -0.00626382 0.0726713 0.0111331 -0.00639665 
0.0576829 -0.00610685 0.0113452 0.0292743 0.205218 0.117488 0.015496 0.0314002 0.0313558 
0.0580611 0.0289558 -0.0063347 0.0581254 0.0113391 0.011309 0 0.133333 0.0333333 
0.159611 0.0829032 0.18625 0.175 0.0833333 0.183333 0.160293 0.0829379 0.204092 
0.0286835 0.169795 -0.00521974 0 0.0166667 0.0166667 0.0148916 0.013994 0.0139143 
0.0145584 -0.00388483 0.0314285 0.0151842 0.0139642 0.0313976 0.072838 0.206498 0.02869 
0.0728227 0.188849 0.0111092 0.0309646 0.0650428 0.0475919 0.175 0.166667 0.166667 
0.0307687 0.030073 0.0825836 0 0.116667 0.0166667 0.0147264 0.117099 -0.00403277 
0 0.0333333 0.166667 0.116983 0.171028 -0.00628495 0.129536 0.153084 0.135301 
0.0730183 -0.00686801 0.13569 0.146397 0.169788 0.205238 0.117325 0.206119 0.188612 
0.102362 0.188836 0.206349 0.0730013 0.189006 0.0287265 0.0292596 0.0652871 -0.0052581 
0.0153035 0.0487097 0.0137613 0.0286737 0.169793 0.205228 0 0.166667 0.0333333 
0.0145669 -0.0038627 0.168571 0 0.0166667 0.183333 0.0151948 0.0139872 0.168612 
0.175 0.0833333 0.0833333 0.0290569 0.187345 0.0124288 0.0279597 0.204972 0.0125264 
0.0133094 0.1858 -0.00391211 0.0149078 0.185962 0.0139277 0.0145535 0.20388 0.0314241 
0.0151876 0.186027 0.0313965 0 0.183333 0.0166667 0 0.133333 0.166667 
0.0154205 0.151317 0.0138581 0.0155022 0.168603 0.031363 0.0296866 0.169808 0.0124354 
0 0.166667 0.166667 0 0.0666667 0.0333333 0.0154143 0.0658554 0.0137883 
0 0.0833333 0.0166667 0.0154579 0.0829723 0.0138462 0.0154149 0.100016 0.0138345 
0.0147653 0.0830211 -0.00403394 0 0.116667 0.183333 0.0147352 0.117087 0.204009 
0.0727937 -0.00652701 0.0286858 0.0729786 0.0109543 0.0287048 0.07281 0.0111118 0.0110916 
0.013309 0.185792 0.203909 0.0290625 0.187325 0.187569 0.027956 0.204958 0.187461 
0.116499 0.13561 0.206565 0 0.166667 0.0666667 0.0153058 0.186136 0.0487059 
0 0.183333 0.0833333 0.0153907 0.186158 0.0658911 0.0147378 0.204026 0.0657761 
0.159225 0.117054 0.168759 0 0.0166667 0.0833333 0.0147408 -0.0040275 0.0657731 
0.0595172 0.171299 0.117773 0.0292781 0.134722 0.205231 0.0154675 0.134135 0.186174 
0.0154334 0.117087 0.186171 0.0292779 -0.00520847 0.0825362 0.0154426 0.0137947 0.0829453 
0.0292485 0.0652979 0.205273 0 0.183333 0.116667 0.015448 0.186187 0.117092 
0.0147406 0.203998 0.134254 0 0.166667 0.133333 0.0153993 0.186118 0.13414 
0.0157499 0.168709 0.134214 0.0153188 0.186088 0.151319 0.044861 0.0115754 0.0824031 
0.0585767 -0.00662233 0.0822051 0.0303129 0.0124749 0.0826429 0.0292758 0.134748 -0.00524274 
0.0154653 0.134162 0.0138214 0.0154233 0.117113 0.0137901 0.0296897 0.169786 0.187574 
0.0154177 0.151289 0.186152 0.0302786 0.169834 0.169887 0.0155153 0.168563 0.168668 
0 0.183333 0.183333 0.0149126 0.185942 0.186071 0.0145586 0.203856 0.168576 
0.0151941 0.185995 0.16861 0.0155133 0.0314206 0.168691 0.0153078 0.0487141 0.186254 
0.0149008 0.0140028 0.186087 0.0132804 0.0141305 0.203935 0.0279793 -0.00495064 0.187474 
0.159728 0.186046 0.151313 0.175 0.166667 0.133333 0.0309872 0.152382 0.117408 
0 0.116667 0.116667 0.0310409 0.134856 0.134862 0.145399 0.16977 0.1876 
0.159518 0.16851 0.168678 0.0286059 0.0302218 -0.00524384 0.0296066 0.0302185 0.0123871 
0.043535 0.0118585 0.0117486 0.0290355 0.0126707 0.0123934 0.117306 -0.00608158 0.188605 
0.102353 0.0111516 0.206327 0.129646 0.0999978 0.0292019 0.0154047 0.0658588 0.186225 
0.0157855 0.0829249 0.168733 0 0.0666667 0.166667 0.160326 0.08294 -0.00407331 
0.175 0.0833333 0.0166667 0.0448851 0.0823543 0.0115409 0.0308838 0.0825599 0.0300061 
0.0157963 0.0829194 0.0312574 0.0445658 0.188396 0.0470627 0.0729713 0.20684 0.0642307 
0.0584889 0.0644255 0.206611 0.0302205 0.0651958 0.187583 0 0.0333333 0.0666667 
0.015731 0.0312608 0.0658412 0.0153057 0.013859 0.0487033 0.0153887 0.013833 0.0658893 
0.175 0.0333333 0.133333 0.175 0.183333 0.0833333 0.160309 0.204011 0.0657411 
0.0292817 -0.00520054 0.117504 0.0154801 0.0137163 0.100025 0.057702 -0.00611905 0.188614 
0.0728171 0.0111143 0.188865 0.0726839 0.0111077 0.206367 0.0153277 0.0139164 0.151327 
0 0.0333333 0.133333 0.0581421 0.0113223 0.18867 0.0580658 0.028924 0.206348 
0.0447113 0.0647138 0.188468 0.0448706 0.0823619 0.188472 0.0730354 0.0821256 0.20696 
0.0444704 0.0470847 0.188466 0.0585245 0.0289547 0.188847 0.0302381 0.0301995 0.169948 
0.144327 0.169983 0.0651402 0.16046 0.203865 0.168576 0.175 0.183333 0.183333 
0.159828 0.185989 0.168607 0.116494 0.0289896 0.011223 0.116646 0.0643998 -0.0065462 
0 0.0833333 0.183333 0.0147614 0.0830436 0.204042 0.0154248 0.100014 0.186125 
0.015453 0.0829823 0.186161 0.0726809 0.188883 0.20637 0.0577199 0.206147 0.188604 
0 0.0166667 0.116667 0.0154528 0.0138211 0.117109 0.014753 -0.00398314 0.134266 
0.0154081 0.0138948 0.134153 0.102364 0.0111396 -0.00633771 0.117315 -0.00609262 0.0113963 
0.116893 0.0113501 0.0113626 0.129867 0.170833 0.0646932 0.12949 0.153138 0.0646677 
0.130093 0.18849 0.100001 0.10206 -0.00674271 0.0642685 0.0448862 0.0115701 0.117624 
0.0448915 0.0115565 0.10002 0.0303242 0.0124787 0.117399 0.0586116 -0.00663353 0.117794 
0.0590392 0.0644425 0.189041 0.0589904 0.0288862 0.171178 0.0729777 0.0109652 0.171233 
0.0446915 0.0293861 0.170724 0.0596129 0.0643459 0.153437 0.0592535 0.0466199 0.171233 
0.05939 0.0643795 0.17125 0.0308075 0.0825428 0.169952 0.0310689 0.0651154 0.134901 
0 0.0833333 0.116667 0.0595301 0.0287174 0.117773 0.0309921 0.0476169 0.117424 
0.0592587 0.0109538 0.117797 0.03083 0.0476319 0.152443 0.0309377 0.0476042 0.134899 
0 0.0666667 0.133333 0.0307965 0.0300389 0.134912 0.0446271 0.0116676 0.152951 
0.0447782 0.0115617 0.135282 0.0157535 0.0313038 0.134239 0.130245 0.135274 0.18845 
0.101982 0.117871 0.206927 0.130089 0.117628 0.188477 0.115953 0.13557 0.188974 
0.175 0.116667 0.183333 0.159607 0.0999923 0.186192 0.159563 0.117025 0.186192 
0.160236 0.116982 0.204077 0.146379 0.0301829 0.205249 0.146003 0.0126514 0.187579 
0.161716 0.0142075 0.203918 0.147086 -0.00498105 0.187479 0.116911 0.188684 0.188647 
0.131483 0.188163 0.188208 0.116972 0.171064 0.206296 0.159587 0.134127 0.186236 
0.145721 0.134707 0.205273 0.144744 0.134775 0.187585 0.15966 0.151258 0.186265 
0.14539 0.0301995 0.187575 0.159598 0.0487439 0.186139 0.160117 0.0140501 0.186069 
0.175 0.0166667 0.183333 0.160469 -0.00388202 0.168576 0.159837 0.013995 0.168587 
0.175 0.0333333 0.166667 0.159501 0.0314629 0.168633 0.159698 0.0139277 0.15129 
0.0728274 0.206514 0.171261 0.0728203 0.188895 0.188871 0.0445539 0.152937 0.188413 
0.0157329 0.134172 0.168707 0.030725 0.134858 0.169933 0.0592604 0.153391 0.171203 
0.0594597 0.153438 0.153403 0.0595914 0.135629 0.153467 0.0584939 0.135586 0.206599 
0.0447756 0.135273 0.188443 0.0303352 0.117369 0.187503 0.0730873 0.117896 0.206972 
0.0448861 0.117608 0.188448 0.0449749 0.0999989 0.188469 0.0595166 0.117807 0.171326 
0.0310457 0.117413 0.152407 0.0592619 0.117805 0.189076 0.031085 0.0999785 0.152414 
0.0309287 0.152388 0.134882 0 0.133333 0.133333 0.0307856 0.169975 0.134881 
0.0308313 0.152357 0.152405 0.102217 0.188849 0.188861 0.0875182 0.188872 0.188889 
0.102203 0.206452 0.171256 0.058037 0.17109 0.206334 0.0435617 0.188185 0.188212 
0.0585228 0.17107 0.188828 0.0581492 0.188712 0.18866 0.0435627 0.188174 0.0117791 
0.0580454 0.171016 -0.00631176 0.058153 0.188657 0.0113287 0.101972 0.082116 0.206876 
0.101906 0.0465391 0.189077 0.0874639 0.0464728 0.189144 0.116943 0.0289853 0.206262 
0.131501 0.011811 0.18825 0.116889 0.0113644 0.188635 0.116098 0.0288919 0.171109 
0.102021 -0.00674061 0.135714 0.101768 0.0643208 0.189201 0.101674 0.0285866 0.153543 
0.0875334 0.0285258 0.153647 0.0729921 0.189038 0.171238 0.0590041 0.171127 0.171149 
0.04463 0.188368 0.152929 0.0447231 0.170653 0.170672 0.0303218 0.187542 0.117384 
0.044896 0.188453 0.10001 0.0586125 0.206635 0.117791 0.144726 0.187658 0.0826436 
0.145773 0.205293 0.0825418 0.159587 0.186205 0.0829169 0.0597579 0.135655 0.135655 
0.11583 0.171222 0.153327 0.101571 0.171498 0.135721 0.116427 0.206604 0.117805 
0.130527 0.152922 0.188404 0.144809 0.169781 0.169892 0.116547 0.171049 0.18878 
0.13039 0.17064 0.170636 0.102056 0.188956 0.17126 0.101894 0.153473 0.189124 
0.0875373 0.153525 0.189124 0.0729639 -0.0068647 0.0642494 0.0445318 0.0116459 0.0470543 
0.0447499 0.0115852 0.064716 0.147081 -0.00496682 0.0125263 0.161719 0.0141977 -0.00391144 
0.0292841 0.205218 0.0825329 0.0154818 0.186282 0.100011 0.0303266 0.187536 0.0826372 
0.0154481 0.186198 0.0829378 0.115367 0.0643847 0.153472 0.130023 0.100007 0.188505 
0.101559 0.0642717 0.171504 0.144291 0.0299443 0.134819 0.116415 -0.00661801 0.117802 
0.129855 0.0292258 0.135301 0.129524 0.0646687 0.153092 0.115829 0.0288182 0.153366 
0.144322 0.0651693 0.169974 0.144715 0.0826449 0.187602 0.144483 0.0476779 0.169933 
0.159285 0.0658568 0.16869 0.144787 0.030148 0.169877 0.0448741 0.188435 0.0823922 
0.044773 0.188433 0.0647161 0.0157421 0.168738 0.0658421 0.145799 0.205261 0.117487 
0.159546 0.186303 0.1 0.144787 0.187606 0.117381 0.0875347 0.171494 0.153599 
0.101953 0.206723 0.135734 0.101698 0.171436 0.153546 0.101875 0.17133 0.171321 
0.160307 0.204002 0.134277 0.159626 0.186052 0.134131 0.175 0.183333 0.116667 
0.159607 0.186167 0.117092 0.14384 0.117419 0.134883 0.1152 0.135626 0.135643 
0.115378 0.153462 0.135606 0.159603 0.0829311 0.0138048 0.145814 0.0652933 -0.00532221 
0.11537 0.153496 0.0643706 0.143774 0.117457 0.0650933 0.143991 0.152448 0.0999888 
0.131498 0.18819 0.011749 0.146409 0.1698 -0.00524397 0.145412 0.169806 0.0124049 
0.145994 0.187356 0.0124 0.0286108 0.0302095 0.205266 0.0435591 0.0118526 0.188247 
0.0296237 0.0302225 0.18764 0.0290559 0.0126782 0.187613 0.0595427 0.117758 0.0287377 
0.159836 0.186006 0.0314094 0.175 0.166667 0.0333333 0.159506 0.168528 0.0313472 
0.14599 0.0126647 0.0124188 0.131495 0.0117958 0.0117462 0.146382 0.0301857 -0.00525987 
0.116398 0.206635 0.0822019 0.143959 0.117404 0.152426 0.144112 0.117382 0.170024 
0.175 0.133333 0.133333 0.0597903 0.135629 0.0643511 0.115197 0.135653 0.0643457 
0.0874964 0.135994 0.1 0.144742 0.134784 0.0123566 0.145766 0.134739 -0.00530952 
0.159632 0.151252 0.0137879 0.159582 0.134128 0.0138088 0.175 0.133333 0.0333333 
0.130559 0.188484 0.0470611 0.116155 0.171134 0.0288819 0.116547 0.171032 0.0112173 
0.116272 0.188942 0.0466816 0.115187 0.0643601 0.135643 0.0874878 0.0999984 0.135972 
0.0597789 0.064341 0.135633 0.145973 0.187316 0.187584 0.147057 0.204948 0.187454 
0.160115 0.185985 0.186085 0.161721 0.185862 0.203936 0.159611 0.186071 0.065881 
0.159715 0.186042 0.0487026 0.175 0.166667 0.0666667 0.101896 0.189096 0.046497 
0.101979 0.206758 0.0642421 0.116909 0.188673 0.011344 0.102382 0.188813 -0.00635938 
0.117303 0.206113 0.0113788 0.0310006 0.0475938 0.0999945 0.0596138 0.0465507 0.0643516 
0.159281 0.168591 0.0658138 0.159178 0.151316 0.0485956 0.144803 0.16985 0.0301035 
0.144489 0.16991 0.0476534 0.143786 0.0650836 0.117451 0.12971 0.0292026 0.117637 
0.159274 0.0313227 0.134174 0.175 0.0666667 0.133333 0.159188 0.0486766 0.151383 
0.159112 0.0485889 0.134201 0.102061 0.188963 0.028766 0.0875282 0.188861 0.0111086 
0.102225 0.188834 0.0111421 0.102209 0.206464 0.0287227 0.159296 0.168553 0.134206 
0.129982 0.152989 0.170694 0.14401 0.134847 0.152429 0.129715 0.153068 0.15297 
0.0446979 0.170658 0.0293407 0.0302648 0.169885 0.0301239 0.0585323 0.170999 0.0111894 
0.0590026 0.171115 0.0288582 0.0874876 0.189155 0.0464686 0.0590846 0.189004 0.0644242 
0.0447291 0.0647095 0.0115492 0.0302328 0.0651829 0.0124329 0.0585141 0.0644402 -0.00659314 
0.0584884 0.135534 -0.00658698 0.0303275 0.117386 0.0124388 0.0596254 0.153417 0.0643385 
0.0310486 0.152414 0.0999916 0.059273 0.171182 0.0465972 0.0594115 0.17122 0.0643652 
0.0308073 0.169944 0.0825726 0.0310625 0.134888 0.0650994 0.0309871 0.117405 0.0475809 
0 0.116667 0.0833333 0.0308248 0.152417 0.0476217 0.0309321 0.134873 0.0475782 
0 0.133333 0.0666667 0.0447691 0.135253 0.0115471 0.0445776 0.15292 0.0116417 
0.0307772 0.134888 0.0300168 0.0157354 0.13423 0.0312791 0 0.0833333 0.0833333 
0.0311458 0.0825553 0.0650927 0.0310201 0.0999995 0.0475539 0.031034 0.0825395 0.0475707 
0.116566 0.135602 -0.00657682 0.130062 0.152973 0.0292829 0.144262 0.134796 0.0299549 
0.159088 0.134195 0.0485928 0.159222 0.117082 0.0313028 0.175 0.133333 0.0666667 
0.159047 0.0486009 0.0829078 0.102201 -0.00644787 0.171234 0.0874996 0.011114 0.188871 
0.102 0.0110486 0.171226 0.102195 0.0111607 0.188825 0.0449554 0.100001 0.0114948 
0.0730568 0.117879 -0.0069323 0.0592498 0.11777 0.0109764 0.0448806 0.117593 0.0115271 
0.102015 0.117883 -0.0069627 0.129679 0.117631 0.029196 0.115645 0.135588 0.0287402 
0.12981 0.135285 0.0292213 0.0597999 0.0643617 0.0643357 0.0875248 0.0999945 0.0640281 
0.115236 0.064336 0.0643458 0.0874748 0.0640127 0.0999714 0.129374 0.0646717 0.0646452 
0.129673 0.0292026 0.100009 0.0444785 0.0470884 0.0115596 0.0446324 0.0293821 0.0293035 
0.0585155 0.0289736 0.0111626 0.0301999 0.0301777 0.0300906 0.087502 0.0110947 0.011094 
0.102226 -0.00645839 0.0287564 0.102202 0.0111435 0.0111629 0.159065 0.117102 0.0485798 
0.158967 0.117089 0.0657572 0.175 0.116667 0.0833333 0.175 0.0666667 0.0333333 
0.159554 0.0658875 0.0138333 0.101579 0.17152 0.0642447 0.087577 0.153639 0.0285054 
0.10172 0.153554 0.028546 0.101782 0.189215 0.0642961 0.175 0.0333333 0.0333333 
0.116262 0.0467068 0.0111007 0.116097 0.028878 0.0288816 0.102001 0.0110273 0.0287603 
0.0730232 0.206863 0.135701 0.0447674 0.188462 0.135272 0.0592374 0.189052 0.117805 
0.0448742 0.188446 0.11762 0.0590737 0.0109852 0.0644226 0.0595067 0.0465686 0.046537 
0.13058 0.0470814 0.0114922 0.144742 0.0826632 0.0123728 0.175 0.0166667 0.0833333 
0.160288 -0.00397936 0.0657441 0.116498 0.0290006 0.188773 0.13057 0.0470777 0.188472 
0.116596 0.0644097 0.20654 0.116237 0.046714 0.188892 0.175 0.0333333 0.0666667 
0.159684 0.0139772 0.0487138 0.159588 0.0139388 0.0658838 0.144211 0.0299957 0.0826086 
0.143859 0.0651407 0.065088 0.158973 0.0657663 0.0658081 0.143996 0.0651247 0.0475734 
0.144293 0.0651483 0.0300297 0.159055 0.100011 0.048554 0.160287 -0.00402059 0.134245 
0.175 0.0166667 0.116667 0.159601 0.0138761 0.134114 0.0592741 0.0466176 0.0287523 
0.0589656 0.0288707 0.0288158 0.0590664 0.0644686 0.0109774 0.115794 0.0287623 0.0466577 
0.115616 0.0287295 0.0644338 0.129992 0.0292326 0.0470106 0.116511 -0.00660565 0.0821911 
0.101658 0.028554 0.0464361 0.0874641 0.0284902 0.0463693 0.101614 0.0642483 0.0284611 
0.101795 0.0643029 0.010785 0.087477 0.0464597 0.0108962 0.101904 0.0465166 0.0109172 
0.101996 0.0821113 -0.00688628 0.159078 0.0485558 0.117089 0.159082 0.0485517 0.100003 
0.175 0.0833333 0.116667 0.158969 0.0657427 0.117084 0.145753 -0.00528241 0.082506 
0.159554 0.0138437 0.0829186 0.144643 0.0123444 0.0826056 0.159566 0.0137807 0.117064 
0.1595 0.0137241 0.0999869 0.144658 0.0123072 0.117371 0.145726 -0.00530678 0.117487 
0.159276 0.0658532 0.0313434 0.144446 0.0476978 0.0300517 0.175 0.116667 0.0166667 
0.159601 0.100007 0.01384 0.160258 0.116995 -0.00405556 0.159552 0.117025 0.01386 
0.159093 0.0486406 0.0658192 0.159161 0.0486461 0.0486246 0.159246 0.0313812 0.0658335 
0.175 0.0666667 0.0666667 0.145376 0.0302135 0.0124104 0.144755 0.0301808 0.0300988 
0.159602 0.048736 0.0138739 0.159483 0.0314743 0.0313692 0.175 0.0166667 0.0166667 
0.160463 -0.00385395 0.0314304 0.160106 0.0140604 0.0139367 0.159827 0.0140308 0.0314123 

CELLS 236 4956
20 69 93 88 68 814 815 925 924 808 809 801 800 805 804 803 802 956 957 1317 961 
20 28 47 45 44 422 423 549 548 420 421 418 419 541 540 539 538 1160 1418 958 1119 
20 93 69 88 94 815 814 808 809 925 924 948 949 816 817 926 927 959 1323 960 961 
20 43 49 86 85 522 523 600 601 536 537 534 535 598 599 909 908 1345 967 1366 1279 
20 5 1 26 6 109 108 114 115 150 151 142 143 110 111 161 160 962 1111 980 991 
20 82 86 81 63 892 893 891 890 889 888 749 748 751 750 747 746 972 1290 1198 963 
20 7 11 48 6 176 177 240 241 192 193 157 156 159 158 173 172 964 1103 994 1409 
20 37 17 54 38 327 326 334 335 480 481 472 473 328 329 485 484 1277 1254 965 1292 
20 55 13 12 51 285 284 245 244 263 262 625 624 282 283 258 259 1211 1221 1212 1087 
20 90 86 49 85 915 914 601 600 603 602 911 910 909 908 598 599 966 967 1306 1330 
20 37 52 50 36 476 477 607 606 474 475 467 466 471 470 469 468 968 969 1237 993 
20 91 92 65 86 940 941 779 778 777 776 917 916 919 918 772 773 970 1184 1047 1193 
20 82 65 86 63 771 770 772 773 892 893 749 748 745 744 751 750 971 1288 972 984 
20 25 5 0 26 149 148 101 100 103 102 388 389 150 151 104 105 1093 989 973 974 
20 46 32 6 48 441 440 165 164 171 170 554 555 442 443 172 173 975 1102 1483 1386 
20 57 46 58 62 557 556 558 559 668 669 670 671 560 561 678 679 976 1135 1327 1149 
20 26 41 25 46 400 401 393 392 389 388 406 407 502 503 394 395 1037 977 982 978 
20 22 38 39 17 376 377 482 483 378 379 323 322 329 328 331 330 1276 1253 1058 979 
20 55 49 12 54 591 590 255 254 263 262 649 648 588 589 260 261 1298 1259 1050 1213 
20 26 5 6 30 151 150 142 143 161 160 398 399 152 153 162 163 1091 1008 1438 980 
20 25 30 26 46 390 391 399 398 388 389 394 395 432 433 406 407 981 1437 982 1092 
20 11 15 16 34 230 231 290 291 232 233 238 239 298 299 308 309 1068 1023 1405 983 
20 82 65 87 86 771 770 774 775 894 895 892 893 772 773 913 912 984 1183 985 986 
20 15 34 36 37 298 299 454 455 300 301 302 303 456 457 466 467 1025 1235 1015 987 
20 43 85 64 48 534 535 761 760 530 531 520 521 583 582 579 578 1431 1096 1490 1433 
20 1 5 26 0 108 109 150 151 114 115 99 98 101 100 105 104 988 989 990 991 
20 52 37 50 53 477 476 474 475 607 606 638 639 478 479 608 609 992 1006 1373 993 
20 60 80 59 86 722 723 705 704 699 698 728 729 886 887 708 709 1371 1495 1282 1504 
20 48 7 6 43 193 192 157 156 173 172 521 520 188 189 168 169 1361 996 1460 994 
20 92 71 96 91 833 832 836 837 944 945 941 940 830 831 943 942 1089 1083 995 1134 
20 26 7 43 6 183 182 188 189 404 405 161 160 157 156 169 168 1110 996 1272 1064 
20 6 26 46 42 160 161 406 407 170 171 166 167 402 403 511 510 1271 1036 1482 1436 
20 32 15 10 11 297 296 225 224 227 226 237 236 231 230 222 223 1069 997 1031 998 
20 90 71 70 49 829 828 821 820 823 822 603 602 597 596 595 594 1379 1260 1001 1297 
20 28 9 8 3 215 214 195 194 199 198 135 134 133 132 131 130 1013 999 1121 1078 
20 68 69 50 66 800 801 619 618 617 616 781 780 783 782 614 615 1314 1343 1000 1357 
20 49 90 54 70 602 603 659 658 588 589 594 595 823 822 652 653 1001 1152 1261 1308 
20 28 43 7 44 416 417 189 188 187 186 418 419 518 519 190 191 1002 1170 1176 1154 
20 92 72 71 67 841 840 827 826 833 832 799 798 795 794 793 792 1003 1191 1088 1348 
20 71 56 51 72 665 664 627 626 633 632 826 827 666 667 634 635 1004 1005 1190 1228 
20 50 37 16 53 475 474 311 310 313 312 608 609 478 479 314 315 1006 1105 1383 1380 
20 5 6 30 32 142 143 162 163 152 153 154 155 164 165 430 431 1028 1387 1007 1008 
20 39 19 35 40 359 358 356 357 461 460 486 487 360 361 462 463 1039 1009 1232 1070 
20 12 11 50 48 229 228 242 243 256 257 252 253 240 241 575 574 1408 1423 1322 1397 
20 21 15 37 16 295 294 302 303 370 371 307 306 290 291 311 310 1010 1024 1043 1020 
20 28 4 9 3 139 138 136 137 215 214 135 134 127 126 133 132 1011 1012 1013 1080 
20 80 84 58 85 882 883 695 694 693 692 884 885 900 901 696 697 1014 1474 1416 1512 
20 15 36 20 37 300 301 365 364 292 293 302 303 466 467 366 367 1015 1016 1018 1017 
20 15 20 21 37 292 293 362 363 294 295 302 303 366 367 370 371 1018 1019 1020 1021 
20 19 18 35 13 339 338 342 343 356 357 273 272 271 270 277 276 1022 1209 1052 1071 
20 39 51 35 18 488 489 465 464 461 460 345 344 347 346 343 342 1252 1208 1072 1233 
20 15 34 37 16 298 299 456 457 302 303 290 291 309 308 311 310 1023 1381 1024 1025 
20 19 23 39 18 350 351 382 383 358 359 339 338 341 340 345 344 1026 1063 1073 1077 
20 5 6 32 11 142 143 164 165 154 155 146 147 158 159 237 236 1027 1104 1030 1028 
20 10 5 32 11 145 144 154 155 226 227 222 223 146 147 237 236 1029 1030 1031 1032 
20 19 33 14 13 354 355 289 288 287 286 273 272 275 274 267 266 1053 1139 1033 1034 
20 26 41 46 42 400 401 502 503 406 407 402 403 500 501 511 510 1035 1439 1036 1037 
20 24 19 39 40 353 352 358 359 384 385 386 387 360 361 486 487 1038 1039 1040 1075 
20 51 91 67 65 636 637 797 796 630 631 628 629 777 776 769 768 1178 1195 1041 1263 
20 17 21 37 16 320 321 370 371 326 327 305 304 307 306 311 310 1042 1043 1294 1045 
20 37 22 21 17 375 374 369 368 371 370 327 326 323 322 321 320 1278 1044 1045 1046 
20 49 91 65 86 604 605 777 776 592 593 600 601 917 916 772 773 1331 1047 1280 1180 
20 7 1 26 2 113 112 114 115 182 183 119 118 106 107 121 120 1048 1049 1055 1112 
20 17 55 12 54 336 337 263 262 247 246 334 335 649 648 260 261 1457 1050 1392 1085 
20 19 33 13 35 354 355 275 274 273 272 356 357 446 447 276 277 1051 1216 1052 1053 
20 7 2 26 27 119 118 120 121 182 183 184 185 122 123 396 397 1117 1054 1066 1055 
20 33 9 8 31 221 220 195 194 203 202 435 434 218 219 200 201 1056 1079 1108 1097 
20 55 18 39 17 349 348 344 345 493 492 337 336 319 318 331 330 1226 1062 1456 1251 
20 23 22 39 17 373 372 378 379 382 383 325 324 323 322 331 330 1057 1058 1061 1059 
20 18 23 39 17 340 341 382 383 344 345 319 318 325 324 331 330 1060 1061 1062 1063 
20 26 7 27 43 183 182 184 185 396 397 404 405 188 189 410 411 1064 1155 1065 1066 
20 32 15 11 34 297 296 231 230 237 236 438 439 298 299 238 239 1067 1068 1390 1069 
20 39 19 18 35 359 358 339 338 345 344 461 460 356 357 342 343 1070 1071 1072 1073 
20 23 19 39 24 351 350 358 359 382 383 380 381 352 353 385 384 1074 1075 1076 1077 
20 28 9 31 8 215 214 218 219 414 415 199 198 195 194 201 200 1078 1079 1130 1320 
20 28 4 29 9 139 138 140 141 412 413 215 214 136 137 217 216 1080 1081 1321 1082 
20 51 91 49 71 636 637 605 604 587 586 632 633 831 830 596 597 1266 1377 1268 1181 
20 96 71 90 91 837 836 828 829 939 938 943 942 830 831 932 933 1083 1376 1084 1303 
20 13 55 12 17 284 285 263 262 245 244 268 269 337 336 246 247 1224 1085 1086 1087 
20 92 71 91 67 833 832 830 831 941 940 799 798 793 792 797 796 1088 1264 1196 1089 
20 25 5 26 30 149 148 150 151 388 389 390 391 152 153 398 399 1090 1091 1092 1093 
20 47 61 45 60 568 569 553 552 549 548 566 567 711 710 550 551 1243 1094 1420 1095 
20 33 49 8 13 450 451 209 208 203 202 275 274 281 280 196 197 1219 1165 1098 1126 
20 85 90 64 48 910 911 767 766 761 760 583 582 585 584 579 578 1312 1426 1096 1443 
20 13 9 8 33 211 210 195 194 197 196 274 275 220 221 202 203 1140 1097 1098 1099 
20 78 64 84 83 755 754 758 759 874 875 872 873 756 757 897 896 1100 1509 1101 1309 
20 6 32 11 48 164 165 237 236 158 159 172 173 442 443 240 241 1102 1421 1103 1104 
20 16 37 54 53 310 311 480 481 316 317 314 315 478 479 645 644 1105 1106 1385 1293 
20 47 33 8 31 449 448 203 202 207 206 437 436 435 434 200 201 1107 1108 1128 1125 
20 1 7 26 6 112 113 182 183 114 115 110 111 157 156 161 160 1109 1110 1111 1112 
20 76 80 60 81 862 863 723 722 719 718 864 865 880 881 724 725 1113 1368 1205 1480 
20 90 94 69 95 934 935 817 816 813 812 936 937 950 951 818 819 1114 1115 1258 1352 
20 90 50 70 66 623 622 620 621 823 822 791 790 614 615 785 784 1411 1342 1131 1150 
20 7 2 27 28 119 118 122 123 184 185 186 187 124 125 408 409 1144 1116 1156 1117 
20 29 28 47 45 413 412 422 423 428 429 426 427 420 421 549 548 1118 1119 1120 1123 
20 3 7 8 28 128 129 174 175 130 131 134 135 186 187 198 199 1146 1177 1121 1122 
20 29 28 31 47 413 412 414 415 424 425 428 429 422 423 436 437 1123 1129 1124 1319 
20 47 33 49 8 449 448 450 451 564 565 207 206 203 202 209 208 1125 1126 1158 1127 
20 28 8 31 47 199 198 200 201 414 415 422 423 206 207 436 437 1161 1128 1129 1130 
20 90 70 69 66 823 822 807 806 813 812 791 790 785 784 783 782 1131 1341 1365 1256 
20 71 97 92 96 838 839 947 946 832 833 836 837 955 954 944 945 1132 1133 1134 1350 
20 58 46 64 62 559 558 562 563 680 681 678 679 560 561 737 736 1135 1136 1461 1452 
20 13 9 33 14 211 210 220 221 274 275 266 267 212 213 289 288 1137 1138 1139 1140 
20 39 56 40 51 494 495 499 498 486 487 488 489 627 626 496 497 1207 1141 1234 1142 
20 3 7 28 2 128 129 186 187 134 135 117 116 119 118 125 124 1143 1144 1145 1146 
20 46 57 58 41 556 557 668 669 558 559 503 502 505 504 507 506 1147 1148 1441 1149 
20 90 50 48 70 623 622 575 574 585 584 823 822 620 621 580 581 1150 1449 1151 1427 
20 90 54 70 48 659 658 652 653 823 822 585 584 577 576 581 580 1311 1447 1151 1152 
20 58 43 64 42 525 524 530 531 680 681 515 514 509 508 517 516 1153 1488 1453 1484 
20 28 43 27 7 416 417 411 410 409 408 187 186 189 188 185 184 1154 1155 1156 1157 
20 8 49 47 44 208 209 565 564 206 207 204 205 543 542 541 540 1163 1240 1159 1158 
20 28 8 47 44 199 198 206 207 422 423 418 419 204 205 541 540 1175 1159 1160 1161 
20 43 49 12 44 522 523 255 254 249 248 518 519 543 542 250 251 1248 1162 1168 1347 
20 12 49 13 44 254 255 281 280 244 245 250 251 543 542 278 279 1162 1164 1166 1223 
20 49 8 13 44 209 208 196 197 281 280 543 542 204 205 278 279 1163 1171 1164 1165 
20 12 13 7 44 244 245 181 180 179 178 250 251 278 279 190 191 1166 1172 1169 1167 
20 43 12 7 44 249 248 179 178 189 188 518 519 250 251 190 191 1168 1169 1170 1360 
20 13 8 7 44 197 196 175 174 181 180 278 279 204 205 190 191 1171 1174 1172 1173 
20 7 8 28 44 174 175 198 199 186 187 190 191 204 205 418 419 1174 1175 1176 1177 
20 91 51 49 65 637 636 587 586 605 604 777 776 628 629 592 593 1178 1179 1180 1181 
20 92 87 65 86 921 920 775 774 779 778 919 918 913 912 772 773 1182 1183 1184 1185 
20 63 61 60 82 731 730 711 710 713 712 748 749 734 735 726 727 1186 1187 1197 1242 
20 60 61 77 82 710 711 732 733 720 721 726 727 734 735 868 869 1187 1188 1199 1189 
20 67 51 72 71 631 630 634 635 794 795 792 793 632 633 827 826 1265 1190 1191 1192 
20 91 92 67 65 940 941 799 798 797 796 777 776 779 778 769 768 1193 1194 1195 1196 
20 63 60 81 82 713 712 724 725 746 747 748 749 726 727 888 889 1197 1204 1198 1291 
20 76 60 77 82 719 718 720 721 860 861 866 867 726 727 868 869 1202 1199 1200 1201 
20 60 76 81 82 718 719 864 865 724 725 726 727 866 867 888 889 1202 1203 1204 1205 
20 39 56 51 55 494 495 627 626 488 489 492 493 661 660 624 625 1206 1229 1249 1207 
20 18 35 13 51 342 343 277 276 271 270 346 347 464 465 282 283 1208 1215 1210 1209 
20 55 13 51 18 285 284 282 283 625 624 349 348 270 271 347 346 1227 1210 1250 1211 
20 49 55 12 51 590 591 263 262 255 254 586 587 625 624 258 259 1269 1212 1220 1213 
20 35 33 13 51 447 446 275 274 277 276 464 465 452 453 282 283 1214 1218 1215 1216 
20 33 49 13 51 450 451 281 280 275 274 452 453 586 587 282 283 1217 1222 1218 1219 
20 49 12 13 51 255 254 244 245 281 280 586 587 258 259 282 283 1220 1221 1222 1223 
20 55 13 18 17 285 284 270 271 349 348 337 336 268 269 319 318 1224 1225 1226 1227 
20 71 56 55 51 665 664 661 660 663 662 633 632 627 626 625 624 1228 1229 1267 1230 
20 51 40 39 35 497 496 487 486 489 488 465 464 463 462 461 460 1231 1232 1233 1234 
20 37 36 50 34 467 466 468 469 474 475 457 456 455 454 459 458 1235 1236 1382 1237 
20 47 60 44 65 566 567 545 544 541 540 572 573 714 715 546 547 1468 1244 1239 1419 
20 49 47 44 65 565 564 541 540 543 542 592 593 572 573 546 547 1238 1239 1246 1240 
20 47 61 60 63 568 569 711 710 566 567 570 571 730 731 712 713 1241 1242 1465 1243 
20 43 44 60 65 518 519 544 545 528 529 532 533 546 547 714 715 1247 1244 1286 1245 
20 43 49 44 65 522 523 543 542 518 519 532 533 592 593 546 547 1281 1246 1247 1248 
20 39 51 18 55 488 489 347 346 345 344 492 493 624 625 348 349 1249 1250 1251 1252 
20 54 39 38 17 491 490 483 482 485 484 335 334 331 330 329 328 1458 1253 1254 1255 
20 90 70 95 69 823 822 824 825 936 937 813 812 807 806 819 818 1256 1257 1258 1296 
20 49 12 54 85 255 254 260 261 588 589 598 599 264 265 656 657 1346 1335 1307 1259 
20 71 49 54 70 597 596 588 589 655 654 821 820 594 595 652 653 1260 1261 1262 1300 
20 51 91 71 67 636 637 831 830 632 633 630 631 797 796 793 792 1263 1264 1265 1266 
20 49 55 51 71 590 591 625 624 586 587 596 597 662 663 632 633 1301 1267 1268 1269 
20 6 43 26 42 168 169 405 404 160 161 166 167 509 508 402 403 1459 1270 1271 1272 
20 73 58 78 57 683 682 688 689 846 847 673 672 669 668 675 674 1273 1326 1274 1522 
20 37 22 17 38 375 374 323 322 327 326 472 473 376 377 328 329 1275 1276 1277 1278 
20 43 49 65 86 522 523 592 593 532 533 536 537 600 601 772 773 1279 1280 1285 1281 
20 59 43 60 86 527 526 528 529 698 699 708 709 536 537 728 729 1367 1284 1282 1283 
20 60 43 65 86 529 528 532 533 714 715 728 729 536 537 772 773 1284 1285 1287 1286 
20 63 60 65 86 713 712 714 715 744 745 750 751 728 729 772 773 1289 1287 1288 1466 
20 60 63 81 86 712 713 746 747 724 725 728 729 750 751 890 891 1289 1290 1370 1291 
20 37 17 16 54 327 326 305 304 311 310 480 481 334 335 316 317 1292 1395 1293 1294 
20 71 95 90 70 834 835 937 936 828 829 821 820 825 824 823 822 1295 1296 1297 1305 
20 49 55 71 54 590 591 662 663 596 597 588 589 649 648 655 654 1298 1299 1300 1301 
20 95 71 90 96 835 834 828 829 937 936 952 953 836 837 938 939 1302 1303 1304 1305 
20 88 69 66 89 809 808 783 782 787 786 922 923 810 811 788 789 1325 1364 1338 1316 
20 90 49 54 85 603 602 588 589 659 658 911 910 598 599 656 657 1306 1307 1313 1308 
20 78 64 62 84 755 754 737 736 739 738 874 875 758 759 742 743 1309 1462 1446 1310 
20 90 66 89 64 791 790 788 789 929 928 767 766 753 752 765 764 1412 1336 1413 1363 
20 54 90 85 48 658 659 911 910 656 657 577 576 585 584 583 582 1311 1312 1334 1313 
20 69 68 88 66 801 800 802 803 808 809 783 782 781 780 787 786 1314 1315 1316 1317 
20 9 29 28 31 216 217 413 412 214 215 218 219 424 425 414 415 1318 1319 1320 1321 
20 54 12 50 48 261 260 256 257 611 610 577 576 252 253 575 574 1333 1322 1448 1391 
20 88 69 89 94 809 808 810 811 922 923 926 927 816 817 930 931 1323 1353 1324 1325 
20 78 58 62 57 689 688 678 679 739 738 675 674 669 668 671 670 1326 1327 1328 1516 
20 69 54 50 70 651 650 611 610 619 618 806 807 652 653 620 621 1329 1450 1344 1355 
20 90 86 91 49 915 914 916 917 932 933 603 602 601 600 605 604 1330 1331 1378 1332 
20 12 54 85 48 260 261 656 657 264 265 252 253 577 576 583 582 1333 1334 1430 1335 
20 89 66 88 64 789 788 786 787 923 922 765 764 753 752 763 762 1336 1337 1339 1338 
20 88 84 89 64 903 902 904 905 922 923 763 762 759 758 765 764 1511 1414 1339 1340 
20 69 70 50 66 806 807 621 620 619 618 783 782 785 784 614 615 1341 1342 1343 1344 
20 49 43 12 85 523 522 249 248 255 254 598 599 534 535 264 265 1345 1432 1346 1347 
20 92 72 97 71 841 840 842 843 946 947 833 832 827 826 839 838 1348 1349 1350 1351 
20 90 94 89 69 934 935 931 930 929 928 813 812 817 816 811 810 1352 1353 1362 1354 
20 69 54 53 50 651 650 645 644 647 646 619 618 611 610 609 608 1355 1384 1372 1356 
20 68 69 52 50 800 801 643 642 641 640 617 616 619 618 607 606 1357 1374 1358 1359 
20 48 7 43 12 193 192 188 189 521 520 253 252 178 179 249 248 1407 1360 1429 1361 
20 69 90 66 89 812 813 791 790 783 782 810 811 929 928 788 789 1362 1363 1364 1365 
20 59 43 86 85 527 526 536 537 708 709 706 707 534 535 909 908 1434 1366 1498 1367 
20 60 80 86 81 722 723 886 887 728 729 724 725 880 881 891 890 1368 1369 1370 1371 
20 69 53 52 50 647 646 639 638 643 642 619 618 609 608 607 606 1372 1373 1374 1375 
20 90 71 49 91 829 828 597 596 603 602 932 933 830 831 604 605 1376 1377 1378 1379 
20 50 37 34 16 475 474 457 456 459 458 313 312 311 310 309 308 1380 1381 1403 1382 
20 54 16 53 50 317 316 314 315 645 644 611 610 312 313 609 608 1393 1383 1384 1385 
20 46 32 30 6 441 440 431 430 433 432 171 170 165 164 163 162 1386 1387 1435 1388 
20 32 34 11 50 438 439 239 238 237 236 444 445 458 459 242 243 1389 1402 1424 1390 
20 12 17 54 50 246 247 334 335 260 261 256 257 332 333 611 610 1396 1394 1391 1392 
20 17 16 54 50 305 304 316 317 334 335 332 333 312 313 611 610 1399 1393 1394 1395 
20 11 17 12 50 234 235 247 246 228 229 242 243 332 333 256 257 1400 1396 1397 1398 
20 11 16 17 50 232 233 304 305 234 235 242 243 312 313 332 333 1404 1399 1400 1401 
20 11 34 16 50 238 239 309 308 232 233 242 243 458 459 312 313 1402 1403 1404 1405 
20 11 7 48 12 177 176 192 193 240 241 228 229 178 179 253 252 1406 1407 1408 1409 
20 64 50 90 66 613 612 622 623 766 767 752 753 614 615 791 790 1410 1411 1412 1428 
20 90 89 84 64 929 928 905 904 907 906 767 766 765 764 759 758 1413 1414 1442 1415 
20 85 59 58 80 707 706 677 676 697 696 885 884 704 705 692 693 1496 1501 1416 1472 
20 60 45 47 44 551 550 548 549 567 566 545 544 539 538 541 540 1417 1418 1419 1420 
20 11 32 50 48 236 237 444 445 242 243 240 241 442 443 575 574 1421 1422 1423 1424 
20 50 64 90 48 612 613 766 767 622 623 575 574 579 578 585 584 1425 1426 1427 1428 
20 43 12 85 48 249 248 264 265 534 535 520 521 252 253 583 582 1429 1430 1431 1432 
20 59 43 85 64 527 526 534 535 706 707 700 701 530 531 761 760 1485 1433 1473 1434 
20 30 6 26 46 163 162 160 161 399 398 432 433 170 171 406 407 1435 1436 1437 1438 
20 46 41 58 42 503 502 506 507 558 559 511 510 500 501 515 514 1439 1440 1454 1441 
20 90 84 85 64 907 906 900 901 911 910 767 766 759 758 761 760 1442 1477 1443 1444 
20 84 62 78 79 743 742 738 739 875 874 879 878 740 741 870 871 1506 1518 1445 1446 
20 70 54 50 48 653 652 611 610 621 620 581 580 577 576 575 574 1447 1448 1449 1450 
20 78 74 79 58 851 850 852 853 870 871 689 688 685 684 691 690 1523 1470 1519 1451 
20 58 46 42 64 559 558 511 510 515 514 680 681 562 563 516 517 1452 1493 1453 1454 
20 54 39 17 55 491 490 331 330 335 334 648 649 492 493 336 337 1455 1456 1457 1458 
20 43 6 48 42 169 168 172 173 520 521 509 508 166 167 513 512 1459 1481 1489 1460 
20 84 64 62 58 759 758 737 736 743 742 695 694 681 680 679 678 1476 1461 1507 1462 
20 58 80 75 74 692 693 859 858 686 687 684 685 855 854 849 848 1471 1463 1464 1500 
20 47 60 65 63 566 567 714 715 572 573 570 571 712 713 745 744 1465 1466 1467 1468 
20 58 80 74 79 692 693 855 854 684 685 690 691 877 876 852 853 1514 1469 1470 1471 
20 85 59 64 58 707 706 700 701 761 760 697 696 677 676 681 680 1472 1486 1475 1473 
20 84 85 64 58 900 901 761 760 759 758 695 694 697 696 681 680 1474 1475 1476 1477 
20 60 75 80 76 716 717 858 859 722 723 718 719 856 857 863 862 1478 1479 1480 1502 
20 48 6 46 42 173 172 170 171 555 554 513 512 166 167 511 510 1481 1482 1492 1483 
20 58 43 59 64 525 524 526 527 676 677 680 681 530 531 700 701 1484 1485 1486 1487 
20 64 43 48 42 531 530 520 521 579 578 517 516 509 508 513 512 1488 1489 1491 1490 
20 64 48 46 42 579 578 555 554 563 562 517 516 513 512 511 510 1491 1492 1493 1494 
20 86 59 85 80 709 708 706 707 909 908 887 886 704 705 885 884 1495 1496 1497 1498 
20 59 58 80 75 677 676 692 693 704 705 702 703 686 687 859 858 1499 1500 1503 1501 
20 60 75 59 80 716 717 703 702 699 698 722 723 858 859 704 705 1502 1503 1504 1505 
20 62 84 58 79 742 743 695 694 679 678 740 741 879 878 690 691 1506 1513 1517 1507 
20 88 84 64 83 903 902 759 758 763 762 899 898 897 896 756 757 1508 1509 1510 1511 
20 80 84 79 58 882 883 879 878 877 876 693 692 695 694 691 690 1512 1513 1514 1515 
20 78 58 79 62 689 688 690 691 870 871 739 738 678 679 741 740 1516 1517 1518 1519 
20 78 74 58 73 851 850 685 684 689 688 847 846 845 844 682 683 1520 1521 1522 1523 

CELL_TYPES 236
-1
-1
-1
-1
-1
-1
-1
-1
-1
-1
-1
-1
-1
-1
-1
-1
-1
-1
-1
-1
-1
-1
-1
-1
-1
-1
-1
-1
-1
-1
-1
-1
-1
-1
-1
-1
-1
-1
-1
-1
-1
-1
-1
-1
-1
-1
-1
-1
-1
-1
-1
-1
-1
-1
-1
-1
-1
-1
-1
-1
-1
-1
-1
-1
-1
-1
-1
-1
-1
-1
-1
-1
-1
-1
-1
-1
-1
-1
-1
-1
-1
-1
-1
-1
-1
-1
-1
-1
-1
-1
-1
-1
-1
-1
-1
-1
-1
-1
-1
-1
-1
-1
-1
-1
-1
-1
-1
-1
-1
-1
-1
-1
-1
-1
-1
-1
-1
-1
-1
-1
-1
-1
-1
-1
-1
-1
-1
-1
-1
-1
-1
-1
-1
-1
-1
-1
-1
-1
-1
-1
-1
-1
-1
-1
-1
-1
-1
-1
-1
-1
-1
-1
-1
-1
-1
-1
-1
-1
-1
-1
-1
-1
-1
-1
-1
-1
-1
-1
-1
-1
-1
-1
-1
-1
-1
-1
-1
-1
-1
-1
-1
-1
-1
-1
-1
-1
-1
-1
-1
-1
-1
-1
-1
-1
-1
-1
-1
-1
-1
-1
-1
-1
-1
-1
-1
-1
-1
-1
-1
-1
-1
-1
-1
-1
-1
-1
-1
-1
-1
-1
-1
-1
-1
-1
-1
-1
-1
-1
-1
-1
-1
-1
-1
-1
-1
-1

POINT_DATA 1524
VECTORS displacement float
0 0 0
0 0 0
0 0 0
0 0 0
0 0 0
0 0 0
0 0 0
0 0 0
0 0 0
0 0 0
0 0 0
0 0 0
0 0 0
0 0 0
0 0 0
0 0 0
0 0 0
0 0 0
0 0 0
0 0 0
0 0 0
0 0 0
0 0 0
0 0 0
0 0 0
-0.00763839 -0.00552651 -0.00584201
-0.00628541 -0.00597697 -0.0029477
-0.00592594 -0.00600257 1.22374e-05
-0.00627083 -0.00598727 0.00294768
-0.00761581 -0.00554867 0.00582235
-0.00629913 -0.0029175 -0.00600852
-0.00631154 -0.00292346 0.00603203
-0.00588181 1.2041e-05 -0.00619263
-0.00585926 2.47143e-05 0.0061563
-0.00629493 0.00290284 -0.00596778
-0.00631476 0.00292061 0.0059993
-0.00760497 0.0055133 -0.00582558
-0.00629043 0.00600272 -0.00296036
-0.00592002 0.00601549 2.79303e-06
-0.00627928 0.00600916 0.00294028
-0.00761256 0.00555897 0.00579447
-0.0124609 -0.00637547 -0.00638597
-0.012484 -0.00662851 -0.00357958
-0.0125286 -0.00715875 -7.23697e-06
-0.0125968 -0.00669402 0.00353217
-0.0124618 -0.00639177 0.00633844
-0.012421 -0.00359923 -0.00654322
-0.0124254 -0.00359683 0.00656059
-0.0125327 2.52994e-05 -0.00724521
-0.0124579 -2.91159e-05 0.00719192
-0.0126706 0.00356715 -0.00660653
-0.0126741 0.00350377 0.00654445
-0.012479 0.00632731 -0.0063845
-0.0124961 0.00658392 -0.00360574
-0.0124492 0.00718675 -3.62668e-06
-0.01254 0.00668779 0.0035649
-0.0124598 0.0063484 0.00639185
-0.0173898 -0.00553472 -0.00582198
-0.0186072 -0.00612859 -0.00292291
-0.0191008 -0.00623478 3.48864e-06
-0.0187152 -0.00606957 0.00296793
-0.0173999 -0.00552855 0.00581726
-0.0185371 -0.00292007 -0.00612519
-0.0185599 -0.00290957 0.00607631
-0.0192121 3.74527e-05 -0.00627894
-0.0192228 5.77685e-05 0.00622493
-0.0186659 0.00293797 -0.00600246
-0.0186987 0.0029338 0.00597782
-0.0173587 0.00554275 -0.00581998
-0.0185825 0.00610654 -0.00297379
-0.0191253 0.00613324 2.94314e-05
-0.0186923 0.00618049 0.00288054
-0.0173546 0.00556331 0.00579342
-0.025 0 0
-0.025 0 0
-0.025 0 0
-0.025 0 0
-0.025 0 0
-0.025 0 0
-0.025 0 0
-0.025 0 0
-0.025 0 0
-0.025 0 0
-0.025 0 0
-0.025 0 0
-0.025 0 0
-0.025 0 0
-0.025 0 0
-0.025 0 0
-0.025 0 0
-0.025 0 0
-0.025 0 0
-0.025 0 0
-0.025 0 0
-0.025 0 0
-0.025 0 0
-0.025 0 0
-0.025 0 0
0 0 0
0 0 0
0 0 0
0 0 0
-0.00433872 -0.00323104 -0.00419544
-0.00637731 -0.00484759 -0.00490082
-0.00239092 -0.00378067 -0.00275082
-0.00493347 -0.00486261 -0.00324163
0 0 0
0 0 0
0 0 0
0 0 0
0 0 0
0 0 0
0 0 0
0 0 0
-0.00188882 -0.00390392 -0.00134512
-0.00437426 -0.00510384 -0.00225706
0 0 0
0 0 0
0 0 0
0 0 0
-0.00186164 -0.00401021 -0.000486421
-0.00422895 -0.00506057 -0.00146746
-0.00168231 -0.00381964 2.84035e-05
-0.00388458 -0.00521911 2.28842e-05
-0.00185589 -0.00398533 0.000538985
-0.00422515 -0.00504292 0.00149893
0 0 0
0 0 0
0 0 0
0 0 0
0 0 0
0 0 0
0 0 0
0 0 0
-0.00187528 -0.00385772 0.00135053
-0.00436708 -0.00507306 0.00227995
0 0 0
0 0 0
-0.00238232 -0.00377086 0.0027419
-0.00491988 -0.00484479 0.00324694
-0.00433279 -0.0032331 0.00418113
-0.00636396 -0.00485249 0.00488953
0 0 0
0 0 0
0 0 0
0 0 0
0 0 0
0 0 0
-0.00281714 -0.00162803 -0.00384587
-0.00543549 -0.00400656 -0.00504107
-0.00140744 -0.00193115 -0.00278539
-0.00368021 -0.00405177 -0.00321592
-0.00192631 -0.00118934 -0.00380194
-0.00416743 -0.00217613 -0.00531516
-0.00178584 -0.000555125 -0.00395999
-0.00407737 -0.000673323 -0.00522305
0 0 0
0 0 0
0 0 0
0 0 0
-0.0010372 -0.00203731 -0.00131562
-0.0032505 -0.00414795 -0.00224765
-0.00112144 -0.00136583 -0.00204596
-0.00335585 -0.00226291 -0.00422632
-0.000918905 -0.000844518 -0.00208401
-0.00295378 -0.000723805 -0.00423526
-0.00290687 -0.00318769 -0.00233963
-0.00778439 -0.00560052 -0.00335605
-0.00264649 -0.00325825 -0.00151431
-0.00749166 -0.00571944 -0.00111976
-0.00282475 -0.00233797 -0.00328443
-0.00779888 -0.00330108 -0.00563818
-0.00260947 -0.00157811 -0.00328739
-0.00750629 -0.00108284 -0.00571641
0 0 0
0 0 0
0 0 0
0 0 0
0 0 0
0 0 0
0 0 0
0 0 0
-0.000910818 -0.00206496 -0.000379073
-0.00304993 -0.0042201 -0.00148998
-0.0009061 -0.0020984 3.06603e-05
-0.00304395 -0.00421587 1.95958e-05
-0.000883097 -0.00205886 0.000456029
-0.00301363 -0.00423025 0.00155069
-0.00248772 -0.00327133 1.01729e-05
-0.00735123 -0.00575936 3.0051e-05
-0.00251074 -0.00330328 0.000776936
-0.00755289 -0.00565754 0.00221039
-0.00224527 -0.00159551 -0.00157815
-0.00714628 -0.00111376 -0.00460517
0 0 0
0 0 0
0 0 0
0 0 0
-0.000999379 -0.00199655 0.00139386
-0.00318773 -0.00411623 0.00229475
-0.0011034 -0.00134958 0.00206344
-0.00335221 -0.00225437 0.00425242
-0.0009365 -0.000844276 0.00208927
-0.00297716 -0.000715454 0.00423371
-0.00272312 -0.00320376 0.00240832
-0.00773114 -0.00555773 0.00330337
-0.00280555 -0.00231413 0.00331055
-0.00782275 -0.00332296 0.00565561
-0.00263355 -0.00154488 0.0032998
-0.00750219 -0.00112187 0.00573347
0 0 0
0 0 0
0 0 0
0 0 0
-0.00139873 -0.00193174 0.00280845
-0.00364579 -0.00403638 0.00322717
-0.00281732 -0.00163984 0.00386487
-0.00542268 -0.00401827 0.00504296
-0.0019334 -0.00119422 0.00381197
-0.00417695 -0.00217729 0.00533411
-0.00179527 -0.000550361 0.00396733
-0.00408713 -0.000653035 0.00522255
0 0 0
0 0 0
0 0 0
0 0 0
-0.00196746 3.02352e-05 -0.00406002
-0.00431192 -4.92719e-05 -0.00500734
0 0 0
0 0 0
0 0 0
0 0 0
0 0 0
0 0 0
0 0 0
0 0 0
-0.000881997 9.637e-07 -0.00209853
-0.00288738 -7.09974e-06 -0.00430433
-0.000913145 0.000455655 -0.00207964
-0.00307957 0.00150428 -0.0042169
-0.00243998 -6.51756e-07 -0.00336425
-0.0073826 -5.34816e-06 -0.00574169
-0.00250743 0.000745623 -0.00336236
-0.00758369 0.00217813 -0.00564694
0 0 0
0 0 0
0 0 0
0 0 0
-0.00217747 -0.00156092 -8.0843e-06
-0.00715457 -0.00459163 -1.74335e-05
-0.00222212 -0.00149281 0.000750425
-0.00723212 -0.00457826 0.00221253
-0.00220549 2.24865e-06 -0.00154571
-0.00713597 1.30465e-06 -0.00457693
-0.00205074 -1.20795e-05 0.0015535
-0.00713534 -1.61375e-05 0.00462318
-0.00222644 0.000750298 -0.00151149
-0.00723455 0.0021787 -0.00456207
-0.00215909 0.000733185 0.00154524
-0.007241 0.00229429 0.00460048
-0.00210392 0.00155358 -2.19981e-06
-0.00714714 0.00461245 -3.47508e-05
-0.00218415 0.00151433 0.000724967
-0.00724994 0.00459169 0.00223198
-0.00651122 -6.31689e-06 -1.51957e-05
-0.0184465 1.55861e-05 5.21681e-06
0 0 0
0 0 0
0 0 0
0 0 0
0 0 0
0 0 0
0 0 0
0 0 0
-0.000871369 -6.27981e-06 0.00203143
-0.00287326 -1.05093e-06 0.00423914
-0.000898793 0.000409694 0.0020215
-0.00307211 0.0014647 0.00420261
-0.00237231 -0.00158239 0.00242454
-0.00740259 -0.00452584 0.00335773
-0.00243479 -2.97517e-05 0.00328412
-0.00733446 2.76528e-06 0.00578479
-0.00249287 0.000729531 0.00328563
-0.00756719 0.00224134 0.0056906
-0.00239028 0.00152894 0.00239084
-0.00739694 0.00453121 0.00335943
0 0 0
0 0 0
-0.00195727 4.09733e-05 0.00404192
-0.00429336 -3.57753e-05 0.0049758
0 0 0
0 0 0
0 0 0
0 0 0
0 0 0
0 0 0
-0.0019025 0.000856208 -0.00392728
-0.00419182 0.000679715 -0.00514304
-0.00172215 0.0011807 -0.00375791
-0.00401474 0.00218732 -0.00526731
-0.00274255 0.00155917 -0.00380293
-0.0054183 0.0040104 -0.00500951
-0.0013912 0.00187223 -0.00278301
-0.00366145 0.00410108 -0.0031938
0 0 0
0 0 0
0 0 0
0 0 0
-0.00101661 0.00138658 -0.00203932
-0.00319755 0.00228807 -0.00416723
-0.00102318 0.00204082 -0.00130719
-0.00323609 0.00417302 -0.0022373
-0.00274863 0.00237442 -0.00323207
-0.00778155 0.00325249 -0.00555972
-0.00281363 0.0032435 -0.00233263
-0.00776964 0.0056031 -0.00334687
-0.0026045 0.00328156 -0.00152072
-0.00749146 0.00570354 -0.00113085
0 0 0
0 0 0
0 0 0
0 0 0
0 0 0
0 0 0
0 0 0
0 0 0
-0.00089937 0.00205969 -0.000383886
-0.00303522 0.00423958 -0.00149285
-0.000892629 0.0020974 1.33464e-05
-0.00303608 0.00422553 8.29978e-06
-0.000887001 0.00206612 0.000427029
-0.00302439 0.00425502 0.00153392
-0.00237637 0.00240794 -0.00158121
-0.00741485 0.00331081 -0.00451494
-0.00245191 0.0032855 2.94646e-06
-0.00735231 0.00576612 1.98101e-05
-0.00251944 0.00330987 0.000758149
-0.00757216 0.00567246 0.00222336
0 0 0
0 0 0
0 0 0
0 0 0
-0.00102444 0.00133221 0.00204048
-0.00321792 0.0022578 0.00419283
-0.00100308 0.00199401 0.00136721
-0.00320239 0.00413713 0.00227651
-0.00276376 0.00231724 0.00326176
-0.00780539 0.00333725 0.00561443
-0.00268857 0.00323895 0.00236445
-0.00773361 0.00557578 0.00330209
0 0 0
0 0 0
0 0 0
0 0 0
-0.00190231 0.000835799 0.00392123
-0.00418513 0.000671452 0.0051074
-0.00173592 0.00116347 0.00376987
-0.00403597 0.0021748 0.00528516
-0.00138601 0.00185289 0.00279057
-0.00364237 0.00406546 0.00319856
-0.00274488 0.00155127 0.0038091
-0.0054193 0.00401407 0.00500781
0 0 0
0 0 0
-0.00433969 0.00317686 -0.0041923
-0.00638522 0.00484304 -0.00488333
-0.00238437 0.00374882 -0.00275249
-0.00494652 0.00489964 -0.00324039
0 0 0
0 0 0
-0.00189776 0.00390244 -0.00133913
-0.00439725 0.00512271 -0.00224002
0 0 0
0 0 0
-0.00186029 0.00400845 -0.000492812
-0.00422931 0.00507243 -0.00146036
-0.00168465 0.00382037 1.37904e-05
-0.00388394 0.00522929 1.07414e-05
-0.00186287 0.00399464 0.000523106
-0.00424023 0.0050668 0.00148169
0 0 0
0 0 0
-0.00189014 0.00386812 0.00134784
-0.00439545 0.00509489 0.00225708
-0.00238156 0.0037345 0.00274642
-0.00494376 0.00487272 0.00323644
-0.00434194 0.00317133 0.0041837
-0.00639284 0.00484515 0.00486988
-0.00719718 -0.0056326 -0.00493154
-0.00680371 -0.00580333 -0.00390119
-0.0071679 -0.00481592 -0.00575374
-0.00670698 -0.0039078 -0.00582945
-0.00928236 -0.00609456 -0.00611734
-0.0108524 -0.00634844 -0.00632083
-0.00888741 -0.0052784 -0.00619104
-0.010489 -0.00458879 -0.00653782
-0.00601471 -0.00601905 -0.00188473
-0.00598045 -0.00602007 -0.000945574
-0.00595831 -0.0049053 -0.00395284
-0.00599219 -0.00388639 -0.00500701
-0.0086401 -0.00629371 -0.00444378
-0.0107001 -0.00637068 -0.00556279
-0.00840788 -0.00648841 -0.00337631
-0.010466 -0.00672513 -0.00356407
-0.0082115 -0.0065988 -0.00229043
-0.0103212 -0.00698805 -0.00124509
-0.00814503 -0.00545202 -0.00442498
-0.0103198 -0.00457735 -0.00572003
-0.00596881 -0.00602745 0.000962668
-0.00599153 -0.00602485 0.00188849
-0.00803018 -0.00662794 1.12311e-05
-0.0102397 -0.007022 8.15894e-06
-0.00679095 -0.00580269 0.00389097
-0.00718447 -0.0056387 0.00491551
-0.00591524 -0.0049048 0.00394476
-0.00597358 -0.00389433 0.00502843
-0.00815272 -0.00658821 0.00222796
-0.010252 -0.00697406 0.00122191
-0.00843813 -0.00648517 0.00333154
-0.0105604 -0.00671845 0.00348803
-0.00862498 -0.00629737 0.00440776
-0.0106852 -0.00637269 0.00550713
-0.00811558 -0.00545424 0.00438858
-0.0103256 -0.0045815 0.00570851
-0.00714788 -0.00483889 0.00575031
-0.00669982 -0.00392757 0.00584942
-0.00926038 -0.00612745 0.00607801
-0.0108372 -0.00637472 0.00626757
-0.00886739 -0.00531149 0.00617676
-0.0104818 -0.00461338 0.00653595
-0.00608224 -0.00192069 -0.00604532
-0.00598738 -0.000943611 -0.00607103
-0.0083123 -0.00334882 -0.00652755
-0.0103673 -0.00355901 -0.0067039
-0.00610029 -0.00191442 0.00606191
-0.0059961 -0.000929238 0.00607278
-0.00833015 -0.00336925 0.00654982
-0.0103854 -0.00358269 0.00672335
-0.00599227 0.000937915 -0.00605528
-0.00609954 0.00190509 -0.00602055
-0.00809161 -0.00108649 -0.00665971
-0.0102958 -0.00237079 -0.00683821
-0.00808885 1.22777e-05 -0.00673602
-0.0103271 3.5668e-05 -0.00707637
-0.00806497 0.00112466 -0.00662796
-0.0103134 0.00239758 -0.00681771
-0.00598578 0.000944401 0.00602568
-0.00609664 0.00190305 0.00601366
-0.0080975 -0.00109743 0.00666837
-0.0103213 -0.00240373 0.00685942
-0.00806064 1.74131e-05 0.00671565
-0.0102762 1.30795e-05 0.00706429
-0.00805734 0.00114681 0.00664521
-0.0103035 0.00242798 0.00686086
-0.00668645 0.00393046 -0.00579778
-0.00715428 0.00483261 -0.00571825
-0.00594185 0.00391826 -0.00496199
-0.00592103 0.00496374 -0.00392919
-0.00841976 0.00328216 -0.00650443
-0.0105556 0.00345182 -0.0067329
-0.00594448 0.00393262 0.00497878
-0.00590513 0.00495061 0.00391285
-0.00669942 0.00396128 0.00581245
-0.00716238 0.00487061 0.00571339
-0.00843088 0.00334757 0.00654332
-0.0105618 0.00352474 0.00673757
-0.0071657 0.00564974 -0.00492915
-0.00678071 0.00584696 -0.00391229
-0.0088672 0.00526115 -0.00617366
-0.0105467 0.00452695 -0.00652176
-0.0092384 0.00608394 -0.0061123
-0.010829 0.00630655 -0.0063197
-0.00600279 0.00603893 -0.00189182
-0.00596565 0.00603431 -0.00095261
-0.00811173 0.005464 -0.00440481
-0.0103498 0.00452098 -0.00570372
-0.0085903 0.00630306 -0.00444299
-0.0106578 0.00633444 -0.0055518
-0.00838765 0.0065221 -0.00339162
-0.0104611 0.00671854 -0.00358572
-0.00818781 0.00659866 -0.0022901
-0.0102887 0.00695624 -0.00124299
-0.00597054 0.00604649 0.000953032
-0.00600205 0.0060543 0.0018812
-0.00802243 0.00662878 3.7952e-06
-0.0102171 0.00701809 4.36845e-06
-0.00678592 0.00583953 0.00387806
-0.00718179 0.00566221 0.00489435
-0.00810592 0.00548468 0.00437445
-0.0103656 0.00457863 0.00570477
-0.00815392 0.00660672 0.00222971
-0.0102409 0.0069554 0.00122077
-0.00840054 0.00651545 0.00332517
-0.0104927 0.00674024 0.00350057
-0.00859811 0.00632024 0.0043916
-0.0106568 0.00637604 0.00551826
-0.00887278 0.00533398 0.00616499
-0.0105392 0.00459739 0.00653663
-0.00925851 0.00615226 0.00606761
-0.0108297 0.00636665 0.00628609
-0.0124845 -0.00642066 -0.00558032
-0.0124867 -0.00651088 -0.00462764
-0.0124637 -0.00555345 -0.00639087
-0.0124476 -0.00463771 -0.00646145
-0.0141093 -0.00634846 -0.00625953
-0.0157256 -0.0060901 -0.00607513
-0.0142898 -0.00634794 -0.00549227
-0.0163566 -0.00626154 -0.00439769
-0.0125189 -0.00681698 -0.00243915
-0.0125557 -0.00700082 -0.00123238
-0.0125236 -0.00566121 -0.00462619
-0.0124981 -0.00459138 -0.00564201
-0.0125438 -0.00469694 -0.00470378
-0.0124991 -0.00237327 -0.00594412
-0.0144911 -0.00661529 -0.00351445
-0.0165194 -0.00643483 -0.00333011
-0.0148524 -0.00464722 -0.00465564
-0.0172476 -0.00220431 -0.00567591
-0.0125221 -0.00701442 0.0011994
-0.0125129 -0.00687261 0.00240287
-0.0125336 -0.0049851 -0.00247982
-0.0124817 -0.00247596 -0.00496211
-0.0124772 -0.00493818 0.00245879
-0.0125065 -0.00247491 0.00495467
-0.0146678 -0.00683308 -0.00123056
-0.0167001 -0.00651182 -0.0022758
-0.0146791 -0.00699949 7.73983e-06
-0.0168976 -0.00672021 7.22482e-06
-0.0147323 -0.00694026 0.00120447
-0.0168224 -0.00662462 0.00226198
-0.0151355 -0.00489727 -0.00239543
-0.0176488 -0.00224762 -0.00463521
-0.0150851 -0.00484938 0.00237209
-0.0176932 -0.00223859 0.00460412
-0.0178211 -0.00457656 -1.01548e-06
-0.0229056 -0.00155143 2.55565e-05
-0.0177936 -0.00459932 0.00112133
-0.0228274 -0.00160232 0.00156352
-0.0125075 -0.00649732 0.00457783
-0.0124785 -0.00640531 0.00553138
-0.0125279 -0.00565912 0.00459449
-0.0124987 -0.00457275 0.00563672
-0.012529 -0.00464585 0.00475656
-0.0125333 -0.00237075 0.00599257
-0.0145767 -0.00659505 0.00350954
-0.0166234 -0.00640403 0.00336173
-0.0148477 -0.00462366 0.00464348
-0.0172737 -0.00218206 0.00566054
-0.0124709 -0.00556157 0.0063581
-0.0124506 -0.00464134 0.0064453
-0.0142942 -0.00633186 0.00547735
-0.0163873 -0.00625225 0.00440607
-0.014124 -0.00633432 0.00624801
-0.0157405 -0.0060726 0.00607432
-0.0124869 -0.00247027 -0.00671985
-0.0124952 -0.00127118 -0.00693678
-0.0144616 -0.00458287 -0.0064837
-0.0161107 -0.00526341 -0.00614704
-0.0146605 -0.00455498 -0.00563126
-0.0168179 -0.00543904 -0.00436898
-0.0145505 -0.0035389 -0.00660134
-0.0165485 -0.00334356 -0.00640815
-0.0146009 -0.002418 -0.00671814
-0.0168788 -0.00117713 -0.00666826
-0.0124954 -0.00247109 0.00676066
-0.0124939 -0.00127432 0.00696855
-0.0146535 -0.00454205 0.00561972
-0.0168238 -0.00542112 0.00437064
-0.0144676 -0.00457512 0.00647554
-0.0161145 -0.00525108 0.006142
-0.0145614 -0.0035355 0.00660898
-0.0165653 -0.0033412 0.00640545
-0.0146171 -0.00241202 0.00672176
-0.0169347 -0.00115762 0.00664499
-0.0125091 0.00120258 -0.0070904
-0.012544 0.00241196 -0.00686028
-0.0124266 0.00245303 -0.00497073
-0.0124796 0.00496238 -0.00249014
-0.0147248 1.92457e-05 -0.00707885
-0.0169874 1.17645e-05 -0.00678024
-0.015062 0.00238006 -0.00488858
-0.0176893 0.0046373 -0.00226461
-0.0178315 -5.20741e-06 -0.00460622
-0.0228965 1.13377e-05 -0.00154792
-0.0177932 0.00112743 -0.00461279
-0.0228297 0.00157727 -0.00158934
-0.0124885 0.00117529 0.00702121
-0.0125469 0.00238327 0.00678491
-0.0125203 0.00247977 0.00494199
-0.0124812 0.00495309 0.00244239
-0.0124704 0.00237169 0.00597911
-0.0124464 0.00469437 0.00468838
-0.0147156 9.1485e-06 0.00703908
-0.0170023 2.23502e-05 0.00674726
-0.0151465 0.00239341 0.00485157
-0.0176683 0.00460255 0.00222032
-0.0149184 0.00230056 0.00593294
-0.0172071 0.00445773 0.00442669
-0.0178768 -2.19538e-06 0.0045603
-0.0228398 -1.53653e-05 0.00153536
-0.0176259 1.41365e-05 0.00572527
-0.0225716 -2.80144e-05 0.00334662
-0.0178852 0.00110703 0.0046076
-0.0227848 0.00152765 0.00155875
-0.0175326 0.00112458 0.00568538
-0.0224562 0.0014888 0.0033411
-0.0125157 0.0046058 -0.00644911
-0.0124706 0.00550749 -0.00638024
-0.0125084 0.00461387 -0.00563587
-0.0124721 0.00564357 -0.00459334
-0.0124803 0.00477152 -0.00464565
-0.0124948 0.00601426 -0.00238109
-0.0146233 0.00241974 -0.00683168
-0.016874 0.00114625 -0.00667071
-0.0145673 0.00351248 -0.00669986
-0.0165959 0.00332596 -0.00650448
-0.0144656 0.00451637 -0.00647021
-0.0160929 0.00527471 -0.00615726
-0.0146461 0.00453321 -0.00567009
-0.0167684 0.00547151 -0.00438291
-0.0148093 0.00464955 -0.00467002
-0.0172644 0.00569071 -0.00222248
-0.01747 0.00337119 -0.00453093
-0.0226499 0.0024297 -0.00154404
-0.0125162 0.00458531 0.00562805
-0.0124839 0.00565047 0.00461545
-0.0125157 0.00456792 0.00639464
-0.0124706 0.00550629 0.0063559
-0.0146747 0.00242486 0.00678575
-0.0169288 0.00114004 0.00665087
-0.0146315 0.00356831 0.00663894
-0.0166698 0.00338044 0.00646692
-0.0146208 0.0045289 0.00566459
-0.016787 0.00548324 0.00437896
-0.0144917 0.0045526 0.00647862
-0.016087 0.00529606 0.00615145
-0.0171392 0.00334317 0.00555676
-0.0222466 0.00228048 0.00329399
-0.0124609 0.00636067 -0.00558173
-0.0124609 0.0064612 -0.00463786
-0.014121 0.00630552 -0.00630177
-0.0157256 0.00610032 -0.0060921
-0.0142871 0.00631961 -0.00552705
-0.0163625 0.00627001 -0.00439578
-0.0125306 0.00677738 -0.00246758
-0.0125104 0.0069848 -0.00124628
-0.014564 0.00662347 -0.00355734
-0.0166407 0.00642681 -0.00338119
-0.0125153 0.00697284 0.00119673
-0.0125247 0.00682364 0.00241025
-0.0147333 0.0068731 -0.00123985
-0.0168712 0.00655705 -0.00225792
-0.014713 0.00701234 7.44202e-06
-0.0169558 0.00669277 1.63288e-05
-0.0147164 0.00683903 0.00122642
-0.0168533 0.00652733 0.00225512
-0.0178371 0.00456899 -1.05143e-05
-0.022818 0.00156387 -5.54371e-06
-0.0175989 0.00571651 -4.01525e-06
-0.0225204 0.00336711 -6.28631e-06
-0.0124846 0.00649028 0.00462173
-0.0124702 0.00639412 0.00557607
-0.014611 0.00660256 0.00353663
-0.0166502 0.00642941 0.00335543
-0.0142959 0.0063391 0.00551462
-0.0163721 0.00630105 0.00440737
-0.0141278 0.00632395 0.0062861
-0.0157118 0.00611379 0.00607262
-0.0178027 -0.00567475 -0.00492545
-0.0181643 -0.00589539 -0.0038941
-0.0178091 -0.00485634 -0.00573483
-0.0182507 -0.0039551 -0.00585337
-0.0185732 -0.00486182 -0.00488501
-0.0206292 -0.00319011 -0.00418658
-0.0195324 -0.00403103 -0.00502718
-0.0222198 -0.00154535 -0.00380786
-0.0188972 -0.00622952 -0.00190391
-0.019034 -0.00623998 -0.000939476
-0.0189818 -0.00501315 -0.00396415
-0.0189684 -0.00394971 -0.00504607
-0.0196202 -0.00400701 -0.00405042
-0.0196097 -0.00185709 -0.00521093
-0.020002 -0.00487448 -0.00323732
-0.0225996 -0.00374536 -0.00274353
-0.0205208 -0.00511639 -0.00223775
-0.0230915 -0.00383112 -0.00133356
-0.0206428 -0.00513959 -0.00147561
-0.0231119 -0.00397687 -0.000504561
-0.0212839 -0.00406932 -0.00318754
-0.0235958 -0.00183589 -0.00277109
-0.0217603 -0.00415561 -0.0022347
-0.0240051 -0.00191649 -0.00133164
-0.0219933 -0.00430769 -0.00151461
-0.0241345 -0.00202914 -0.000420989
-0.0222361 -0.00321036 -0.0023425
-0.0242734 -0.00091965 -0.00137069
-0.0223994 -0.00327812 -0.00148579
-0.0243873 -0.000860039 -0.000416357
-0.0190816 -0.00612544 0.000983085
-0.0190042 -0.00610959 0.00196424
-0.0202048 -0.00413236 -0.00195678
-0.0201468 -0.00195503 -0.00412709
-0.0210747 -0.00534949 -1.33243e-05
-0.0233091 -0.00382642 -1.67328e-05
-0.0220329 -0.00439426 -7.84231e-06
-0.0241147 -0.00212261 -5.34671e-06
-0.0224574 -0.00340332 1.51074e-06
-0.0243788 -0.000935771 -6.50632e-06
-0.0224455 -0.00338633 0.000733081
-0.0243262 -0.000914489 0.000869156
-0.018204 -0.00586115 0.00391425
-0.0178149 -0.00566054 0.00492862
-0.0189797 -0.00497314 0.00397198
-0.0189643 -0.0039308 0.00503395
-0.0195911 -0.00400175 0.00402634
-0.0196449 -0.00189695 0.0051744
-0.0206955 -0.00515744 0.00148271
-0.0231172 -0.0040114 0.000479617
-0.0205565 -0.00516112 0.00224388
-0.0230897 -0.00387657 0.00133382
-0.0200096 -0.00490349 0.00324181
-0.0225897 -0.0037537 0.0027615
-0.0219766 -0.00434639 0.00149211
-0.0241024 -0.00209249 0.000402225
-0.0217324 -0.0042215 0.00223846
-0.0239818 -0.00194172 0.0013427
-0.0212674 -0.00410171 0.00319558
-0.0235838 -0.0018355 0.00276064
-0.0221908 -0.00329251 0.00230794
-0.0242556 -0.000834753 0.00140377
-0.0178087 -0.0048496 0.00572847
-0.0182538 -0.00394758 0.00583882
-0.0185763 -0.00485996 0.00489195
-0.0206283 -0.00317812 0.00420961
-0.019533 -0.00402953 0.00502266
-0.0222235 -0.00153268 0.00379594
-0.0188385 -0.00193042 -0.00624173
-0.018977 -0.000943248 -0.00624733
-0.0208507 -0.00218825 -0.00535382
-0.0232266 -0.00116795 -0.00378349
-0.0217058 -0.00222636 -0.00425846
-0.0239929 -0.00129897 -0.00198182
-0.021858 -0.00141812 -0.00427598
-0.0240931 -0.000406679 -0.00199608
-0.0188896 -0.00189233 0.00618598
-0.0190331 -0.000896108 0.00619681
-0.0217095 -0.00223871 0.00424844
-0.023992 -0.00129643 0.00199586
-0.0208646 -0.00220647 0.00533362
-0.023227 -0.00115956 0.0037957
-0.02188 -0.00143373 0.00428049
-0.0240791 -0.000414769 0.00205304
-0.0190422 0.000989508 -0.00613635
-0.0188965 0.00197078 -0.00605822
-0.0206913 -0.000659232 -0.00523097
-0.0230415 -0.000819493 -0.00394504
-0.0206502 7.69237e-05 -0.00508489
-0.0230014 1.38636e-06 -0.00409471
-0.0220969 1.84614e-05 -0.00440943
-0.024123 -6.83952e-06 -0.00205135
-0.0224905 9.06448e-06 -0.00339124
-0.0244156 9.65048e-06 -0.000942552
-0.0208967 0.000692209 -0.00531924
-0.0232019 0.000555937 -0.00395389
-0.0220389 0.000699282 -0.00435464
-0.024074 0.000833245 -0.00203878
-0.0225162 0.000708235 -0.00340905
-0.0243569 0.000854624 -0.00090634
-0.0190777 0.00098695 0.0061041
-0.0189324 0.00194483 0.00604934
-0.020803 -0.000624341 0.00519288
-0.0230757 -0.000821387 0.00398349
-0.0220647 1.9374e-05 0.00427375
-0.0241023 -2.73363e-05 0.00207836
-0.0207258 7.63947e-05 0.00501701
-0.0230261 -8.4534e-06 0.00410725
-0.0220379 0.000702416 0.0042618
-0.0240685 0.000821573 0.00210708
-0.0209774 0.00066272 0.00524627
-0.0232287 0.000547943 0.0039789
-0.0182686 0.00395307 -0.00582147
-0.01782 0.00485498 -0.00574064
-0.0189582 0.00392294 -0.00500396
-0.0189797 0.00500834 -0.00395976
-0.0195832 0.00401908 -0.00400933
-0.0196472 0.00521908 -0.0019093
-0.0208294 0.00220103 -0.00534537
-0.0231004 0.00117772 -0.00377519
-0.0217085 0.00226742 -0.00425436
-0.0239822 0.00129495 -0.00205431
-0.022175 0.00228868 -0.00330193
-0.0242634 0.001348 -0.000859239
-0.0189799 0.00390408 0.00497199
-0.0190097 0.00496051 0.0038872
-0.018277 0.00393198 0.00581005
-0.0178217 0.00484558 0.00572113
-0.0216779 0.00223663 0.00423357
-0.0239563 0.00129247 0.00209324
-0.020842 0.00218554 0.00530557
-0.0230819 0.00119324 0.00380588
-0.0177818 0.00567844 -0.00493524
-0.0181388 0.00591024 -0.00392885
-0.0195407 0.00402167 -0.00503786
-0.0221853 0.00160352 -0.00382847
-0.0185904 0.00485898 -0.00490954
-0.0206379 0.00321505 -0.00421209
-0.0189055 0.00622293 -0.00192325
-0.0190323 0.00621989 -0.000922026
-0.0212789 0.0041004 -0.00320145
-0.0235944 0.00190591 -0.00276239
-0.021664 0.00417426 -0.00223348
-0.0239712 0.00188677 -0.00135805
-0.0219081 0.00430604 -0.00146901
-0.0240773 0.00202119 -0.000405191
-0.0199889 0.0048949 -0.00325028
-0.0225859 0.0037789 -0.0027601
-0.0204938 0.00514713 -0.0022535
-0.0230737 0.00387279 -0.00133578
-0.0206186 0.00515292 -0.0014682
-0.0230839 0.00403504 -0.000494576
-0.0190283 0.0062159 0.000948149
-0.0189349 0.00624465 0.00189485
-0.0219552 0.00425714 1.09231e-05
-0.02407 0.00212008 2.35358e-06
-0.0211068 0.00527292 2.21681e-05
-0.0233062 0.00386427 4.98662e-06
-0.0181636 0.00586042 0.00384867
-0.0177738 0.00565166 0.00488467
-0.0218542 0.00423812 0.00149312
-0.0240672 0.00193883 0.000416835
-0.021632 0.00411298 0.00225445
-0.0239486 0.00186955 0.00137937
-0.0213145 0.00403514 0.00319084
-0.0235857 0.00190415 0.00279559
-0.0206153 0.00512298 0.00147833
-0.0230702 0.00402541 0.000506662
-0.0205626 0.00511812 0.00226246
-0.0230941 0.00387192 0.00135536
-0.0200397 0.00484197 0.00321879
-0.0225949 0.00377145 0.00274946
-0.0195635 0.00401663 0.00502272
-0.0221845 0.00162972 0.00385533
-0.0186171 0.00485745 0.00487451
-0.0206613 0.00323108 0.00419091
-0.025 0 0
-0.025 0 0
-0.025 0 0
-0.025 0 0
-0.025 0 0
-0.025 0 0
-0.025 0 0
-0.025 0 0
-0.025 0 0
-0.025 0 0
-0.025 0 0
-0.025 0 0
-0.025 0 0
-0.025 0 0
-0.025 0 0
-0.025 0 0
-0.025 0 0
-0.025 0 0
-0.025 0 0
-0.025 0 0
-0.025 0 0
-0.025 0 0
-0.025 0 0
-0.025 0 0
-0.025 0 0
-0.025 0 0
-0.025 0 0
-0.025 0 0
-0.025 0 0
-0.025 0 0
-0.025 0 0
-0.025 0 0
-0.025 0 0
-0.025 0 0
-0.025 0 0
-0.025 0 0
-0.025 0 0
-0.025 0 0
-0.025 0 0
-0.025 0 0
-0.025 0 0
-0.025 0 0
-0.025 0 0
-0.025 0 0
-0.025 0 0
-0.025 0 0
-0.025 0 0
-0.025 0 0
-0.025 0 0
-0.025 0 0
-0.025 0 0
-0.025 0 0
-0.025 0 0
-0.025 0 0
-0.025 0 0
-0.025 0 0
-0.025 0 0
-0.025 0 0
-0.025 0 0
-0.025 0 0
-0.025 0 0
-0.025 0 0
-0.025 0 0
-0.025 0 0
-0.025 0 0
-0.025 0 0
-0.025 0 0
-0.025 0 0
-0.025 0 0
-0.025 0 0
-0.025 0 0
-0.025 0 0
-0.025 0 0
-0.025 0 0
-0.025 0 0
-0.025 0 0
-0.025 0 0
-0.025 0 0
-0.025 0 0
-0.025 0 0
-0.025 0 0
-0.025 0 0
-0.025 0 0
-0.025 0 0
-0.025 0 0
-0.025 0 0
-0.025 0 0
-0.025 0 0
-0.025 0 0
-0.025 0 0
-0.025 0 0
-0.025 0 0
-0.025 0 0
-0.025 0 0
-0.025 0 0
-0.025 0 0
-0.025 0 0
-0.025 0 0
-0.025 0 0
-0.025 0 0
-0.025 0 0
-0.025 0 0
-0.025 0 0
-0.025 0 0
-0.025 0 0
-0.025 0 0
-0.025 0 0
-0.025 0 0
-0.025 0 0
-0.025 0 0
-0.025 0 0
-0.025 0 0
-0.0195802 0.00498472 -0.00415947
-0.0216042 0.00251067 -0.00393492
-0.010542 -0.00652128 0.00459333
-0.022856 0.00388621 -0.00190935
-0.025 0 0
-0.0232157 0.00265547 -0.00274263
0 0 0
-0.025 0 0
0 0 0
-0.00806947 0.00661968 -0.00113477
-0.025 0 0
-0.0227141 -2.81892e-05 0.00241967
-0.00893457 0.00611091 -0.00531887
-0.0106612 0.00548352 -0.00638264
-0.025 0 0
-0.0209235 -0.00136454 0.00530743
-0.0237779 -0.000780691 0.00287688
-0.00536864 -0.00495818 -0.00414624
-0.00338858 -0.00252995 -0.00393723
-0.0102943 -0.00118025 -0.00693923
-0.0163898 -0.00435358 -0.00626382
-0.0106621 -0.00553353 -0.00639665
-0.0089838 -0.00610685 -0.0053215
-0.00405907 0.0052185 0.000821201
-0.00117068 -0.00193316 -0.00197755
-0.00860554 -0.00437755 -0.0063347
-0.0085413 -0.00532753 -0.00535765
0 0 0
-0.0237223 -0.000430151 0.00291649
-0.025 0 0
-0.0230407 -0.000395454 0.00409184
-0.00464988 0.00312826 -0.00521974
0 0 0
-0.00177502 -0.00267271 -0.00275232
-0.00210824 -0.00388483 -0.00190479
-0.00148246 -0.00270243 -0.00193574
-0.0104954 0.00649785 -0.00464332
-0.0105107 0.00551548 -0.00555746
-0.00236875 -0.00162382 -0.00240808
-0.025 0 0
-0.00256468 -0.00326029 -0.000749728
0 0 0
-0.00194028 0.000431872 -0.00403277
0 0 0
-0.0163502 0.00436112 -0.00628495
-0.0204638 0.00308388 0.00196745
-0.010315 -0.00686801 0.00235716
-0.0202694 0.00312121 0.00523764
-0.0160084 0.00611931 0.0052786
-0.0143044 0.00550313 0.00634908
-0.010332 0.00567307 -0.00460687
-0.00407378 -0.0013796 -0.0052581
-0.00136317 -0.00129028 -0.00290534
-0.00465968 0.00312674 0.0052282
0 0 0
-0.00209979 -0.0038627 0.00190389
0 0 0
-0.00147183 -0.00267947 0.001945
-0.025 0 0
-0.00427645 0.0040113 -0.00423782
-0.00537363 0.00497212 -0.00414027
-0.00335723 0.00246713 -0.00391211
-0.00175887 0.00262843 -0.00273898
-0.0021132 0.00388023 -0.00190923
-0.0014791 0.0026938 -0.00193682
0 0 0
0 0 0
-0.0012462 0.00131681 -0.00280862
-0.00116446 0.00193677 -0.00197037
-0.00364676 0.0031412 -0.00423128
0 0 0
0 0 0
-0.00125237 -0.000811302 -0.00287836
0 0 0
-0.00120878 -0.000361017 -0.00282045
-0.00125177 1.61196e-05 -0.00283213
-0.00190137 -0.000312256 -0.00403394
0 0 0
-0.00193148 0.000420461 0.00400873
-0.0105396 -0.00652701 -0.00464753
-0.0103548 -0.00571234 -0.00462856
-0.0105234 -0.00555485 -0.00557511
-0.00335762 0.0024591 0.00390917
-0.00427081 0.00399118 0.00423574
-0.00537735 0.00495799 0.00412771
-0.0168348 0.00227674 0.00656494
0 0 0
-0.00136091 0.00280246 -0.00129413
0 0 0
-0.001276 0.00282471 -0.00077556
-0.00192889 0.00402556 -0.000890561
-0.0241086 0.000387109 0.00209189
0 0 0
-0.00192591 -0.0040275 -0.000893564
-0.00714947 0.00463224 0.00110673
-0.00405524 0.00138904 0.00523135
-0.00119918 0.000801692 0.0028404
-0.00123327 0.000420733 0.00283736
-0.00405544 -0.00520847 -0.00079713
-0.0012241 -0.00287201 -0.000388062
-0.00408485 -0.00136878 0.00527343
0 0 0
-0.00121863 0.00285362 0.000425278
-0.00192606 0.00399831 0.00092062
0 0 0
-0.00126738 0.00278502 0.000807014
-0.000916725 0.00204265 0.000880707
-0.00134787 0.0027545 0.00131893
-0.00513898 -0.00509122 -0.000930239
-0.00809001 -0.00662233 -0.00112823
-0.00302048 -0.00419181 -0.000690451
-0.00405758 0.00141478 -0.00524274
-0.00120135 0.000828722 -0.00284528
-0.00124332 0.000446504 -0.00287658
-0.00364367 0.00311926 0.00424021
-0.001249 0.00128901 0.00281847
-0.00305473 0.00316686 0.00322014
-0.00115136 0.0018959 0.00200124
0 0 0
-0.00175403 0.00260901 0.00273813
-0.00210804 0.0038558 0.00190934
-0.00147257 0.00266183 0.001943
-0.00115335 -0.0019127 0.00202437
-0.00135888 -0.00128591 0.00292102
-0.00176583 -0.0026639 0.00275358
-0.00338623 -0.0025362 0.00393522
-0.00535399 -0.00495064 0.00414017
-0.0236057 0.00271256 0.00131288
-0.025 0 0
-0.0023461 0.00238178 0.000741409
0 0 0
-0.00229245 0.00152233 0.00152909
-0.0212673 0.00310321 0.00426669
-0.0238151 0.00184296 0.00201145
-0.00472739 -0.00311149 -0.00524384
-0.00372671 -0.00311488 -0.00427961
-0.00646496 -0.00480815 -0.00491809
-0.00429781 -0.00399593 -0.00427329
-0.0160275 -0.00608158 0.00527158
-0.0143135 -0.0055151 0.00632734
-0.0203538 -2.2039e-06 -0.00413139
-0.001262 -0.000807883 0.00289122
-0.000881118 -0.000408437 0.00206668
0 0 0
-0.0230069 -0.000393378 -0.00407331
-0.025 0 0
-0.00511492 -0.000979053 -0.00512579
-0.00244958 -0.000773403 -0.00332718
-0.000870402 -0.000413949 -0.00207595
-0.00543419 0.00506294 -0.0029373
-0.010362 0.00684005 -0.00243595
-0.00817777 -0.00224116 0.00661078
-0.0031128 -0.00147085 0.0042497
0 0 0
-0.000935655 -0.00207253 -0.000825497
-0.00136092 -0.00280762 -0.00129668
-0.00127795 -0.00283364 -0.000777415
-0.025 0 0
-0.025 0 0
-0.0230247 0.0040112 -0.000925588
-0.0040516 -0.00520054 0.000837672
-0.00118658 -0.00295038 2.5489e-05
-0.00896471 -0.00611905 0.00528096
-0.0105163 -0.00555241 0.0055314
-0.0106494 -0.00555895 0.00636691
-0.00133901 -0.00275023 0.00132709
0 0 0
-0.00852454 -0.0053444 0.00533703
-0.00860086 -0.00440934 0.00634842
-0.00528873 -0.00195284 0.00513509
-0.00512938 -0.000971448 0.00513861
-0.0102979 -0.00120772 0.00695981
-0.0055296 -0.00291534 0.00513259
-0.00814219 -0.00437867 0.00551335
-0.00309519 -0.00313379 0.00328136
-0.0223395 0.00331596 -0.00152652
-0.0228732 0.00386455 0.00190964
-0.025 0 0
-0.0235054 0.00265516 0.00194053
-0.0168393 -0.00434378 -0.00544362
-0.0166873 -0.00226687 -0.0065462
0 0 0
-0.00190531 -0.000289732 0.00404231
-0.00124191 1.37616e-05 0.00279184
-0.00121369 -0.000351 0.00282724
-0.0106525 0.00554978 0.00636987
-0.00894678 0.00614735 0.005271
0 0 0
-0.00121387 -0.00284553 0.000442257
-0.00191369 -0.00398314 0.000932627
-0.00125858 -0.00277191 0.000820157
-0.0143028 -0.00552703 -0.00633771
-0.0160179 -0.00609262 -0.00527032
-0.0164405 -0.00531653 -0.00530409
-0.0201334 0.00416649 -0.00197347
-0.0205104 0.00313837 -0.00199897
-0.019907 0.00515653 1.40522e-06
-0.0146066 -0.00674271 -0.00239816
-0.00511379 -0.00509659 0.00095711
-0.00510854 -0.00511019 1.97569e-05
-0.00300911 -0.00418792 0.000731988
-0.00805504 -0.00663353 0.00112759
-0.00762744 -0.00222417 0.00570729
-0.00767627 -0.00444714 0.00451131
-0.0103556 -0.00570151 0.00456629
-0.0053085 -0.00394719 0.00405717
-0.00705381 -0.00232075 0.00343651
-0.00741322 -0.00338009 0.00456614
-0.00727666 -0.00228721 0.00458351
-0.00252579 -0.00079051 0.00328507
-0.00226439 -0.00155128 0.00156745
0 0 0
-0.00713661 -0.00461591 0.00110655
-0.0023412 -0.00238308 0.000756877
-0.00740794 -0.00571283 0.0011305
-0.00250332 -0.00236813 0.00244311
-0.00239559 -0.00239583 0.00156577
0 0 0
-0.00253684 -0.00329439 0.0015785
-0.00537289 -0.00499911 0.0029511
-0.00522179 -0.00510495 0.00194895
-0.000913153 -0.00202955 0.000906084
-0.0197555 0.00194089 0.00511643
-0.0146851 0.00120417 0.00692659
-0.0199113 0.000961607 0.00514386
-0.0173808 0.00223634 0.00564029
-0.025 0 0
-0.023726 -7.74393e-06 0.00285825
-0.0237701 0.000358465 0.00285845
-0.0230976 0.000315129 0.00407662
-0.0202876 -0.00315042 0.00524922
-0.0206633 -0.00401529 0.0042461
-0.0216173 -0.00245912 0.00391764
-0.0195809 -0.00498105 0.00414611
-0.0164223 0.00535095 0.00531405
-0.0185165 0.00482934 0.00487488
-0.0163618 0.0043974 0.00629608
-0.0237459 0.000794135 0.00290314
-0.0209453 0.00137394 0.00527327
-0.0219223 0.00144156 0.00425192
-0.0236733 0.00125784 0.00293184
-0.0212768 -0.00313379 0.00424204
-0.0237356 -0.00125608 0.00280613
-0.0232164 -0.00261659 0.00273575
-0.025 0 0
-0.0228647 -0.00388202 0.00190978
-0.0234964 -0.00267165 0.00192041
-0.025 0 0
-0.0238327 -0.00187046 0.00196673
-0.0236351 -0.002739 0.00129015
-0.0105059 0.00651398 0.00459383
-0.0105131 0.00556151 0.00553811
-0.00544615 0.00293702 0.00507999
-0.000933728 0.000838724 0.0020405
-0.00260832 0.00152476 0.00326607
-0.00740626 0.00339065 0.0045363
-0.00720701 0.00343822 0.00340328
-0.00707522 0.00229579 0.00346714
-0.00817281 0.00225298 0.00659946
-0.00522441 0.00193927 0.00510938
-0.00299815 0.000702574 0.00416981
-0.0102461 0.00122933 0.00697175
-0.0051139 0.000941251 0.00511479
-0.00502514 -1.1361e-06 0.00513575
-0.00715004 0.00114077 0.00465933
-0.00228763 0.000746266 0.0024072
-0.0074048 0.00113821 0.00574272
-0.00224831 -2.15031e-05 0.00241438
-0.0024046 0.00238815 0.00154906
0 0 0
-0.00254774 0.0033085 0.00154784
-0.00250207 0.00235702 0.00240533
-0.0144495 0.00551525 0.0055281
-0.0124818 0.0055386 0.00555532
-0.0144636 0.00645197 0.00458911
-0.00862964 0.00442318 0.00633358
-0.00643826 0.00485193 0.00487881
-0.0081439 0.00440359 0.00549433
-0.00851748 0.00537852 0.00532643
-0.00643732 0.00484055 -0.00488754
-0.00862128 0.00434925 -0.00631176
-0.00851369 0.00532361 -0.00533801
-0.0146945 -0.00121732 0.00687572
-0.0147608 -0.00346088 0.0057434
-0.0125361 -0.00352719 0.00581087
-0.0163907 -0.00434802 0.00626214
-0.0184993 -0.00485565 0.00491636
-0.0164443 -0.00530223 0.0053017
-0.0172351 -0.00444146 0.00444265
-0.0146461 -0.00674061 0.00238106
-0.0148986 -0.00234588 0.00586731
-0.0149928 -0.00474675 0.00354264
-0.0124666 -0.0048075 0.00364681
-0.0103412 0.00570477 0.00457162
-0.00766255 0.00446059 0.00448246
-0.00537002 0.00503458 0.00292916
-0.0052769 0.00398614 0.00400504
-0.00301157 0.0042088 0.000717342
-0.00510397 0.00511999 9.75656e-06
-0.0080542 0.0066345 0.00112449
-0.0219406 0.00432424 -0.000689696
-0.0208941 0.00529301 -0.000791496
-0.0237468 0.00287206 -0.000416435
-0.00690876 0.00232148 0.00232203
-0.0175033 0.00455545 0.00332687
-0.0150959 0.00483145 0.00238775
-0.0169066 0.00660416 0.00113862
-0.0194734 0.00292209 0.00507046
-0.021858 0.0031141 0.00322516
-0.0167859 0.00438217 0.00544671
-0.0196096 0.00397355 0.00396884
-0.0146108 0.00562248 0.00459317
-0.014773 0.00347286 0.0057909
-0.0124627 0.00352481 0.00579028
-0.0103695 -0.0068647 -0.00241723
-0.00546816 -0.00502076 -0.00294573
-0.00525013 -0.00508145 -0.0019507
-0.0195856 -0.00496682 -0.00414039
-0.021614 -0.00246897 -0.00391144
-0.00404927 0.00521782 -0.00080045
-0.0011849 0.00294908 1.09703e-05
-0.0030067 0.00420267 -0.000696143
-0.00121857 0.00286507 -0.000395505
-0.0179664 -0.00228198 0.00347189
-0.0199775 7.31667e-06 0.00517136
-0.0151073 -0.00239498 0.00483688
-0.0223757 -0.00338898 0.00148538
-0.0169188 -0.00661801 0.00113537
-0.0201447 -0.00410755 0.0019672
-0.0204764 -0.00199797 0.00309194
-0.0175039 -0.00451511 0.00336638
-0.0223444 -0.00149734 0.0033071
-0.0219514 -0.000688438 0.00426854
-0.0221839 -0.00232214 0.00326597
-0.0240482 -0.000809849 0.00202381
-0.0218793 -0.00318535 0.0032104
-0.00512592 0.00510207 -0.000941132
-0.00522697 0.00509949 -0.00195061
-0.000924533 0.00207182 -0.000824573
-0.0208673 0.0052612 0.000820485
-0.0237874 0.0029698 2.05334e-07
-0.02188 0.00427287 0.000714
-0.0124653 0.00482719 0.00359876
-0.0147132 0.0067234 0.00240094
-0.0149689 0.00476968 0.00354609
-0.0147913 0.00466344 0.00465411
-0.0230263 0.00400172 0.000943447
-0.023707 0.00271865 0.000797963
-0.025 0 0
-0.0237261 0.00283388 0.000425588
-0.0228263 0.00075262 0.00154968
-0.018133 0.00229255 0.00231006
-0.0179556 0.00346197 0.00227279
-0.0237306 -0.000402199 -0.00286182
-0.0208528 -0.00137337 -0.00532221
-0.0179634 0.00349634 -0.00229603
-0.0228924 0.000790722 -0.00157338
-0.0226759 0.00244751 -1.11839e-05
-0.0185021 0.00485655 -0.00491769
-0.0202576 0.00313378 -0.00524397
-0.0212544 0.00313935 -0.00426174
-0.0206728 0.00402272 -0.00426672
-0.00472258 -0.00312388 0.00526584
-0.00644092 -0.00481403 0.00491395
-0.00370967 -0.0031108 0.0043068
-0.00427741 -0.0039885 0.0042792
-0.00712401 0.00109147 -0.00459562
-0.0234971 0.00267292 -0.00192389
-0.025 0 0
-0.0238275 0.00186153 -0.0019861
-0.0206768 -0.00400192 -0.00424787
-0.0185046 -0.00487083 -0.00492052
-0.0202848 -0.00314761 -0.00525987
-0.0169358 0.00663519 -0.00113146
-0.0227078 0.000736837 0.00242581
-0.0225551 0.000714979 0.00335725
-0.025 0 0
-0.00687641 0.00229597 -0.00231555
-0.0181363 0.00231931 -0.00232102
-0.0125036 0.00266087 1.04945e-08
-0.0219251 0.00145109 -0.0043101
-0.0209007 0.00140608 -0.00530952
-0.0237014 0.00125194 -0.00287878
-0.0237516 0.000795012 -0.00285783
-0.025 0 0
-0.0194412 0.00515065 -0.00293895
-0.0171783 0.00446778 -0.0044514
-0.0167864 0.00436492 -0.00544941
-0.0170611 0.00560882 -0.00331837
-0.0181468 -0.00230655 0.00230934
-0.0125122 -1.58095e-06 0.00263907
-0.00688779 -0.00232567 0.00229965
-0.0206933 0.00398286 0.0042509
-0.0196094 0.00494805 0.00412095
-0.0232179 0.00265124 0.00275211
-0.0216119 0.00252853 0.00393598
-0.0237223 0.00273724 -0.000785675
-0.0236179 0.00270861 -0.00129737
-0.025 0 0
-0.0147702 0.00576247 -0.00350302
-0.0146877 0.0067584 -0.00242455
-0.0164244 0.00534015 -0.00532268
-0.0142848 0.00547974 -0.00635938
-0.0160307 0.00611272 -0.00528782
-0.00233271 -0.00240623 -5.51335e-06
-0.0070529 -0.00344927 -0.00231509
-0.0240524 0.00192462 -0.000852846
-0.024155 0.00131583 -0.00140438
-0.021864 0.00318373 -0.00322982
-0.022178 0.00324351 -0.0023466
-0.0228804 -0.00158304 0.000784579
-0.0202896 -0.00413076 0.000970336
-0.0240592 -0.00201068 0.000840259
-0.025 0 0
-0.024145 -0.00132341 0.00138322
-0.0242212 -0.00141107 0.000867292
-0.0146056 0.00562991 -0.00456736
-0.0124718 0.00552804 -0.00555811
-0.0144417 0.00550025 -0.00552457
-0.0144573 0.00646425 -0.00461061
-0.0240373 0.00188636 0.000872814
-0.0200175 0.00298854 0.00402705
-0.022657 0.00151365 0.00242907
-0.0202851 0.00306827 0.00297012
-0.00530215 0.00399181 -0.00399267
-0.00306853 0.00321811 -0.00320944
-0.00813433 0.00433223 -0.00547731
-0.00766411 0.00444854 -0.00447516
-0.0125124 0.00582213 -0.00353143
-0.00758209 0.0056711 -0.00224244
-0.00527085 -0.00195717 -0.00511745
-0.00310055 -0.0014838 -0.00423375
-0.00815254 -0.0022265 -0.00659314
-0.00817828 0.00220053 -0.00658698
-0.00300585 0.00071962 -0.00422788
-0.00704126 0.0034169 -0.00232817
-0.0022847 0.00241425 -8.39792e-06
-0.00739365 0.00451511 -0.00340276
-0.00725514 0.00455324 -0.00230144
-0.00252608 0.0032771 -0.000760757
-0.00227088 0.00155444 -0.00156732
-0.00234621 0.000738504 -0.00241911
0 0 0
-0.00250855 0.00241658 -0.00237834
-0.00240121 0.0015395 -0.00242175
0 0 0
-0.00523086 0.0019198 -0.00511957
-0.00542242 0.00292029 -0.00502495
-0.00255615 0.00155511 -0.00331655
-0.000931247 0.000897136 -0.00205426
0 0 0
-0.00218756 -0.000778025 -0.001574
-0.00231325 -5.34582e-07 -0.00244607
-0.00229928 -0.000793842 -0.00242932
-0.0167674 0.00226831 -0.00657682
-0.0199376 0.00297298 -0.00405046
-0.0224047 0.00146232 -0.00337847
-0.0242454 0.000861848 -0.00140719
-0.0241111 0.000414986 -0.00203052
-0.025 0 0
-0.0242859 -0.00139906 -0.000425575
-0.0144656 -0.00644787 0.0045677
-0.0125004 -0.00555265 0.00553732
-0.0146664 -0.00561804 0.0045594
-0.0144722 -0.00550599 0.00549174
-0.0050446 9.25631e-07 -0.00517186
-0.0102766 0.00121191 -0.0069323
-0.00741686 0.00110331 -0.00569025
-0.00511938 0.000926203 -0.00513956
-0.0146513 0.00121654 -0.0069627
-0.0203206 0.000964555 -0.0041373
-0.0176885 0.00225436 -0.00459311
-0.02019 0.00195172 -0.00411199
-0.00686676 -0.002305 -0.00233102
-0.0124752 -5.47166e-06 -0.0026386
-0.0180976 -0.00233069 -0.00232083
-0.0125252 -0.00265393 -2.86226e-05
-0.0206259 -0.001995 -0.00202145
-0.0203271 -0.00413077 8.98265e-06
-0.00552149 -0.0029116 -0.00510707
-0.0053676 -0.0039512 -0.00402983
-0.00815112 -0.0043597 -0.00550403
-0.00313345 -0.0031556 -0.00324275
-0.012498 -0.005572 -0.00557265
-0.0144403 -0.00645839 -0.0045769
-0.0144651 -0.00552318 -0.00550378
-0.0242685 0.000435102 -0.00142023
-0.0243665 0.000422525 -0.00090943
-0.025 0 0
-0.025 0 0
-0.0237793 -0.000779175 -0.00283336
-0.0150875 0.00485339 -0.00242196
-0.012423 0.00363943 -0.00482793
-0.0149468 0.00355421 -0.00478734
-0.0148844 0.00588177 -0.00237057
-0.025 0 0
-0.0170714 -0.00329318 -0.00556596
-0.0172365 -0.00445537 -0.00445177
-0.0146656 -0.00563938 -0.00457301
-0.0103102 0.00686307 0.00236767
-0.00523264 0.00512839 0.00193833
-0.00742928 0.00571836 0.00113831
-0.00512577 0.005113 0.000952923
-0.00759294 -0.00568149 -0.00224402
-0.00716001 -0.0034314 -0.00346298
-0.0194196 -0.00291861 -0.00517451
-0.0219243 -0.000670124 -0.00429389
-0.025 0 0
-0.0230449 -0.00397936 -0.00092259
-0.0168352 -0.00433278 0.00543936
-0.0194304 -0.0029223 0.00513872
-0.0167374 -0.00225695 0.00653965
-0.0170964 -0.00328598 0.00555853
-0.025 0 0
-0.0236495 -0.00268943 -0.00128625
-0.0237457 -0.00272783 -0.000782895
-0.0224557 -0.00333766 -0.000724765
-0.0228075 -0.00152598 -0.00157863
-0.02436 -0.00090035 -0.000858579
-0.0226703 -0.001542 -0.00242664
-0.0223736 -0.00151833 -0.00330362
-0.0242782 1.14691e-05 -0.00144599
-0.0230464 -0.00402059 0.000911206
-0.025 0 0
-0.0237325 -0.00279052 0.00078027
-0.00739254 -0.00338235 -0.004581
-0.00770103 -0.00446262 -0.00451758
-0.00760029 -0.00219809 -0.00568924
-0.0175389 -0.00457102 -0.00334227
-0.0177175 -0.00460381 -0.00223291
-0.0200084 -0.00410069 -0.0029894
-0.0168225 -0.00660565 -0.00114219
-0.0150085 -0.0047793 -0.00356391
-0.0125359 -0.00484318 -0.00363066
-0.0150527 -0.00241832 -0.00487218
-0.0148716 -0.00236374 -0.00588169
-0.012523 -0.00354035 -0.00577046
-0.0147625 -0.00348335 -0.00574952
-0.0146705 -0.001222 -0.00688628
-0.0242558 -0.00144415 0.000422403
-0.0242516 -0.0014483 2.88481e-06
-0.025 0 0
-0.0243644 -0.000924015 0.000417788
-0.0209136 -0.00528241 -0.000827304
-0.0237797 -0.00282295 -0.000414754
-0.0220241 -0.00432227 -0.000727701
-0.023767 -0.00288601 0.00039737
-0.0238338 -0.00294253 -1.30556e-05
-0.0220091 -0.00435951 0.00070426
-0.020941 -0.00530678 0.000820178
-0.0240573 -0.000813472 -0.00198994
-0.0222207 -0.00230224 -0.00328168
-0.025 0 0
-0.0237327 6.89123e-06 -0.00282669
-0.0230756 0.000328127 -0.00405556
-0.0237815 0.00035813 -0.00280667
-0.0242408 -0.00135941 -0.000847498
-0.024172 -0.00135395 -0.00137541
-0.0240875 -0.00195214 -0.000833215
-0.025 0 0
-0.0212903 -0.00311981 -0.00425629
-0.0219117 -0.00315255 -0.00323455
-0.0237316 -0.00126403 -0.00279281
-0.0238508 -0.00185907 -0.00196415
-0.025 0 0
-0.0228703 -0.00385395 -0.00190294
-0.0232272 -0.00260623 -0.00272996
-0.0235067 -0.00263584 -0.00192108

CELL_DATA 236
TENSORS stress float
-7057.82 -187.788 71.76
-187.788 -1443.96 11.0646
71.76 11.0646 -385.975

-5693.13 111.088 -47.8777
111.088 212.919 218.66
-47.8777 218.66 510.596

-7743.59 -1446.88 1525.53
-1446.88 -2880.08 -730.161
1525.53 -730.161 -3686.89

-7155.58 97.0336 -202.41
97.0336 -1539.81 18.4176
-202.41 18.4176 -1461

-7040.57 -1444.31 -1361.94
-1444.31 -3372.92 364.545
-1361.94 364.545 -3752.18

-7004.95 689.466 -1552.67
689.466 -4466.55 -154.669
-1552.67 -154.669 -3289.05

-6965.99 -451.613 -678.287
-451.613 -3345.84 32.7383
-678.287 32.7383 -3164.38

-6266.2 -29.2153 -98.2899
-29.2153 -327.621 19.3837
-98.2899 19.3837 -240.554

-7019.1 123.153 231.225
123.153 -1483.94 -101.579
231.225 -101.579 -1338.86

-6634.9 -245.238 -455.836
-245.238 -3221.78 24.9653
-455.836 24.9653 -2983.96

-5480.01 -111.231 70.7485
-111.231 192.426 164.504
70.7485 164.504 198.605

-6788.26 -511.408 -1624.6
-511.408 -4481.94 169.593
-1624.6 169.593 -3240.9

-6587.18 379.494 -548.581
379.494 -2461.63 -27.7449
-548.581 -27.7449 -1154.33

-7046.86 -179.375 -62.097
-179.375 -1439.1 -23.2738
-62.097 -23.2738 -384.749

-6401.13 -77.4392 71.8376
-77.4392 134.805 -58.3979
71.8376 -58.3979 -294.83

-5781.18 -98.2869 -184.352
-98.2869 346.445 -233.551
-184.352 -233.551 65.9921

-5460.42 126.154 60.8824
126.154 185.336 -161.11
60.8824 -161.11 206.772

-6634.8 522.99 98.2446
522.99 -1369.43 41.1027
98.2446 41.1027 -2489.72

-6955.17 40.8521 28.5128
40.8521 -286.297 -169.203
28.5128 -169.203 -168.543

-7112.68 -630.339 -734.008
-630.339 -2343.86 26.9296
-734.008 26.9296 -1794.3

-5808.26 70.8149 148.151
70.8149 327.794 -210.832
148.151 -210.832 61.5454

-7007 740.764 -1556.37
740.764 -4477.09 -153.914
-1556.37 -153.914 -3407.8

-7174.36 234.606 -1721.42
234.606 -4740.86 -152.788
-1721.42 -152.788 -2399.01

-6022.17 102.169 102.003
102.169 -210.665 49.9218
102.003 49.9218 175.789

-7043.99 25.7937 55.8819
25.7937 -647.638 -79.4897
55.8819 -79.4897 -550.164

-7695.46 -1463.51 -1526.5
-1463.51 -2878.01 711.607
-1526.5 711.607 -3663.5

-5716.16 -76.7055 77.8804
-76.7055 127.039 215.511
77.8804 215.511 407.032

-6972.32 657.401 -355.95
657.401 -2510.86 -0.980944
-355.95 -0.980944 -3021.29

-6941.2 -306.962 -213.141
-306.962 -1145.53 -50.6957
-213.141 -50.6957 -1226.28

-6984.95 -1414.06 -1408.19
-1414.06 -3247.05 377.853
-1408.19 377.853 -3695.41

-6935.55 -431.608 -263.488
-431.608 -1556.15 -44.5787
-263.488 -44.5787 -1837.06

-6372.45 -7.54299 -48.3819
-7.54299 -132.357 -246.026
-48.3819 -246.026 -26.0937

-7162.76 258.376 -1695.42
258.376 -4709.12 -161.673
-1695.42 -161.673 -2472.82

-6878.9 -160.503 -119.333
-160.503 -644.393 -95.5573
-119.333 -95.5573 -944.461

-6998.43 -1427.27 1385.58
-1427.27 -3368.19 -363.736
1385.58 -363.736 -3758.78

-5832 82.7967 -147.15
82.7967 300.218 240.977
-147.15 240.977 17.2374

-6894.23 -35.6609 14.3059
-35.6609 -376.995 -94.4749
14.3059 -94.4749 -495.064

-6308.72 85.0584 40.2878
85.0584 -272.717 106.769
40.2878 106.769 164.76

-6061.12 -157.029 119.797
-157.029 -195.184 -51.9785
119.797 -51.9785 156.613

-5458.11 148.659 57.3191
148.659 176.872 -158.411
57.3191 -158.411 209.698

-6446.32 -25.9925 -33.3759
-25.9925 -222.938 222.133
-33.3759 222.133 -140.383

-6732.62 -542.489 -530.791
-542.489 -2291.05 14.0587
-530.791 14.0587 -1313.68

-6026.67 125.091 -115.686
125.091 -192.518 -41.3516
-115.686 -41.3516 176.649

-6880.59 34.3881 -246.676
34.3881 -1332.31 57.6602
-246.676 57.6602 -1192.13

-6996.4 1444.79 -1363.4
1444.79 -3344.21 -361.899
-1363.4 -361.899 -3702.48

-7684.15 -1458.72 1530.96
-1458.72 -2879.63 -712.983
1530.96 -712.983 -3672.69

-6480.39 669.018 485.629
669.018 -4174.7 35.0726
485.629 35.0726 -4354.08

-7021.76 187.676 -63.4462
187.676 -1410.58 24.1051
-63.4462 24.1051 -407.24

-7680.44 1443.64 -1527.19
1443.64 -2875.53 -680.095
-1527.19 -680.095 -3654.68

-7073.83 699.764 1543.91
699.764 -4553.5 183.592
1543.91 183.592 -3472.21

-6493.38 121.714 19.9857
121.714 -393.645 -157.575
19.9857 -157.575 -467.78

-6972.49 607.686 -769.797
607.686 -2310.39 -47.2248
-769.797 -47.2248 -1708.24

-6982.77 1417.92 1379.58
1417.92 -3348.59 349.828
1379.58 349.828 -3733.57

-6862.43 -516.055 -1596
-516.055 -4526.3 153.085
-1596 153.085 -3349.37

-7202.35 -240.688 -1684.28
-240.688 -4892.3 78.9837
-1684.28 78.9837 -2472.13

-7155.11 246.381 1671.36
246.381 -4741.12 166.537
1671.36 166.537 -2452.37

-5683.81 99.8997 71.9199
99.8997 194.212 -215.628
71.9199 -215.628 468.637

-7031.75 185.449 51.4056
185.449 -1410.09 -17.7649
51.4056 -17.7649 -428.724

-6319.66 -177.423 40.6361
-177.423 -269.379 -42.1229
40.6361 -42.1229 -361.953

-7081.71 1512.41 -677.388
1512.41 -3570.32 -195.633
-677.388 -195.633 -4578.59

-7110.85 1741.39 -404.077
1741.39 -2328.3 -240.781
-404.077 -240.781 -4644.45

-6685.28 -145.728 -388.841
-145.728 -1839.96 17.321
-388.841 17.321 -1446.11

-7118.12 -1745.54 -404.531
-1745.54 -2333.78 240.882
-404.531 240.882 -4634.02

-6914.59 258.642 7.63066
258.642 -1260.67 -26.6458
7.63066 -26.6458 -1315.74

-6596.67 398.587 498.172
398.587 -2481.85 54.974
498.172 54.974 -1225.15

-6658.47 -514.123 -98.5482
-514.123 -1375.71 51.6295
-98.5482 51.6295 -2504.69

-6730.31 -547.746 537.276
-547.746 -2285.24 -29.4089
537.276 -29.4089 -1314.73

-6822.48 359.901 352.11
359.901 -1573.25 -91.1381
352.11 -91.1381 -1822.84

-7089.72 1736.03 426.518
1736.03 -2308.76 224.001
426.518 224.001 -4615.47

-6927.6 1505.38 721.584
1505.38 -3419.22 167.319
721.584 167.319 -4401.35

-6279.44 24.9301 -91.9305
24.9301 -328.081 -15.0689
-91.9305 -15.0689 -243.158

-6586.24 405.621 -508.773
405.621 -2456.04 -11.2203
-508.773 -11.2203 -1236.08

-6957.24 616.456 757.639
616.456 -2252.21 76.392
757.639 76.392 -1703.49

-7690.65 1429.18 1523.92
1429.18 -2885.7 677.31
1523.92 677.31 -3684.93

-7096.83 -635.268 721.062
-635.268 -2333.71 -54.1249
721.062 -54.1249 -1829.27

-7039.34 -179.862 58.2781
-179.862 -1443.96 20.0133
58.2781 20.0133 -398.761

-6574.66 -28.085 -0.556199
-28.085 -101.95 -164.912
-0.556199 -164.912 -308.191

-6838.14 -1458.69 -702.103
-1458.69 -3142.13 171.012
-702.103 171.012 -4206.78

-6461.51 440.56 345.792
440.56 -2825.73 41.8418
345.792 41.8418 -2929.97

-7120.17 -615.137 -718.857
-615.137 -2337.53 57.2549
-718.857 57.2549 -1825.03

-6040.08 -135.261 107.733
-135.261 -187.673 -53.7795
107.733 -53.7795 147.006

-5494.51 -117.559 87.6314
-117.559 152.392 133.343
87.6314 133.343 201.859

-6778.72 -122.887 419.375
-122.887 -1830.1 52.1495
419.375 52.1495 -1399.8

-7077.42 -189.07 288.896
-189.07 -2356.49 6.9299
288.896 6.9299 -2098.52

-6953.05 -505.658 1588.75
-505.658 -4602.62 -164.58
1588.75 -164.58 -3410.56

-7187.65 221.458 1678.75
221.458 -4739.12 138.479
1678.75 138.479 -2409.92

-6777.03 -145.556 -382.254
-145.556 -1883.65 -67.0281
-382.254 -67.0281 -1535.65

-6260.6 -81.8067 -113.664
-81.8067 -123.368 49.1177
-113.664 49.1177 339.407

-6321.43 -186.634 -23.605
-186.634 -253.752 31.6352
-23.605 31.6352 -366.178

-7166.2 -1510.31 -673.353
-1510.31 -3638.97 193.358
-673.353 193.358 -4655.28

-6968.45 1510.48 -683.521
1510.48 -3361.68 -151.7
-683.521 -151.7 -4396.73

-7245.96 -1705.9 420.02
-1705.9 -2338.52 -198.302
420.02 -198.302 -4751.09

-6716.32 -165.256 101.162
-165.256 -581.619 169.739
101.162 169.739 -806.293

-6641.76 -519.666 104.886
-519.666 -1370.62 -31.4767
104.886 -31.4767 -2484.89

-5476.53 135.037 -74.3985
135.037 171.367 160.688
-74.3985 160.688 221.645

-6916 -1504.73 739.225
-1504.73 -3416.31 -170.067
739.225 -170.067 -4394.28

-5824.25 57.8016 -165.234
57.8016 316.08 226.191
-165.234 226.191 59.292

-6299.08 -79.6167 -59.0639
-79.6167 274.986 55.1222
-59.0639 55.1222 -163.842

-6456.21 -155.417 23.7182
-155.417 -407.625 167.226
23.7182 167.226 -476.837

-6803.51 -331.873 230.822
-331.873 -976.258 98.0303
230.822 98.0303 -1360.75

-7718.26 -1451.24 -1523.11
-1451.24 -2864.67 721.698
-1523.11 721.698 -3696.74

-5954.67 11.3836 -320.989
11.3836 751.139 -127.321
-320.989 -127.321 295.488

-7204.68 -226.856 1676.78
-226.856 -4909.19 -99.7368
1676.78 -99.7368 -2455.21

-5469.68 -130.39 -74.8258
-130.39 177.204 -170.441
-74.8258 -170.441 226.277

-7081.86 -1732.83 441.489
-1732.83 -2310.69 -224.264
441.489 -224.264 -4611.38

-5480.51 -129.018 -75.4068
-129.018 165.602 -140.335
-75.4068 -140.335 226.145

-6902.56 -71.7992 33.8056
-71.7992 -371.74 177.345
33.8056 177.345 -574.861

-6924.54 -35.2752 7.84107
-35.2752 -388.347 64.5804
7.84107 64.5804 -468.166

-6327.09 -135.972 -45.6544
-135.972 77.3781 -221.434
-45.6544 -221.434 620.994

-6268.96 35.1839 106.126
35.1839 -328.996 25.6462
106.126 25.6462 -298.089

-6419.02 -22.1649 -52.901
-22.1649 290.633 201.3
-52.901 201.3 42.2324

-6396 29.9023 -25.2554
29.9023 -119.383 253.607
-25.2554 253.607 -28.5365

-6984.39 -27.1195 34.8997
-27.1195 -333.006 154.597
34.8997 154.597 -219.326

-7109.25 -75.9015 230.829
-75.9015 -1536.01 53.5884
230.829 53.5884 -1395

-6796.89 -196.659 294.106
-196.659 -1189.93 101.875
294.106 101.875 -918.526

-6511.24 -438.383 367.148
-438.383 -2902.4 -41.2991
367.148 -41.2991 -2969.07

-6916.24 -264.667 39.9727
-264.667 -1233.03 25.4907
39.9727 25.4907 -1303.46

-7049.24 -666.32 563.266
-666.32 -3261.57 -48.3826
563.266 -48.3826 -3300.37

-6777.91 -358.592 341.551
-358.592 -1531.17 112.387
341.551 112.387 -1737.49

-6414.02 -57.7092 79.6569
-57.7092 141.622 -57.2284
79.6569 -57.2284 -270.208

-7174.57 -242.726 -1717.98
-242.726 -4897.29 97.1568
-1717.98 97.1568 -2388.96

-6058.26 142.362 61.2312
142.362 -222.098 58.3873
61.2312 58.3873 167.203

-7044.34 203.939 -64.3749
203.939 -1404.77 16.37
-64.3749 16.37 -402.081

-5837.86 75.6066 125.73
75.6066 292.061 -212.464
125.73 -212.464 77.2309

-6718.16 -552.587 -537.197
-552.587 -2333.83 44.7233
-537.197 44.7233 -1346.82

-7097.67 606.732 -743.728
606.732 -2315.1 -62.2579
-743.728 -62.2579 -1774.9

-7735.34 1434.07 -1517.01
1434.07 -2878.03 -691.835
-1517.01 -691.835 -3673.25

-6931.32 1411.61 -1361.65
1411.61 -3230.62 -361.219
-1361.65 -361.219 -3648.28

-5676.63 -97.4203 -52.7291
-97.4203 200.513 -226.575
-52.7291 -226.575 501.965

-6780.59 312.858 401.839
312.858 -1711.39 -30.9478
401.839 -30.9478 -1448.41

-6775.43 204.808 254.162
204.808 -1212.83 -115.156
254.162 -115.156 -1051.66

-6787.44 -15.2847 32.578
-15.2847 -3.18219 -170.024
32.578 -170.024 -241.584

-6253.65 91.6568 -35.6229
91.6568 -268.665 -33.2391
-35.6229 -33.2391 -360.07

-6272.06 -2.60527 -87.583
-2.60527 217.09 -80.0137
-87.583 -80.0137 -183.89

-7048.88 22.621 265.102
22.621 -1465.31 -59.4491
265.102 -59.4491 -1463.49

-7016.68 664.112 571.972
664.112 -3175.33 37.489
571.972 37.489 -3295.89

-5684.49 88.8946 69.1759
88.8946 195.472 -192.382
69.1759 -192.382 407.622

-5846.83 -48.7668 -166.85
-48.7668 338.956 -230.051
-166.85 -230.051 59.0632

-5834.29 -76.3505 158.641
-76.3505 372.727 214.537
158.641 214.537 60.6553

-6286.72 -77.804 161.362
-77.804 285.61 240.701
161.362 240.701 128.197

-6225.07 -31.412 131.081
-31.412 698.841 186.215
131.081 186.215 -188.958

-5783.27 -89.371 181.504
-89.371 331.111 214.27
181.504 214.27 49.5468

-6299.42 -96.8396 42.8346
-96.8396 184.196 220.278
42.8346 220.278 650.807

-6549.66 -18.0954 16.9294
-18.0954 417.323 291.139
16.9294 291.139 375.33

-6385.68 -41.477 -21.5109
-41.477 -85.9405 -235.809
-21.5109 -235.809 -50.486

-6263.32 -33.0226 99.8412
-33.0226 -332.713 -24.6174
99.8412 -24.6174 -283.146

-6670.68 -572.275 60.4045
-572.275 -1424.98 -42.1991
60.4045 -42.1991 -2543.34

-7364.9 -5.70217 -6.29787
-5.70217 -473.278 -99.1557
-6.29787 -99.1557 -472.883

-6460.78 152.513 -7.12179
152.513 190.87 -134.786
-7.12179 -134.786 555.509

-6515.75 -119.412 -38.616
-119.412 -441.092 -170.524
-38.616 -170.524 -454.361

-6181.84 60.4664 59.3535
60.4664 452.794 -335.115
59.3535 -335.115 277.473

-6293.36 66.6863 -104.101
66.6863 -175.56 -89.9592
-104.101 -89.9592 300.407

-7050.53 202.503 62.8646
202.503 -1410.73 -5.93701
62.8646 -5.93701 -398.531

-6639.48 518.729 -102.79
518.729 -1364.24 -48.1218
-102.79 -48.1218 -2511.64

-6877.73 -24.6342 -43.1463
-24.6342 -451.898 107.623
-43.1463 107.623 -328.826

-6610.37 35.0191 -180.971
35.0191 -639.748 39.76
-180.971 39.76 -538.055

-6952.13 109.269 -203.583
109.269 -1025.88 125.155
-203.583 125.155 -811.496

-6894.88 216.881 -304.13
216.881 -1544.22 76.7459
-304.13 76.7459 -1182.43

-6912.32 567.59 -728.103
567.59 -2568.48 -11.9868
-728.103 -11.9868 -2297.83

-6885.51 413.848 -273.159
413.848 -1554.23 41.3623
-273.159 41.3623 -1825.13

-6708.86 -587.414 -54.0811
-587.414 -1394.93 9.63551
-54.0811 9.63551 -2571.77

-6292.58 63.237 44.8957
63.237 209.933 -244.908
44.8957 -244.908 718.075

-7195.89 -1699.35 -434.783
-1699.35 -2238.5 213.419
-434.783 213.419 -4672.63

-7152.24 -608.229 717.57
-608.229 -2381.95 -46.5725
717.57 -46.5725 -1868.83

-7158.84 -210.325 -109.676
-210.325 -1460.44 -49.4409
-109.676 -49.4409 -1544.22

-6568.91 385.972 536.06
385.972 -2406.74 34.4552
536.06 34.4552 -1098.43

-6853.32 -542.905 603.965
-542.905 -2829.82 -39.3909
603.965 -39.3909 -2411.78

-7140.59 -203.583 122.208
-203.583 -1404.82 17.1669
122.208 17.1669 -1496.62

-6025.16 -151.207 -90.6427
-151.207 -146.956 60.7281
-90.6427 60.7281 198.287

-6027.95 -146.312 -123.02
-146.312 -174.262 55.3072
-123.02 55.3072 145.4

-6959.57 44.4991 -32.2597
44.4991 -227.072 163.764
-32.2597 163.764 -319.423

-6943.65 -1407.14 1383.6
-1407.14 -3203.13 -392.129
1383.6 -392.129 -3645.11

-6076.31 158.616 -67.0408
158.616 -233.31 -65.717
-67.0408 -65.717 158.859

-6115.44 165.123 -6.41269
165.123 78.7099 151.104
-6.41269 151.104 801.603

-6967.22 -441.272 -683.619
-441.272 -3450.8 52.6606
-683.619 52.6606 -3149.02

-7374.38 0.733671 2.06638
0.733671 -495.673 88.8042
2.06638 88.8042 -486.864

-6687.23 -575.557 541.849
-575.557 -2306.7 -49.242
541.849 -49.242 -1319.14

-6826.89 -512.667 1593.27
-512.667 -4491.2 -150.35
1593.27 -150.35 -3269.36

-6245.34 173.125 -67.3883
173.125 286.698 243.038
-67.3883 243.038 326.258

-7385.17 8.08924 4.93091
8.08924 -505.25 89.4761
4.93091 89.4761 -486.958

-7057.99 -183.21 -53.1901
-183.21 -1443.3 -13.8552
-53.1901 -13.8552 -401.251

-6957.88 -1466.3 688.071
-1466.3 -3296.39 -158.301
688.071 -158.301 -4347.62

-6120.19 90.3677 -55.8405
90.3677 -151.759 191.185
-55.8405 191.185 653.447

-5460.77 140.829 -69.5075
140.829 168.971 166.523
-69.5075 166.523 225.899

-7160.25 -205.728 -103.069
-205.728 -1501.1 -36.3794
-103.069 -36.3794 -1532.17

-6903.39 -751.482 533.695
-751.482 -2384.61 1.8712
533.695 1.8712 -2549.75

-6902.45 271.07 -187.092
271.07 -1927.94 7.83208
-187.092 7.83208 -2166.6

-6785.39 924.476 -779.036
924.476 -4174.13 -30.573
-779.036 -30.573 -4411.65

-5655.7 89.8574 -62.3779
89.8574 205.504 176.186
-62.3779 176.186 489.317

-6913.31 -481.18 -339.902
-481.18 -1688.95 -88.871
-339.902 -88.871 -1813.38

-6523.88 80.0151 -35.0485
80.0151 -426.208 143.149
-35.0485 143.149 -466.466

-6417.21 -30.1276 -4.11819
-30.1276 25.6261 209.079
-4.11819 209.079 315.2

-6299.93 -170.702 23.6372
-170.702 -244.274 -48.1973
23.6372 -48.1973 -347.363

-6298.51 74.0158 53.4225
74.0158 -349.728 49.2398
53.4225 49.2398 -414.118

-7111.24 241.344 -85.5645
241.344 -1429.04 69.9804
-85.5645 69.9804 -1532.3

-6810.06 309.422 -198.441
309.422 -988.39 121.196
-198.441 121.196 -1183.66

-6541.25 363.764 -440.466
363.764 -2990.51 -23.8324
-440.466 -23.8324 -2883.49

-7002.84 552.086 -663.268
552.086 -3251.38 -37.1652
-663.268 -37.1652 -3196.97

-6698.37 320.39 -369.879
320.39 -1653 93.3683
-369.879 93.3683 -1445.74

-6707 -257.522 -470.202
-257.522 -3211.26 29.4869
-470.202 29.4869 -3041.47

-6662.55 -180.501 1.78124
-180.501 -646.796 98.8461
1.78124 98.8461 -765.823

-6855.54 -556.078 945.767
-556.078 -4705.71 -63.7714
945.767 -63.7714 -4260.47

-7053.4 629.47 155.408
629.47 -2488.54 -36.4715
155.408 -36.4715 -3178.86

-5706.64 -86.8011 85.6288
-86.8011 165.267 181.971
85.6288 181.971 386.824

-6212.06 17.6171 116.885
17.6171 260.647 92.5389
116.885 92.5389 -3.20202

-6575.5 -82.2428 -1.96872
-82.2428 -22.349 96.9594
-1.96872 96.9594 -369.169

-7363.4 2.37846 -4.63381
2.37846 -476.842 -79.6601
-4.63381 -79.6601 -488.354

-7105.79 140.167 108.583
140.167 -1150.12 -50.6478
108.583 -50.6478 -1188.29

-6468.32 -135.752 -64.2834
-135.752 -414.536 -173.198
-64.2834 -173.198 -461.058

-5698.08 -107.302 -48.7295
-107.302 157.021 -181.662
-48.7295 -181.662 404.212

-6387.59 -278.15 680.688
-278.15 -4338.28 -18.871
680.688 -18.871 -4023.27

-6905.71 693.586 1541.3
693.586 -4354.32 173.161
1541.3 173.161 -3217.1

-6501.8 21.8129 -33.376
21.8129 456.205 296.072
-33.376 296.072 500.336

-6923.72 1393.59 1357.45
1393.59 -3263.09 375.109
1357.45 375.109 -3638.99

-6252.21 -82.1779 -165.756
-82.1779 311.229 -259.961
-165.756 -259.961 142.979

-6338.9 -72.823 51.8474
-72.823 -294.956 -107.249
51.8474 -107.249 129.984

-6688.1 -15.2632 -41.7461
-15.2632 -31.4735 -219.634
-41.7461 -219.634 131.691

-6870.12 247.846 294.659
247.846 -1567.72 -117.089
294.659 -117.089 -1153.05

-7103.18 1695.81 424.847
1695.81 -2273.88 210.566
424.847 210.566 -4626.02

-6006.56 -3.56328 299.389
-3.56328 646.437 136.538
299.389 136.538 222.168

-6872.63 1473.41 687.182
1473.41 -3290.82 158.02
687.182 158.02 -4318.37

-7052.21 280.039 260.412
280.039 -1632.91 -57.3481
260.412 -57.3481 -1738.63

-7158.9 275.338 606.705
275.338 -3268.3 -25.5972
606.705 -25.5972 -2964.4

-7120.16 1738.55 -415.04
1738.55 -2304.6 -211.919
-415.04 -211.919 -4636.24

-6440.39 -9.77903 62.3563
-9.77903 272.704 -211.575
62.3563 -211.575 -35.2183

-6483.78 -162.457 30.8395
-162.457 32.5949 -104.312
30.8395 -104.312 383.275

-6537.87 -5.28563 -39.4954
-5.28563 382.968 -320.616
-39.4954 -320.616 284.276

-6072.61 -33.6439 -155.754
-33.6439 939.584 -196.691
-155.754 -196.691 26.5281

-6503.17 674.272 -285.575
674.272 -4137.66 -22.7841
-285.575 -22.7841 -4452.48

-6557.55 573.421 81.7801
573.421 -1355.03 -2.85258
81.7801 -2.85258 -2462.59

-6599.28 566.052 -91.0171
566.052 -1457.63 -53.6411
-91.0171 -53.6411 -2504.69

-6991.28 570.433 719.444
570.433 -2709.18 0.136292
719.444 0.136292 -2426.48

-7205.08 -244.545 1677.7
-244.545 -4918.08 -92.7043
1677.7 -92.7043 -2426.54

-6935.12 912.281 760.645
912.281 -4343.06 77.0379
760.645 77.0379 -4558.83

-7080.18 608.465 749.978
608.465 -2306.06 75.8447
749.978 75.8447 -1767.13

-7741.56 1426.2 1516.09
1426.2 -2880.13 702.357
1516.09 702.357 -3694.28

