# vtk DataFile Version 3.0
vtk output at time 0.4
ASCII
DATASET UNSTRUCTURED_GRID
POINTS 1524 float
0 0 0 0 0 0.05 0 0 0.1 
0 0 0.15 0 0 0.2 0 0.05 0 
0 0.05 0.05 0 0.05 0.1 0 0.05 0.15 
0 0.05 0.2 0 0.1 0 0 0.1 0.05 
0 0.1 0.1 0 0.1 0.15 0 0.1 0.2 
0 0.15 0 0 0.15 0.05 0 0.15 0.1 
0 0.15 0.15 0 0.15 0.2 0 0.2 0 
0 0.2 0.05 0 0.2 0.1 0 0.2 0.15 
0 0.2 0.2 0.043971 -0.0045342 -0.00478004 0.0450318 -0.00490612 0.047605 
0.0452931 -0.00493893 0.10001 0.0450388 -0.00491589 0.152395 0.0439886 -0.00455212 0.204763 
0.0450167 0.047625 -0.00493304 0.0450065 0.0476203 0.204953 0.0453197 0.100012 -0.00509292 
0.0453391 0.100022 0.205062 0.0450186 0.152363 -0.00489963 0.0450033 0.152378 0.204928 
0.0439955 0.20452 -0.00476935 0.0450241 0.204928 0.0475926 0.0452977 0.204949 0.100003 
0.0450317 0.204933 0.152391 0.0439895 0.204557 0.204744 0.0900312 -0.0052271 -0.00523905 
0.0900162 -0.00544443 0.0470721 0.0899803 -0.00588446 0.0999949 0.0899269 -0.00549745 0.152886 
0.0900297 -0.00524263 0.205198 0.0900623 0.0470599 -0.00537327 0.0900591 0.0470596 0.205389 
0.0899741 0.100022 -0.00595577 0.0900345 0.0999752 0.205911 0.0898691 0.152909 -0.00542797 
0.089858 0.15286 0.205374 0.0900163 0.205186 -0.0052385 0.0900018 0.205409 0.04705 
0.0900422 0.205909 0.0999979 0.0899682 0.205493 0.152915 0.090031 0.205207 0.205243 
0.136009 -0.0045382 -0.00476406 0.135049 -0.00503108 0.0476256 0.134684 -0.00512772 0.100001 
0.134966 -0.00498173 0.15241 0.136001 -0.00453527 0.20476 0.135113 0.0476264 -0.00502769 
0.135099 0.0476334 0.204993 0.1346 0.100031 -0.0051604 0.134592 0.10005 0.205119 
0.135006 0.152388 -0.00492728 0.134986 0.152388 0.204907 0.136032 0.204543 -0.00476426 
0.135079 0.205013 0.0475803 0.134663 0.205044 0.100026 0.134988 0.205079 0.152341 
0.136036 0.204563 0.204742 0.18 0 0 0.18 0 0.05 
0.18 0 0.1 0.18 0 0.15 0.18 0 0.2 
0.18 0.05 0 0.18 0.05 0.05 0.18 0.05 0.1 
0.18 0.05 0.15 0.18 0.05 0.2 0.18 0.1 0 
0.18 0.1 0.05 0.18 0.1 0.1 0.18 0.1 0.15 
0.18 0.1 0.2 0.18 0.15 0 0.18 0.15 0.05 
0.18 0.15 0.1 0.18 0.15 0.15 0.18 0.15 0.2 
0.18 0.2 0 0.18 0.2 0.05 0.18 0.2 0.1 
0.18 0.2 0.15 0.18 0.2 0.2 0 0 0.0166667 
0 0 0.0333333 0 0.0166667 0 0 0.0333333 0 
0.0133872 -0.00263663 -0.0034347 0.0283691 -0.00396658 -0.00401442 0.0148686 -0.00306405 0.0144479 
0.0294771 -0.00398212 0.0307014 0 0 0.0666667 0 0 0.0833333 
0 0.0166667 0.0333333 0 0.0333333 0.0166667 0 0.0166667 0.05 
0 0.0333333 0.05 0 0.0166667 0.0666667 0 0.0333333 0.0833333 
0.0152343 -0.00318085 0.0489147 0.0299076 -0.00418569 0.0481705 0 0 0.116667 
0 0 0.133333 0 0.0166667 0.1 0 0.0333333 0.1 
0.0152453 -0.00328264 0.0829341 0.0300074 -0.00415892 0.0654775 0.01536 -0.00313172 0.100022 
0.0302688 -0.00429219 0.100018 0.0152479 -0.00326371 0.117106 0.030007 -0.00414737 0.134547 
0 0 0.166667 0 0 0.183333 0 0.0166667 0.133333 
0 0.0333333 0.116667 0 0.0166667 0.15 0 0.0333333 0.15 
0 0.0166667 0.166667 0 0.0333333 0.183333 0.015242 -0.00314479 0.15109 
0.02991 -0.00416252 0.151848 0 0.0166667 0.2 0 0.0333333 0.2 
0.0148742 -0.00305645 0.185546 0.0294858 -0.00396843 0.169303 0.0133909 -0.00263815 0.203424 
0.028379 -0.00397083 0.204005 0 0.05 0.0166667 0 0.05 0.0333333 
0 0.0666667 0 0 0.0833333 0 0 0.0666667 0.0166667 
0 0.0833333 0.0333333 0.0145134 0.0320225 -0.00314141 0.0291003 0.0134012 -0.00412632 
0.0156028 0.0317765 0.0144131 0.0304657 0.0133623 0.0307322 0.015198 0.0490426 -0.00309974 
0.0300762 0.0482353 -0.00435595 0.0153037 0.0662175 -0.003235 0.0301209 0.08279 -0.0042941 
0 0.05 0.0666667 0 0.05 0.0833333 0 0.0666667 0.05 
0 0.0833333 0.05 0.0158632 0.0316791 0.0489387 0.0307857 0.0132782 0.0481834 
0.0158022 0.0488943 0.0316734 0.0307101 0.0481649 0.0132123 0.015951 0.065981 0.0316383 
0.0310024 0.0827464 0.0131987 0.0310405 0.0307361 0.0481024 0.0604767 0.0120777 0.0472657 
0.0312353 0.0306756 0.065439 0.0606936 0.0119723 0.0824246 0.031109 0.0481015 0.0306586 
0.0604596 0.0473108 0.0120479 0.0312624 0.0653848 0.0306542 0.0606773 0.0824548 0.0119747 
0 0.05 0.116667 0 0.05 0.133333 0 0.0666667 0.0833333 
0 0.0833333 0.0666667 0 0.0666667 0.1 0 0.0833333 0.1 
0 0.0666667 0.116667 0 0.0833333 0.133333 0.0159543 0.0316488 0.0830261 
0.0309347 0.0132139 0.0654606 0.0159548 0.0316199 0.100025 0.0309305 0.0132065 0.100016 
0.0159758 0.0316515 0.117037 0.0309608 0.0132027 0.13459 0.0313493 0.0306583 0.100009 
0.0608007 0.0119373 0.100025 0.0313346 0.0306339 0.117297 0.0606464 0.0120267 0.135132 
0.0315361 0.0653677 0.0653827 0.060955 0.082426 0.0295589 0 0.05 0.166667 
0 0.05 0.183333 0 0.0666667 0.15 0 0.0833333 0.15 
0.015893 0.0317121 0.151126 0.0308327 0.0133041 0.151856 0.0158158 0.0489087 0.168341 
0.0307126 0.0481729 0.186809 0.0159379 0.0659829 0.168365 0.0309854 0.082754 0.186799 
0.0311811 0.0307255 0.151954 0.0605147 0.0121127 0.152691 0.0311238 0.0481229 0.169364 
0.060441 0.0472924 0.187967 0.0312483 0.065414 0.169357 0.060685 0.0824223 0.18804 
0 0.0666667 0.183333 0 0.0833333 0.166667 0 0.0666667 0.2 
0 0.0833333 0.2 0.0156101 0.0317761 0.185606 0.0304911 0.0133749 0.169277 
0.0145135 0.0320131 0.203157 0.0291099 0.0133914 0.204128 0.0151922 0.0490391 0.203108 
0.0300682 0.048235 0.204372 0.0152969 0.0662223 0.20324 0.030114 0.0828074 0.204293 
0 0.1 0.0166667 0 0.1 0.0333333 0 0.116667 0 
0 0.133333 0 0.0151592 0.100022 -0.003322 0.0299203 0.0999594 -0.00412477 
0 0.1 0.0666667 0 0.1 0.0833333 0 0.116667 0.0333333 
0 0.133333 0.0166667 0 0.116667 0.05 0 0.133333 0.05 
0 0.116667 0.0666667 0 0.133333 0.0833333 0.015977 0.0999988 0.0316186 
0.0310547 0.0999937 0.0131355 0.0159524 0.117034 0.0316379 0.0309099 0.134552 0.0132168 
0.0313869 0.0999987 0.0305844 0.06077 0.0999964 0.0119524 0.0313377 0.11727 0.0305868 
0.0606207 0.135107 0.0120342 0 0.1 0.116667 0 0.1 0.133333 
0 0.116667 0.1 0 0.133333 0.1 0.0315804 0.0653909 0.0999944 
0.0609469 0.0295678 0.0999858 0.0315518 0.0654471 0.117277 0.0608926 0.0295832 0.135135 
0.0315584 0.100002 0.0654038 0.0609575 0.100001 0.0295798 0.0316794 0.0999907 0.134602 
0.060962 0.0999867 0.170458 0.0315474 0.117277 0.0654335 0.0608886 0.135109 0.0295958 
0.0316012 0.117264 0.134596 0.060887 0.135203 0.170437 0.0316378 0.134603 0.0999995 
0.060953 0.17045 0.0999712 0.0315818 0.13457 0.117258 0.0608772 0.170427 0.135152 
0.0614244 0.0999948 0.0999879 0.11861 0.100013 0.100005 0 0.1 0.166667 
0 0.1 0.183333 0 0.116667 0.133333 0 0.133333 0.116667 
0 0.116667 0.15 0 0.133333 0.15 0 0.116667 0.166667 
0 0.133333 0.183333 0.0159846 0.0999933 0.168327 0.0310662 0.0999984 0.186811 
0.0159629 0.116997 0.168315 0.0309158 0.13452 0.186773 0.0314445 0.0653795 0.151974 
0.0607664 0.0296308 0.15274 0.0313913 0.0999755 0.169351 0.0608148 0.100002 0.188084 
0.0313492 0.117258 0.169352 0.0606363 0.135158 0.188003 0.0314291 0.134576 0.151948 
0.0607692 0.170373 0.152743 0 0.116667 0.2 0 0.133333 0.2 
0.0151669 0.10003 0.203306 0.0299352 0.0999705 0.204098 0 0.15 0.0166667 
0 0.15 0.0333333 0 0.166667 0 0 0.183333 0 
0 0.166667 0.0166667 0 0.183333 0.0333333 0.0152129 0.134022 -0.00320711 
0.0300253 0.117215 -0.0042297 0.0153525 0.150949 -0.00306315 0.0301907 0.151772 -0.00431537 
0.0145664 0.167924 -0.00310452 0.0291106 0.186601 -0.0041018 0.0156146 0.168178 0.0144163 
0.030479 0.18668 0.0307489 0 0.15 0.0666667 0 0.15 0.0833333 
0 0.166667 0.05 0 0.183333 0.05 0.0158799 0.151121 0.0316787 
0.0308272 0.151855 0.0132639 0.0158742 0.168325 0.0489454 0.0307955 0.186744 0.0481908 
0.0311597 0.151928 0.0307041 0.0604719 0.15265 0.0121108 0.0311127 0.16931 0.0481086 
0.0604848 0.187925 0.0472719 0.0312676 0.169343 0.0654344 0.0606934 0.188015 0.082415 
0 0.15 0.116667 0 0.15 0.133333 0 0.166667 0.0833333 
0 0.183333 0.0666667 0 0.166667 0.1 0 0.183333 0.1 
0 0.166667 0.116667 0 0.183333 0.133333 0.0159634 0.168347 0.0830225 
0.0309455 0.186802 0.0654585 0.0159654 0.168378 0.100011 0.0309367 0.1868 0.100007 
0.0159728 0.168354 0.117014 0.0309527 0.186817 0.134576 0.0314395 0.151961 0.0653821 
0.060754 0.152703 0.0296393 0.031378 0.169352 0.100003 0.060801 0.188069 0.100017 
0.0313279 0.169371 0.117282 0.0606308 0.187985 0.135144 0 0.15 0.166667 
0 0.15 0.183333 0 0.166667 0.15 0 0.183333 0.15 
0.0158736 0.151076 0.168322 0.0308118 0.15183 0.186759 0.01589 0.168286 0.151105 
0.0308215 0.186713 0.151842 0.0311524 0.15188 0.169324 0.0604556 0.152719 0.187937 
0.031208 0.169303 0.151918 0.060512 0.187902 0.152691 0 0.166667 0.183333 
0 0.183333 0.166667 0 0.166667 0.2 0 0.183333 0.2 
0.0152126 0.134006 0.203202 0.0300305 0.117208 0.2042 0.0153417 0.150936 0.203073 
0.0301739 0.151763 0.204331 0.0156186 0.168162 0.185589 0.0304934 0.186649 0.169255 
0.0145643 0.167918 0.203109 0.0291092 0.186605 0.2041 0 0.2 0.0166667 
0 0.2 0.0333333 0.0133845 0.202595 -0.00343234 0.0283616 0.203962 -0.00400338 
0.0148716 0.203041 0.0144466 0.0294663 0.204015 0.0306996 0 0.2 0.0666667 
0 0.2 0.0833333 0.0152268 0.203181 0.0489206 0.0298887 0.204204 0.0481832 
0 0.2 0.116667 0 0.2 0.133333 0.0152463 0.203281 0.08293 
0.0300064 0.204169 0.0654834 0.0153586 0.203132 0.100011 0.0302696 0.2043 0.100009 
0.0152431 0.203271 0.117094 0.029996 0.204166 0.134534 0 0.2 0.166667 
0 0.2 0.183333 0.0152314 0.203154 0.151087 0.0298893 0.204181 0.151831 
0.0148731 0.20303 0.185548 0.0294678 0.203993 0.169297 0.0133823 0.202591 0.203425 
0.0283554 0.203965 0.203992 0.044323 -0.00461619 0.0126372 0.0446248 -0.00475879 0.0301554 
0.0443481 0.0127279 -0.00471139 0.0447029 0.0301438 -0.00477898 0.0592968 -0.00499761 -0.00501289 
0.0746783 -0.0052056 -0.00518224 0.0596108 0.0123466 -0.00507558 0.0749633 0.0295814 -0.00536513 
0.0452227 -0.00494011 0.0651322 0.045249 -0.00494748 0.082562 0.0453014 0.0126577 0.0301136 
0.0452719 0.0301666 0.0125719 0.059801 -0.00516224 0.0297034 0.0747993 -0.00522367 0.0121111 
0.0599831 -0.00532649 0.0472467 0.0749843 -0.00552265 0.0470876 0.0601289 -0.00542188 0.064799 
0.075088 -0.00574627 0.0823166 0.0601976 0.012203 0.0297213 0.0751007 0.0295922 0.0119785 
0.0452568 -0.00495453 0.117452 0.0452375 -0.00494645 0.13487 0.0602648 -0.00545149 0.10001 
0.0751536 -0.00577425 0.100007 0.044633 -0.00475852 0.169836 0.0443321 -0.00462107 0.187349 
0.045333 0.0126585 0.169879 0.0452859 0.0301606 0.187446 0.0601716 -0.0054119 0.135148 
0.0751443 -0.00573279 0.117665 0.0599561 -0.00532507 0.152716 0.0749085 -0.00551839 0.152849 
0.0598109 -0.0051647 0.170266 0.0748097 -0.00522556 0.187841 0.0602187 0.0122015 0.170248 
0.0750961 0.0295876 0.188012 0.0443632 0.012709 0.204708 0.0447082 0.0301275 0.204796 
0.0593134 -0.00502472 0.204979 0.0746891 -0.00522834 0.205137 0.0596262 0.0123192 0.205063 
0.0749689 0.0295594 0.205363 0.0451729 0.0651062 -0.00496468 0.0452342 0.0825694 -0.00498764 
0.060052 0.0472687 -0.00535856 0.0750548 0.047094 -0.0055039 0.0451592 0.0651117 0.204979 
0.0452289 0.0825814 0.204989 0.0600379 0.0472512 0.205378 0.0750407 0.0470728 0.205521 
0.0452282 0.117427 -0.00497655 0.0451557 0.134882 -0.0049451 0.060212 0.0824508 -0.00547404 
0.0751103 0.0647342 -0.00561849 0.0602131 0.100012 -0.00554171 0.0750805 0.100031 -0.00582194 
0.0602318 0.117585 -0.00544787 0.075095 0.135289 -0.00560293 0.0452339 0.117431 0.204952 
0.0451585 0.134879 0.204941 0.0602095 0.0824412 0.205482 0.0750908 0.0647053 0.205637 
0.0602382 0.100015 0.205524 0.0751236 0.100011 0.205812 0.0602396 0.117601 0.205462 
0.0751019 0.135313 0.205639 0.044717 0.169872 -0.00475412 0.0443568 0.187282 -0.00468427 
0.0453087 0.169858 0.012608 0.0453282 0.18739 0.0301317 0.0599678 0.152676 -0.00534241 
0.0749083 0.152817 -0.00553135 0.0453069 0.169869 0.187407 0.0453396 0.187377 0.169855 
0.0447069 0.169898 0.204767 0.0443501 0.187314 0.20468 0.0599588 0.15273 0.205377 
0.0749006 0.152877 0.205536 0.0443469 0.204628 0.0126362 0.0446423 0.204794 0.0301432 
0.0596258 0.187637 -0.00506242 0.0749189 0.170366 -0.00535187 0.0593301 0.204985 -0.00501097 
0.0746958 0.205169 -0.00518268 0.0452301 0.204956 0.0651262 0.0452598 0.204959 0.0825567 
0.0602219 0.187807 0.0297364 0.0750769 0.170361 0.0119907 0.0598384 0.205169 0.0297018 
0.0748313 0.205193 0.0121185 0.0599942 0.205354 0.0472321 0.0749831 0.205518 0.0470677 
0.060144 0.205422 0.0647982 0.0751115 0.205721 0.0823172 0.0452555 0.204969 0.117444 
0.0452292 0.20497 0.134865 0.0602707 0.205452 0.100004 0.0751713 0.205772 0.100004 
0.0446375 0.204787 0.169829 0.0443341 0.204638 0.187335 0.0602258 0.187822 0.170238 
0.0750648 0.17041 0.18801 0.0601695 0.205426 0.135151 0.0751518 0.205718 0.117665 
0.0599837 0.205349 0.152713 0.0749586 0.205536 0.152861 0.0598307 0.205182 0.170255 
0.0748306 0.205227 0.187853 0.0596217 0.187696 0.205055 0.0749244 0.170426 0.205365 
0.0593136 0.205041 0.204974 0.074694 0.20522 0.205154 0.090014 -0.00526536 0.0120927 
0.0900133 -0.00534318 0.0295437 0.0900285 0.0121187 -0.00524505 0.0900411 0.0295399 -0.00530526 
0.105353 -0.00520356 -0.00513494 0.1207 -0.00499224 -0.00498098 0.105211 -0.00520373 0.0121663 
0.120202 -0.005135 0.0297393 0.0899885 -0.00560142 0.0646754 0.0899578 -0.00575404 0.0823297 
0.0899831 0.0120268 0.0295451 0.0900022 0.029579 0.0120392 0.0899661 0.0294905 0.029482 
0.0900015 0.0647332 0.0117898 0.105054 -0.00542891 0.047128 0.120075 -0.00528169 0.0472838 
0.104766 0.029533 0.0295233 0.119508 0.0648741 0.0120098 0.0899837 -0.00576329 0.117645 
0.08999 -0.00564474 0.135295 0.0899749 0.0292513 0.0646428 0.0900138 0.0646487 0.0292682 
0.0900178 0.0292891 0.13534 0.0899953 0.0646464 0.170726 0.104921 -0.00561481 0.0823303 
0.119941 -0.00534886 0.064812 0.104914 -0.00575813 0.10001 0.119793 -0.00552907 0.100008 
0.10487 -0.00570447 0.11765 0.119844 -0.00544197 0.135175 0.104552 0.0293213 0.0647125 
0.1192 0.0648358 0.0295363 0.10459 0.0293602 0.135269 0.119164 0.0648413 0.170439 
0.119075 0.0295825 0.0999987 0.148355 0.0654013 0.100021 0.119092 0.029564 0.117578 
0.148408 0.0653633 0.134607 0.0899959 -0.00533198 0.170413 0.0900178 -0.0052539 0.187865 
0.0899793 0.0120284 0.170427 0.0900019 0.0295928 0.187956 0.0899773 0.0295327 0.170561 
0.0899746 0.0647338 0.188252 0.104986 -0.00541277 0.152867 0.119994 -0.0052557 0.152741 
0.10477 0.0295519 0.170468 0.11949 0.0648911 0.18798 0.0900224 0.0121095 0.205217 
0.0900387 0.0295343 0.205292 0.105207 -0.00519229 0.187819 0.120178 -0.00512819 0.170266 
0.105341 -0.00519511 0.205123 0.120688 -0.00498086 0.204978 0.090012 0.0646514 -0.0055206 
0.0900055 0.0822971 -0.00570043 0.105075 0.029587 -0.00532218 0.120393 0.0123602 -0.00504136 
0.104917 0.0296106 0.0120508 0.119834 0.0122144 0.0297654 0.105009 0.0471107 -0.00542116 
0.120059 0.0472734 -0.00526225 0.104973 0.0646957 -0.00551944 0.119807 0.082377 -0.0054814 
0.0900049 0.0646487 0.205556 0.0900064 0.0822934 0.205728 0.104922 0.0296196 0.187941 
0.119829 0.0122277 0.170235 0.10507 0.0295908 0.205316 0.120389 0.0123674 0.205037 
0.105002 0.0471115 0.205429 0.120049 0.0472731 0.205261 0.104961 0.0646981 0.205524 
0.119766 0.0823917 0.205464 0.0899922 0.117644 -0.00582792 0.089965 0.135297 -0.00563683 
0.0900543 0.135333 0.0292615 0.0900135 0.170731 0.0646326 0.104876 0.100019 -0.00582178 
0.119723 0.100013 -0.0055754 0.104607 0.135274 0.0293295 0.119165 0.170465 0.0648209 
0.119065 0.0999966 0.0295581 0.148361 0.10001 0.0654027 0.119092 0.117584 0.0295537 
0.148406 0.134618 0.0653727 0.0900077 0.117622 0.205771 0.0899591 0.135275 0.205574 
0.0899836 0.135356 0.170717 0.0900123 0.170723 0.135328 0.0900235 0.135267 0.18824 
0.0900418 0.170509 0.170505 0.104884 0.100009 0.205792 0.119712 0.100021 0.205551 
0.104542 0.135287 0.170643 0.119182 0.170437 0.135143 0.104717 0.135205 0.188205 
0.119529 0.170309 0.170286 0.11903 0.099998 0.170407 0.148404 0.0999888 0.134589 
0.11922 0.100013 0.188036 0.148601 0.0999775 0.169402 0.119019 0.117569 0.170445 
0.14844 0.134578 0.134603 0.119291 0.117583 0.188001 0.148685 0.134542 0.16939 
0.0899891 0.170431 -0.00529474 0.0900231 0.187842 -0.00523593 0.089994 0.170437 0.0120453 
0.0900228 0.187958 0.0295742 0.0900146 0.17057 0.0295309 0.0900036 0.188268 0.0647243 
0.104953 0.135306 -0.00560964 0.119813 0.117601 -0.00548025 0.104993 0.152865 -0.00550083 
0.120014 0.152709 -0.00533968 0.105072 0.170358 -0.00530908 0.120405 0.187646 -0.00504899 
0.104926 0.170371 0.012021 0.119872 0.187814 0.0297536 0.1048 0.17047 0.0295129 
0.119495 0.188002 0.0648566 0.119331 0.152749 0.0296268 0.14854 0.151979 0.065413 
0.0899879 0.170418 0.187947 0.0900135 0.187966 0.170444 0.0899877 0.170404 0.205249 
0.0900234 0.187845 0.205216 0.10491 0.135312 0.205578 0.119771 0.117597 0.205469 
0.104942 0.152914 0.205453 0.119961 0.152758 0.20531 0.104947 0.170368 0.187977 
0.119858 0.187824 0.170245 0.105051 0.170389 0.205317 0.12041 0.187666 0.205045 
0.119588 0.152725 0.187887 0.148837 0.151851 0.169348 0.0900312 0.205216 0.0120908 
0.0900312 0.205303 0.0295347 0.105343 0.205168 -0.00516884 0.120698 0.204998 -0.00499576 
0.105212 0.205181 0.0121385 0.1202 0.205143 0.0297398 0.0899749 0.20557 0.0646506 
0.0899904 0.205742 0.0823171 0.104995 0.205438 0.0470916 0.119984 0.205276 0.0472401 
0.0899873 0.20573 0.117644 0.0899784 0.205605 0.135303 0.104867 0.205651 0.0823215 
0.119808 0.205386 0.0648249 0.104884 0.205769 0.100007 0.119744 0.205506 0.100015 
0.10488 0.205621 0.117669 0.119821 0.205362 0.135173 0.119058 0.170413 0.0999912 
0.148422 0.134611 0.0999954 0.119237 0.188026 0.0999968 0.148642 0.169418 0.0999947 
0.090012 0.205327 0.170451 0.090023 0.205245 0.187903 0.104958 0.20542 0.152891 
0.119974 0.205279 0.152739 0.105205 0.205199 0.187851 0.120191 0.205169 0.17027 
0.105338 0.205186 0.205155 0.120709 0.205012 0.204979 0.135678 -0.00464675 0.0126422 
0.135399 -0.0048311 0.0301612 0.135671 0.0126989 -0.00469588 0.135331 0.0301093 -0.004797 
0.151669 -0.00397797 -0.00400436 0.166638 -0.00260582 -0.00342964 0.150926 0.013382 -0.00411537 
0.165462 0.032087 -0.00310786 0.134836 -0.00511386 0.0651189 0.134736 -0.00512719 0.0825688 
0.134748 0.0125709 0.0301058 0.134759 0.030118 0.0125422 0.134259 0.0300673 0.0300312 
0.134277 0.0651607 0.0123963 0.150573 -0.00399528 0.0307026 0.165142 -0.00303941 0.0144522 
0.150175 -0.00420135 0.0481831 0.164786 -0.00312722 0.0489228 0.150091 -0.00423042 0.06547 
0.164778 -0.00326195 0.0829193 0.149567 0.0133459 0.0307534 0.164398 0.0318515 0.0144267 
0.149216 0.0132706 0.0481924 0.164109 0.0317788 0.0489257 0.14904 0.0131391 0.0654405 
0.164015 0.0316802 0.0829932 0.148852 0.0307164 0.0481002 0.163908 0.0659224 0.048888 
0.148732 0.0306551 0.0654618 0.163826 0.065966 0.0829972 0.1347 -0.00503178 0.117465 
0.134756 -0.00501354 0.13493 0.133822 0.0299533 0.0650747 0.133864 0.0650756 0.0299567 
0.149765 -0.00440061 0.0999887 0.164649 -0.00313999 0.0999865 0.149015 0.0130638 0.0999927 
0.164031 0.0316038 0.0999953 0.148691 0.030549 0.100001 0.163834 0.0659036 0.0999969 
0.148698 0.0305647 0.11726 0.163871 0.0659231 0.134039 0.135368 -0.00480389 0.169854 
0.135669 -0.00463696 0.18736 0.134749 0.0126028 0.169902 0.134762 0.0301309 0.187451 
0.13428 0.0300691 0.169949 0.134248 0.0651258 0.187576 0.150051 -0.00424292 0.134535 
0.164773 -0.00328771 0.117061 0.150146 -0.0042355 0.151822 0.164785 -0.00316273 0.151077 
0.150567 -0.00401711 0.169301 0.165148 -0.00304568 0.185561 0.149051 0.0131092 0.134541 
0.164039 0.03163 0.116992 0.149236 0.0132189 0.151811 0.164126 0.0317599 0.151084 
0.149578 0.0133215 0.169253 0.164407 0.0318526 0.185564 0.148883 0.0306498 0.151873 
0.16392 0.0659902 0.151139 0.135671 0.0127019 0.204691 0.13533 0.0301129 0.204787 
0.151667 -0.00397638 0.20401 0.166638 -0.00259638 0.203447 0.150926 0.0133833 0.204112 
0.165459 0.0320978 0.203097 0.134888 0.0651012 -0.0051256 0.134785 0.082571 -0.00513441 
0.149913 0.0482251 -0.00438758 0.164687 0.0490596 -0.00308403 0.14925 0.0481937 0.0131896 
0.164113 0.0489513 0.0317275 0.149141 0.0655169 0.0131678 0.164044 0.0830029 0.0317075 
0.134851 0.0651316 0.205086 0.134743 0.0826107 0.205098 0.149245 0.0481836 0.1868 
0.164113 0.0489544 0.168282 0.149903 0.0482104 0.204368 0.164686 0.0490666 0.203092 
0.149121 0.065504 0.186833 0.164053 0.0829968 0.168338 0.134735 0.117469 -0.00504123 
0.13484 0.134934 -0.0049751 0.150062 0.0827995 -0.00430458 0.164832 0.0660056 -0.00322378 
0.150107 0.100062 -0.0041911 0.164865 0.100001 -0.00335339 0.148964 0.100014 0.0130485 
0.164024 0.0999933 0.0316598 0.148666 0.100006 0.0305596 0.163805 0.100009 0.0658977 
0.149899 0.117226 -0.0043776 0.164709 0.133784 -0.0032328 0.149009 0.117232 0.0130968 
0.164059 0.134008 0.0316786 0.148645 0.11724 0.030547 0.163847 0.134029 0.065929 
0.134713 0.11747 0.205015 0.134817 0.134916 0.204968 0.149973 0.0828306 0.204267 
0.164801 0.066006 0.203251 0.148985 0.100016 0.186836 0.164037 0.0999763 0.168363 
0.150047 0.100062 0.204129 0.164843 0.0999944 0.203359 0.149004 0.117235 0.186823 
0.164059 0.133999 0.16838 0.149834 0.117201 0.204311 0.164684 0.133776 0.203249 
0.135315 0.169888 -0.00477099 0.135662 0.187299 -0.00470111 0.134767 0.16986 0.0125745 
0.134749 0.187426 0.0301072 0.134287 0.169942 0.0300636 0.134245 0.18761 0.0651178 
0.149928 0.151785 -0.00438319 0.164786 0.150951 -0.00307996 0.149249 0.151838 0.0131904 
0.164122 0.151047 0.031672 0.148894 0.151857 0.0306418 0.163914 0.151096 0.0659718 
0.134751 0.169847 0.1874 0.134725 0.187388 0.169832 0.135311 0.169875 0.204764 
0.135662 0.187295 0.204686 0.149266 0.151814 0.186792 0.164138 0.151046 0.168364 
0.149919 0.151773 0.204347 0.164798 0.150963 0.203102 0.135694 0.204651 0.0126319 
0.135422 0.204846 0.0301299 0.150919 0.18661 -0.00412348 0.165487 0.167961 -0.00312766 
0.151654 0.203975 -0.00402169 0.166629 0.202626 -0.00344694 0.134835 0.205109 0.0651003 
0.134738 0.205111 0.0825835 0.149568 0.186676 0.0307455 0.164397 0.168205 0.0144329 
0.149284 0.186741 0.048197 0.164131 0.168196 0.0489055 0.149099 0.186855 0.0654797 
0.164055 0.168317 0.0830067 0.150585 0.204009 0.0306941 0.165149 0.203064 0.0144419 
0.150198 0.204222 0.0481734 0.164798 0.203156 0.048924 0.150109 0.204236 0.0654773 
0.164796 0.203306 0.082928 0.134739 0.20511 0.117439 0.134808 0.205131 0.134875 
0.149073 0.186822 0.10001 0.164065 0.168397 0.100002 0.149735 0.204334 0.100019 
0.164649 0.203168 0.100005 0.135403 0.204806 0.169803 0.135701 0.20463 0.187326 
0.149143 0.186802 0.13454 0.164065 0.168247 0.117002 0.14931 0.186694 0.15182 
0.164149 0.168183 0.151111 0.149539 0.186624 0.169244 0.164403 0.168204 0.185593 
0.150111 0.204212 0.134529 0.164807 0.203298 0.117082 0.150143 0.2042 0.151832 
0.164781 0.203156 0.151092 0.150546 0.203966 0.169278 0.165142 0.203058 0.185549 
0.150902 0.186608 0.20411 0.165486 0.167982 0.203148 0.151635 0.203976 0.203991 
0.166613 0.202639 0.203428 0.18 0 0.0166667 0.18 0 0.0333333 
0.18 0.0166667 0 0.18 0.0333333 0 0.18 0 0.0666667 
0.18 0 0.0833333 0.18 0.0166667 0.0333333 0.18 0.0333333 0.0166667 
0.18 0.0166667 0.05 0.18 0.0333333 0.05 0.18 0.0166667 0.0666667 
0.18 0.0333333 0.0833333 0.18 0 0.116667 0.18 0 0.133333 
0.18 0.0166667 0.1 0.18 0.0333333 0.1 0.18 0 0.166667 
0.18 0 0.183333 0.18 0.0166667 0.133333 0.18 0.0333333 0.116667 
0.18 0.0166667 0.15 0.18 0.0333333 0.15 0.18 0.0166667 0.166667 
0.18 0.0333333 0.183333 0.18 0.0166667 0.2 0.18 0.0333333 0.2 
0.18 0.05 0.0166667 0.18 0.05 0.0333333 0.18 0.0666667 0 
0.18 0.0833333 0 0.18 0.0666667 0.0166667 0.18 0.0833333 0.0333333 
0.18 0.05 0.0666667 0.18 0.05 0.0833333 0.18 0.0666667 0.05 
0.18 0.0833333 0.05 0.18 0.05 0.116667 0.18 0.05 0.133333 
0.18 0.0666667 0.0833333 0.18 0.0833333 0.0666667 0.18 0.0666667 0.1 
0.18 0.0833333 0.1 0.18 0.0666667 0.116667 0.18 0.0833333 0.133333 
0.18 0.05 0.166667 0.18 0.05 0.183333 0.18 0.0666667 0.15 
0.18 0.0833333 0.15 0.18 0.0666667 0.183333 0.18 0.0833333 0.166667 
0.18 0.0666667 0.2 0.18 0.0833333 0.2 0.18 0.1 0.0166667 
0.18 0.1 0.0333333 0.18 0.116667 0 0.18 0.133333 0 
0.18 0.1 0.0666667 0.18 0.1 0.0833333 0.18 0.116667 0.0333333 
0.18 0.133333 0.0166667 0.18 0.116667 0.05 0.18 0.133333 0.05 
0.18 0.116667 0.0666667 0.18 0.133333 0.0833333 0.18 0.1 0.116667 
0.18 0.1 0.133333 0.18 0.116667 0.1 0.18 0.133333 0.1 
0.18 0.1 0.166667 0.18 0.1 0.183333 0.18 0.116667 0.133333 
0.18 0.133333 0.116667 0.18 0.116667 0.15 0.18 0.133333 0.15 
0.18 0.116667 0.166667 0.18 0.133333 0.183333 0.18 0.116667 0.2 
0.18 0.133333 0.2 0.18 0.15 0.0166667 0.18 0.15 0.0333333 
0.18 0.166667 0 0.18 0.183333 0 0.18 0.166667 0.0166667 
0.18 0.183333 0.0333333 0.18 0.15 0.0666667 0.18 0.15 0.0833333 
0.18 0.166667 0.05 0.18 0.183333 0.05 0.18 0.15 0.116667 
0.18 0.15 0.133333 0.18 0.166667 0.0833333 0.18 0.183333 0.0666667 
0.18 0.166667 0.1 0.18 0.183333 0.1 0.18 0.166667 0.116667 
0.18 0.183333 0.133333 0.18 0.15 0.166667 0.18 0.15 0.183333 
0.18 0.166667 0.15 0.18 0.183333 0.15 0.18 0.166667 0.183333 
0.18 0.183333 0.166667 0.18 0.166667 0.2 0.18 0.183333 0.2 
0.18 0.2 0.0166667 0.18 0.2 0.0333333 0.18 0.2 0.0666667 
0.18 0.2 0.0833333 0.18 0.2 0.116667 0.18 0.2 0.133333 
0.18 0.2 0.166667 0.18 0.2 0.183333 0.15087 0.204077 0.0132914 
0.16591 0.185369 -0.00321031 0.0749234 -0.00535032 0.170423 0.164952 0.203161 0.0317995 
0.18 0.183333 0.0166667 0.164679 0.185472 0.014454 0 0.0333333 0.0333333 
0.18 0.0666667 0.166667 0 0.0666667 0.0666667 0.0602328 0.205442 0.082407 
0.18 0.116667 0.116667 0.148498 0.0999778 0.151976 0.0595701 0.205007 0.0123124 
0.0748297 0.187821 -0.0052351 0.18 0.133333 0.166667 0.149865 0.0655598 0.204356 
0.164274 0.0660344 0.185671 0.0291683 -0.00405554 0.0133018 0.0140958 0.0146179 -0.00321315 
0.0751077 0.0823723 -0.00570492 0.120176 0.0297779 -0.00513994 0.0748291 0.0121357 -0.00524625 
0.0595327 -0.00500564 0.0123127 0.0301387 0.204293 0.117332 0.0157702 0.0317709 0.0317351 
0.0598287 0.0297573 -0.00519653 0.0598868 0.0123077 0.0122834 0 0.133333 0.0333333 
0.164319 0.0829849 0.185707 0.18 0.0833333 0.183333 0.164827 0.0830133 0.203349 
0.0297002 0.169205 -0.00427741 0 0.0166667 0.0166667 0.0153296 0.0145161 0.0144445 
0.0150765 -0.00315874 0.0318015 0.0155368 0.0144842 0.0317733 0.0749595 0.205331 0.0295323 
0.0749503 0.187849 0.0121145 0.0314435 0.0653454 0.0480403 0.18 0.166667 0.166667 
0.031294 0.0306702 0.0827267 0 0.116667 0.0166667 0.0151841 0.117015 -0.00330279 
0 0.0333333 0.166667 0.120205 0.170226 -0.00515549 0.133622 0.152519 0.134936 
0.0750962 -0.00564286 0.135257 0.150361 0.169202 0.204291 0.120475 0.205016 0.187656 
0.105197 0.18784 0.205208 0.0750914 0.187982 0.0295648 0.0301368 0.0655491 -0.00431675 
0.0156273 0.048959 0.0143083 0.0296921 0.169205 0.204285 0 0.166667 0.0333333 
0.0150815 -0.00314167 0.168199 0 0.0166667 0.183333 0.0155442 0.0145021 0.168234 
0.18 0.0833333 0.0833333 0.0300143 0.186599 0.0132211 0.0291639 0.204068 0.013304 
0.0141162 0.185334 -0.00319161 0.0153401 0.185451 0.0144561 0.0150717 0.203158 0.0317983 
0.0155387 0.185512 0.0317728 0 0.183333 0.0166667 0 0.133333 0.166667 
0.0157124 0.151061 0.0143873 0.0157745 0.168234 0.0317411 0.0304905 0.169216 0.0132186 
0 0.166667 0.166667 0 0.0666667 0.0333333 0.0157022 0.0660078 0.0143249 
0 0.0833333 0.0166667 0.0157314 0.0830379 0.014369 0.015696 0.100011 0.0143605 
0.0152147 0.0830767 -0.00330349 0 0.116667 0.183333 0.0151903 0.117006 0.203283 
0.0749265 -0.00535527 0.0295307 0.0750739 0.0119858 0.029548 0.0749408 0.0121183 0.0121007 
0.0141154 0.185328 0.203189 0.0300182 0.186583 0.186777 0.0291606 0.204057 0.186685 
0.119839 0.135189 0.205394 0 0.166667 0.0666667 0.0156211 0.185608 0.04896 
0 0.183333 0.0833333 0.0156827 0.185633 0.0660456 0.0152001 0.203293 0.0659438 
0.16403 0.116979 0.168371 0 0.0166667 0.0833333 0.0152027 -0.00329421 0.0659403 
0.060953 0.170463 0.117567 0.0301491 0.134459 0.204296 0.0157429 0.133981 0.185644 
0.0157134 0.117006 0.185644 0.0301428 -0.0042837 0.0826871 0.0157227 0.0143267 0.083023 
0.0301284 0.0655587 0.204329 0 0.183333 0.116667 0.0157256 0.18566 0.117007 
0.0152008 0.203272 0.134081 0 0.166667 0.133333 0.0156882 0.185601 0.133981 
0.0159534 0.16833 0.134045 0.0156305 0.185569 0.151061 0.0459153 0.0124923 0.0825795 
0.0602179 -0.00544412 0.0824126 0.0309517 0.0132325 0.0827753 0.0301472 0.134481 -0.00430519 
0.0157414 0.134003 0.0143516 0.0157063 0.117026 0.0143239 0.030493 0.169198 0.186789 
0.0157103 0.151039 0.18562 0.0309394 0.169242 0.169284 0.015785 0.1682 0.168284 
0 0.183333 0.183333 0.0153435 0.185436 0.185543 0.0150748 0.203138 0.168202 
0.0155431 0.185486 0.168232 0.0157841 0.0317877 0.168303 0.0156305 0.0489631 0.185704 
0.0153363 0.014523 0.185557 0.0140972 0.0146129 0.203212 0.0291786 -0.00404972 0.186694 
0.164408 0.185533 0.151053 0.18 0.166667 0.133333 0.0314581 0.151945 0.11727 
0 0.116667 0.116667 0.0315009 0.134575 0.134578 0.149575 0.169187 0.186809 
0.164242 0.168157 0.16829 0.0296434 0.0308071 -0.00429698 0.0304312 0.0308039 0.01318 
0.0449084 0.0127387 0.0126491 0.0300001 0.0134137 0.0131937 0.12046 -0.00498589 0.187647 
0.10519 0.0121488 0.20519 0.133713 0.099998 0.0299503 0.0156954 0.0660115 0.185685 
0.0159785 0.0830019 0.168351 0 0.0666667 0.166667 0.164857 0.0830133 -0.00333763 
0.18 0.0833333 0.0166667 0.0459316 0.0825394 0.0124649 0.0313852 0.0827055 0.0306176 
0.0159869 0.0829967 0.0316411 0.0456977 0.187477 0.0476134 0.0750572 0.205622 0.0646767 
0.0601512 0.0648416 0.205431 0.0308878 0.0654769 0.186811 0 0.0333333 0.0666667 
0.0159389 0.0316463 0.066001 0.0156216 0.0143894 0.0489577 0.0156815 0.0143608 0.0660437 
0.18 0.0333333 0.133333 0.18 0.183333 0.0833333 0.164836 0.203281 0.0659161 
0.0301441 -0.00427896 0.117344 0.0157484 0.014252 0.10002 0.0595464 -0.00501521 0.187653 
0.0749458 0.0121197 0.187862 0.0748386 0.0121134 0.205221 0.0156371 0.0144352 0.151067 
0 0.0333333 0.133333 0.059899 0.0122942 0.187699 0.0598323 0.0297305 0.205208 
0.0458034 0.0650818 0.18754 0.0459237 0.0825457 0.187546 0.0751067 0.0823489 0.205723 
0.0456248 0.0476299 0.187535 0.0601973 0.0297586 0.187847 0.0309101 0.0307849 0.169333 
0.148772 0.169372 0.0654307 0.164939 0.203143 0.1682 0.18 0.183333 0.183333 
0.164474 0.185478 0.168228 0.119817 0.0297879 0.0122079 0.119956 0.0648209 -0.00537901 
0 0.0833333 0.183333 0.0152123 0.0830954 0.20331 0.0157032 0.100009 0.185606 
0.0157281 0.0830466 0.185636 0.0748367 0.187877 0.205225 0.0595594 0.205036 0.187647 
0 0.0166667 0.116667 0.015729 0.0143465 0.11702 0.0152096 -0.00325963 0.134091 
0.0156945 0.0144094 0.133991 0.105199 0.0121421 -0.00519982 0.120468 -0.00499316 0.012352 
0.120129 0.0123172 0.0123247 0.133871 0.170074 0.065062 0.133585 0.152562 0.0650382 
0.134051 0.187563 0.100001 0.104966 -0.00553666 0.0647098 0.045933 0.012487 0.117443 
0.0459353 0.012472 0.100017 0.0309587 0.0132339 0.117258 0.0602453 -0.0054529 0.117587 
0.0605896 0.0648576 0.188014 0.0605597 0.0297006 0.170353 0.0750722 0.011994 0.1704 
0.0457994 0.0301163 0.169975 0.0610289 0.0647724 0.152811 0.0607603 0.0472434 0.170402 
0.0608616 0.0648021 0.17042 0.0313264 0.0826926 0.169349 0.0315231 0.0654014 0.134608 
0 0.0833333 0.116667 0.0609638 0.0295498 0.117567 0.0314616 0.0480541 0.117282 
0.0607582 0.0119783 0.117587 0.031346 0.0480742 0.151986 0.0314246 0.0480476 0.134606 
0 0.0666667 0.133333 0.0313218 0.0306459 0.134613 0.0457455 0.0125765 0.152397 
0.0458535 0.0124836 0.134916 0.0159561 0.0316805 0.134065 0.134164 0.13491 0.187525 
0.104908 0.117648 0.205698 0.134047 0.117448 0.18755 0.119404 0.135154 0.187961 
0.18 0.116667 0.183333 0.164321 0.0999944 0.185659 0.164285 0.116959 0.185661 
0.164784 0.116924 0.203337 0.150347 0.0307758 0.2043 0.150033 0.0133979 0.186785 
0.165902 0.0146732 0.203196 0.150871 -0.00407536 0.1867 0.120143 0.187711 0.187684 
0.135108 0.187277 0.187316 0.120197 0.170258 0.205166 0.164299 0.133978 0.185694 
0.14985 0.134447 0.204328 0.149087 0.134501 0.186812 0.164345 0.151016 0.185712 
0.149569 0.0307889 0.186789 0.164302 0.048988 0.185607 0.16468 0.0145585 0.185541 
0.18 0.0166667 0.183333 0.164946 -0.0031602 0.168203 0.164482 0.014506 0.168214 
0.18 0.0333333 0.166667 0.16423 0.0318219 0.168254 0.164386 0.0144425 0.151037 
0.0749501 0.205344 0.170426 0.0749483 0.187887 0.18787 0.0456894 0.152388 0.187493 
0.0159397 0.13401 0.168326 0.0312661 0.134569 0.169332 0.0607639 0.152767 0.17038 
0.0609128 0.152809 0.152783 0.0610112 0.135206 0.152838 0.0601523 0.135168 0.205424 
0.0458526 0.134909 0.187521 0.0309684 0.117235 0.186751 0.0751461 0.117668 0.205732 
0.0459325 0.11743 0.187528 0.0460019 0.0999993 0.187547 0.0609542 0.117595 0.170487 
0.0315041 0.117273 0.151965 0.0607592 0.117593 0.188047 0.03153 0.0999824 0.151972 
0.0314167 0.151945 0.134593 0 0.133333 0.133333 0.0313131 0.169365 0.134588 
0.0313464 0.151916 0.151956 0.105081 0.187851 0.187862 0.0900149 0.187871 0.187886 
0.105073 0.205294 0.170422 0.0598096 0.170279 0.205198 0.0449266 0.187294 0.187321 
0.0601954 0.17026 0.187834 0.0599041 0.187731 0.187692 0.044928 0.187285 0.0126723 
0.0598156 0.170218 -0.00517865 0.0599071 0.187687 0.0122981 0.104901 0.0823411 0.205655 
0.104841 0.0471751 0.188046 0.0899722 0.047119 0.188101 0.120175 0.0297801 0.205139 
0.135121 0.0127016 0.187349 0.120126 0.0123269 0.187673 0.119511 0.0297028 0.170298 
0.104934 -0.00553537 0.135276 0.104735 0.064755 0.188151 0.104659 0.0294475 0.152896 
0.0900251 0.0293981 0.152981 0.0750833 0.188009 0.170406 0.0605697 0.17031 0.170331 
0.0457472 0.187452 0.15238 0.0458226 0.169915 0.169933 0.0309571 0.186782 0.117246 
0.0459393 0.187535 0.100009 0.0602456 0.205453 0.117585 0.149079 0.186876 0.082777 
0.149894 0.204354 0.0826937 0.164301 0.185676 0.083 0.061136 0.135229 0.135232 
0.119305 0.170394 0.152716 0.10458 0.170626 0.135282 0.119783 0.205429 0.117596 
0.134374 0.152377 0.187483 0.149128 0.1692 0.169285 0.11986 0.170244 0.187794 
0.134264 0.169907 0.169902 0.104955 0.18794 0.170425 0.104829 0.152833 0.188084 
0.0900293 0.152879 0.188083 0.0750554 -0.00564098 0.0646941 0.0456742 0.012558 0.0476075 
0.0458361 0.0125043 0.065084 0.150867 -0.0040644 0.0133047 0.165905 0.0146649 -0.00319165 
0.0301474 0.204291 0.0826851 0.0157498 0.185746 0.100009 0.0309623 0.186776 0.0827712 
0.0157268 0.185668 0.0830174 0.118957 0.0648033 0.152841 0.133997 0.100007 0.187576 
0.104574 0.0647127 0.170634 0.148747 0.0305653 0.134537 0.119776 -0.00543865 0.117593 
0.133866 0.0299721 0.134931 0.133612 0.0650382 0.152526 0.119306 0.0296397 0.152746 
0.148766 0.0654529 0.169365 0.14907 0.082775 0.18683 0.148884 0.0481144 0.169325 
0.164074 0.0660128 0.168309 0.149113 0.030743 0.169274 0.0459252 0.187516 0.0825708 
0.0458526 0.187511 0.0650839 0.0159476 0.168354 0.0660019 0.149915 0.204328 0.11733 
0.164274 0.185764 0.100001 0.149128 0.186833 0.117243 0.0900253 0.170619 0.152943 
0.104879 0.205522 0.135295 0.104676 0.170573 0.152897 0.104814 0.170483 0.170475 
0.164835 0.203274 0.134098 0.164333 0.185544 0.13397 0.18 0.183333 0.116667 
0.164318 0.185644 0.117007 0.148411 0.11728 0.134599 0.118831 0.135208 0.135222 
0.118964 0.152832 0.135188 0.164316 0.0830073 0.0143353 0.149923 0.0655514 -0.00437222 
0.118958 0.15286 0.0647931 0.14836 0.117311 0.0653831 0.148528 0.151998 0.0999906 
0.135118 0.187297 0.012649 0.150369 0.16921 -0.0042971 0.149586 0.169215 0.0131944 
0.150024 0.186607 0.0131996 0.029647 0.030797 0.204315 0.0449261 0.0127342 0.187347 
0.0304445 0.0308077 0.186843 0.0300153 0.0134197 0.186811 0.0609715 0.117555 0.0295658 
0.164481 0.185493 0.0317854 0.18 0.166667 0.0333333 0.164232 0.168172 0.0317302 
0.150023 0.0134082 0.0132136 0.135117 0.0126916 0.0126482 0.150349 0.030778 -0.00430954 
0.11976 0.205455 0.0824116 0.148499 0.117266 0.151979 0.14861 0.117247 0.169407 
0.18 0.133333 0.133333 0.0611594 0.135209 0.0647749 0.118828 0.135229 0.0647704 
0.0899957 0.13551 0.1 0.149091 0.134508 0.0131386 0.149886 0.134474 -0.00436105 
0.164328 0.151011 0.0143301 0.164298 0.133978 0.0143406 0.18 0.133333 0.0333333 
0.134399 0.187547 0.0476112 0.119555 0.170317 0.0296952 0.119857 0.170229 0.0122054 
0.119649 0.18793 0.0472929 0.118822 0.0647815 0.135221 0.0899918 0.0999985 0.135493 
0.0611533 0.064767 0.135212 0.150008 0.186576 0.186786 0.150849 0.204048 0.186675 
0.164676 0.185468 0.185553 0.165905 0.185384 0.20321 0.164321 0.18556 0.0660386 
0.164398 0.185529 0.0489593 0.18 0.166667 0.0666667 0.104831 0.188059 0.0471397 
0.1049 0.205552 0.0646867 0.12014 0.187701 0.0123104 0.105213 0.187819 -0.00521623 
0.120457 0.205009 0.0123368 0.0314628 0.0480342 0.0999968 0.0610294 0.0471788 0.0647776 
0.164073 0.168232 0.0659801 0.163994 0.151066 0.0488648 0.149125 0.169255 0.0307112 
0.14889 0.169308 0.0480978 0.14837 0.0653766 0.117306 0.133759 0.0299514 0.117453 
0.16407 0.0316992 0.134011 0.18 0.0666667 0.133333 0.164003 0.0489273 0.151118 
0.163949 0.0488536 0.134035 0.104959 0.187946 0.029598 0.0900226 0.18786 0.0121113 
0.105087 0.187837 0.0121417 0.105079 0.205303 0.0295601 0.164085 0.168201 0.134035 
0.133954 0.152434 0.169955 0.148535 0.134564 0.151978 0.133755 0.152503 0.152422 
0.0458022 0.169922 0.0300785 0.0309282 0.169285 0.0307265 0.0602024 0.170202 0.0121809 
0.0605678 0.170302 0.0296763 0.0899907 0.188108 0.0471143 0.0606261 0.187985 0.0648416 
0.0458163 0.0650775 0.0124753 0.0308966 0.0654652 0.0132023 0.0601703 0.0648544 -0.00541556 
0.0601472 0.135126 -0.00541218 0.0309626 0.117249 0.0132018 0.0610361 0.152796 0.0647657 
0.031501 0.151972 0.0999943 0.060774 0.170361 0.0472238 0.0608767 0.170396 0.0647898 
0.0313244 0.169343 0.0827179 0.0315168 0.134598 0.0653897 0.0314569 0.117266 0.0480265 
0 0.116667 0.0833333 0.0313401 0.151965 0.0480678 0.0314192 0.134584 0.0480278 
0 0.133333 0.0666667 0.0458459 0.134894 0.0124724 0.045706 0.152375 0.0125553 
0.031306 0.134595 0.0306297 0.0159421 0.134057 0.0316627 0 0.0833333 0.0833333 
0.0315776 0.0827003 0.0653825 0.0314791 0.0999992 0.0480024 0.031495 0.0826875 0.0480191 
0.119891 0.13518 -0.00540081 0.134017 0.152419 0.0300243 0.148724 0.134519 0.0305733 
0.16393 0.134032 0.048857 0.164033 0.117002 0.0316805 0.18 0.133333 0.0666667 
0.163902 0.0488612 0.0829903 0.105073 -0.00528927 0.170403 0.0900004 0.0121176 0.187871 
0.104912 0.0120646 0.170396 0.105064 0.0121575 0.187832 0.0459839 0.100002 0.0124231 
0.0751207 0.117655 -0.00569997 0.0607491 0.117566 0.0119963 0.0459277 0.117419 0.0124521 
0.104934 0.117659 -0.00572126 0.133735 0.117449 0.0299465 0.119167 0.135169 0.0295724 
0.13383 0.134918 0.0299687 0.0611683 0.0647831 0.0647625 0.0900178 0.0999953 0.0645085 
0.118862 0.0647628 0.0647697 0.0899814 0.0644962 0.0999764 0.133504 0.0650381 0.0650161 
0.133733 0.0299505 0.100006 0.0456314 0.0476324 0.0124869 0.0457543 0.0301115 0.0300482 
0.0601908 0.0297744 0.0121605 0.0308806 0.030766 0.0306993 0.0900026 0.0121031 0.0120985 
0.105093 -0.00529711 0.0295873 0.10507 0.0121452 0.0121574 0.163915 0.117018 0.0488419 
0.163842 0.117011 0.0659236 0.18 0.116667 0.0833333 0.18 0.0666667 0.0333333 
0.164275 0.0660357 0.0143615 0.104586 0.170645 0.0646906 0.0900573 0.152972 0.0293799 
0.104693 0.152903 0.0294153 0.104745 0.188161 0.0647338 0.18 0.0333333 0.0333333 
0.11964 0.0473168 0.0121035 0.11951 0.0296932 0.0296946 0.104913 0.0120481 0.0295927 
0.075098 0.205639 0.135267 0.0458447 0.187535 0.134908 0.0607412 0.188026 0.117593 
0.0459238 0.187525 0.11744 0.0606203 0.0120071 0.0648414 0.0609524 0.0471967 0.0471722 
0.134417 0.0476298 0.0124327 0.149095 0.0827895 0.0131457 0.18 0.0166667 0.0833333 
0.164824 -0.00326092 0.0659166 0.11982 0.0297951 0.18779 0.134408 0.0476237 0.187541 
0.11992 0.0648275 0.205375 0.119622 0.047321 0.187892 0.18 0.0333333 0.0666667 
0.164376 0.0144812 0.0489661 0.164305 0.0144426 0.0660392 0.148691 0.0306037 0.0827451 
0.148423 0.0654233 0.0653813 0.163845 0.0659362 0.065971 0.148525 0.0654137 0.0480235 
0.148748 0.0654347 0.0306371 0.163908 0.100009 0.04882 0.164821 -0.00329248 0.134075 
0.18 0.0166667 0.116667 0.164314 0.0143938 0.133959 0.0607772 0.0472415 0.0295863 
0.0605413 0.0296875 0.0296423 0.0606097 0.0648794 0.0120016 0.11928 0.0295937 0.047273 
0.119147 0.0295626 0.0648468 0.133967 0.0299845 0.0475663 0.119849 -0.00542965 0.0824037 
0.104647 0.0294216 0.0470881 0.0899725 0.0293687 0.0470327 0.104616 0.0646961 0.0293398 
0.104755 0.0647425 0.0118401 0.0899827 0.0471097 0.0119333 0.104838 0.0471583 0.011951 
0.104919 0.0823397 -0.00566049 0.163924 0.0488244 0.117008 0.163929 0.0488186 0.100003 
0.18 0.0833333 0.116667 0.163843 0.0659131 0.117007 0.149883 -0.00434878 0.0826638 
0.164279 0.0143616 0.0830009 0.149021 0.0131247 0.0827441 0.164287 0.0143129 0.116985 
0.164238 0.014258 0.0999892 0.149032 0.0130952 0.117236 0.149861 -0.00436651 0.11733 
0.164068 0.066009 0.0317159 0.148859 0.0481297 0.0306608 0.18 0.116667 0.0166667 
0.164319 0.100006 0.014363 0.164805 0.116935 -0.00332452 0.16428 0.116959 0.0143779 
0.163935 0.0488962 0.0659822 0.163984 0.0489028 0.0488885 0.16405 0.031746 0.0659954 
0.18 0.0666667 0.0666667 0.149559 0.0308 0.0131985 0.149091 0.0307687 0.0307059 
0.164307 0.0489812 0.014401 0.164217 0.0318296 0.031747 0.18 0.0166667 0.0166667 
0.164943 -0.00313904 0.0318018 0.164673 0.014566 0.0144626 0.164476 0.014533 0.0317854 

CELLS 236 4956
20 69 93 88 68 814 815 925 924 808 809 801 800 805 804 803 802 956 957 1317 961 
20 28 47 45 44 422 423 549 548 420 421 418 419 541 540 539 538 1160 1418 958 1119 
20 93 69 88 94 815 814 808 809 925 924 948 949 816 817 926 927 959 1323 960 961 
20 43 49 86 85 522 523 600 601 536 537 534 535 598 599 909 908 1345 967 1366 1279 
20 5 1 26 6 109 108 114 115 150 151 142 143 110 111 161 160 962 1111 980 991 
20 82 86 81 63 892 893 891 890 889 888 749 748 751 750 747 746 972 1290 1198 963 
20 7 11 48 6 176 177 240 241 192 193 157 156 159 158 173 172 964 1103 994 1409 
20 37 17 54 38 327 326 334 335 480 481 472 473 328 329 485 484 1277 1254 965 1292 
20 55 13 12 51 285 284 245 244 263 262 625 624 282 283 258 259 1211 1221 1212 1087 
20 90 86 49 85 915 914 601 600 603 602 911 910 909 908 598 599 966 967 1306 1330 
20 37 52 50 36 476 477 607 606 474 475 467 466 471 470 469 468 968 969 1237 993 
20 91 92 65 86 940 941 779 778 777 776 917 916 919 918 772 773 970 1184 1047 1193 
20 82 65 86 63 771 770 772 773 892 893 749 748 745 744 751 750 971 1288 972 984 
20 25 5 0 26 149 148 101 100 103 102 388 389 150 151 104 105 1093 989 973 974 
20 46 32 6 48 441 440 165 164 171 170 554 555 442 443 172 173 975 1102 1483 1386 
20 57 46 58 62 557 556 558 559 668 669 670 671 560 561 678 679 976 1135 1327 1149 
20 26 41 25 46 400 401 393 392 389 388 406 407 502 503 394 395 1037 977 982 978 
20 22 38 39 17 376 377 482 483 378 379 323 322 329 328 331 330 1276 1253 1058 979 
20 55 49 12 54 591 590 255 254 263 262 649 648 588 589 260 261 1298 1259 1050 1213 
20 26 5 6 30 151 150 142 143 161 160 398 399 152 153 162 163 1091 1008 1438 980 
20 25 30 26 46 390 391 399 398 388 389 394 395 432 433 406 407 981 1437 982 1092 
20 11 15 16 34 230 231 290 291 232 233 238 239 298 299 308 309 1068 1023 1405 983 
20 82 65 87 86 771 770 774 775 894 895 892 893 772 773 913 912 984 1183 985 986 
20 15 34 36 37 298 299 454 455 300 301 302 303 456 457 466 467 1025 1235 1015 987 
20 43 85 64 48 534 535 761 760 530 531 520 521 583 582 579 578 1431 1096 1490 1433 
20 1 5 26 0 108 109 150 151 114 115 99 98 101 100 105 104 988 989 990 991 
20 52 37 50 53 477 476 474 475 607 606 638 639 478 479 608 609 992 1006 1373 993 
20 60 80 59 86 722 723 705 704 699 698 728 729 886 887 708 709 1371 1495 1282 1504 
20 48 7 6 43 193 192 157 156 173 172 521 520 188 189 168 169 1361 996 1460 994 
20 92 71 96 91 833 832 836 837 944 945 941 940 830 831 943 942 1089 1083 995 1134 
20 26 7 43 6 183 182 188 189 404 405 161 160 157 156 169 168 1110 996 1272 1064 
20 6 26 46 42 160 161 406 407 170 171 166 167 402 403 511 510 1271 1036 1482 1436 
20 32 15 10 11 297 296 225 224 227 226 237 236 231 230 222 223 1069 997 1031 998 
20 90 71 70 49 829 828 821 820 823 822 603 602 597 596 595 594 1379 1260 1001 1297 
20 28 9 8 3 215 214 195 194 199 198 135 134 133 132 131 130 1013 999 1121 1078 
20 68 69 50 66 800 801 619 618 617 616 781 780 783 782 614 615 1314 1343 1000 1357 
20 49 90 54 70 602 603 659 658 588 589 594 595 823 822 652 653 1001 1152 1261 1308 
20 28 43 7 44 416 417 189 188 187 186 418 419 518 519 190 191 1002 1170 1176 1154 
20 92 72 71 67 841 840 827 826 833 832 799 798 795 794 793 792 1003 1191 1088 1348 
20 71 56 51 72 665 664 627 626 633 632 826 827 666 667 634 635 1004 1005 1190 1228 
20 50 37 16 53 475 474 311 310 313 312 608 609 478 479 314 315 1006 1105 1383 1380 
20 5 6 30 32 142 143 162 163 152 153 154 155 164 165 430 431 1028 1387 1007 1008 
20 39 19 35 40 359 358 356 357 461 460 486 487 360 361 462 463 1039 1009 1232 1070 
20 12 11 50 48 229 228 242 243 256 257 252 253 240 241 575 574 1408 1423 1322 1397 
20 21 15 37 16 295 294 302 303 370 371 307 306 290 291 311 310 1010 1024 1043 1020 
20 28 4 9 3 139 138 136 137 215 214 135 134 127 126 133 132 1011 1012 1013 1080 
20 80 84 58 85 882 883 695 694 693 692 884 885 900 901 696 697 1014 1474 1416 1512 
20 15 36 20 37 300 301 365 364 292 293 302 303 466 467 366 367 1015 1016 1018 1017 
20 15 20 21 37 292 293 362 363 294 295 302 303 366 367 370 371 1018 1019 1020 1021 
20 19 18 35 13 339 338 342 343 356 357 273 272 271 270 277 276 1022 1209 1052 1071 
20 39 51 35 18 488 489 465 464 461 460 345 344 347 346 343 342 1252 1208 1072 1233 
20 15 34 37 16 298 299 456 457 302 303 290 291 309 308 311 310 1023 1381 1024 1025 
20 19 23 39 18 350 351 382 383 358 359 339 338 341 340 345 344 1026 1063 1073 1077 
20 5 6 32 11 142 143 164 165 154 155 146 147 158 159 237 236 1027 1104 1030 1028 
20 10 5 32 11 145 144 154 155 226 227 222 223 146 147 237 236 1029 1030 1031 1032 
20 19 33 14 13 354 355 289 288 287 286 273 272 275 274 267 266 1053 1139 1033 1034 
20 26 41 46 42 400 401 502 503 406 407 402 403 500 501 511 510 1035 1439 1036 1037 
20 24 19 39 40 353 352 358 359 384 385 386 387 360 361 486 487 1038 1039 1040 1075 
20 51 91 67 65 636 637 797 796 630 631 628 629 777 776 769 768 1178 1195 1041 1263 
20 17 21 37 16 320 321 370 371 326 327 305 304 307 306 311 310 1042 1043 1294 1045 
20 37 22 21 17 375 374 369 368 371 370 327 326 323 322 321 320 1278 1044 1045 1046 
20 49 91 65 86 604 605 777 776 592 593 600 601 917 916 772 773 1331 1047 1280 1180 
20 7 1 26 2 113 112 114 115 182 183 119 118 106 107 121 120 1048 1049 1055 1112 
20 17 55 12 54 336 337 263 262 247 246 334 335 649 648 260 261 1457 1050 1392 1085 
20 19 33 13 35 354 355 275 274 273 272 356 357 446 447 276 277 1051 1216 1052 1053 
20 7 2 26 27 119 118 120 121 182 183 184 185 122 123 396 397 1117 1054 1066 1055 
20 33 9 8 31 221 220 195 194 203 202 435 434 218 219 200 201 1056 1079 1108 1097 
20 55 18 39 17 349 348 344 345 493 492 337 336 319 318 331 330 1226 1062 1456 1251 
20 23 22 39 17 373 372 378 379 382 383 325 324 323 322 331 330 1057 1058 1061 1059 
20 18 23 39 17 340 341 382 383 344 345 319 318 325 324 331 330 1060 1061 1062 1063 
20 26 7 27 43 183 182 184 185 396 397 404 405 188 189 410 411 1064 1155 1065 1066 
20 32 15 11 34 297 296 231 230 237 236 438 439 298 299 238 239 1067 1068 1390 1069 
20 39 19 18 35 359 358 339 338 345 344 461 460 356 357 342 343 1070 1071 1072 1073 
20 23 19 39 24 351 350 358 359 382 383 380 381 352 353 385 384 1074 1075 1076 1077 
20 28 9 31 8 215 214 218 219 414 415 199 198 195 194 201 200 1078 1079 1130 1320 
20 28 4 29 9 139 138 140 141 412 413 215 214 136 137 217 216 1080 1081 1321 1082 
20 51 91 49 71 636 637 605 604 587 586 632 633 831 830 596 597 1266 1377 1268 1181 
20 96 71 90 91 837 836 828 829 939 938 943 942 830 831 932 933 1083 1376 1084 1303 
20 13 55 12 17 284 285 263 262 245 244 268 269 337 336 246 247 1224 1085 1086 1087 
20 92 71 91 67 833 832 830 831 941 940 799 798 793 792 797 796 1088 1264 1196 1089 
20 25 5 26 30 149 148 150 151 388 389 390 391 152 153 398 399 1090 1091 1092 1093 
20 47 61 45 60 568 569 553 552 549 548 566 567 711 710 550 551 1243 1094 1420 1095 
20 33 49 8 13 450 451 209 208 203 202 275 274 281 280 196 197 1219 1165 1098 1126 
20 85 90 64 48 910 911 767 766 761 760 583 582 585 584 579 578 1312 1426 1096 1443 
20 13 9 8 33 211 210 195 194 197 196 274 275 220 221 202 203 1140 1097 1098 1099 
20 78 64 84 83 755 754 758 759 874 875 872 873 756 757 897 896 1100 1509 1101 1309 
20 6 32 11 48 164 165 237 236 158 159 172 173 442 443 240 241 1102 1421 1103 1104 
20 16 37 54 53 310 311 480 481 316 317 314 315 478 479 645 644 1105 1106 1385 1293 
20 47 33 8 31 449 448 203 202 207 206 437 436 435 434 200 201 1107 1108 1128 1125 
20 1 7 26 6 112 113 182 183 114 115 110 111 157 156 161 160 1109 1110 1111 1112 
20 76 80 60 81 862 863 723 722 719 718 864 865 880 881 724 725 1113 1368 1205 1480 
20 90 94 69 95 934 935 817 816 813 812 936 937 950 951 818 819 1114 1115 1258 1352 
20 90 50 70 66 623 622 620 621 823 822 791 790 614 615 785 784 1411 1342 1131 1150 
20 7 2 27 28 119 118 122 123 184 185 186 187 124 125 408 409 1144 1116 1156 1117 
20 29 28 47 45 413 412 422 423 428 429 426 427 420 421 549 548 1118 1119 1120 1123 
20 3 7 8 28 128 129 174 175 130 131 134 135 186 187 198 199 1146 1177 1121 1122 
20 29 28 31 47 413 412 414 415 424 425 428 429 422 423 436 437 1123 1129 1124 1319 
20 47 33 49 8 449 448 450 451 564 565 207 206 203 202 209 208 1125 1126 1158 1127 
20 28 8 31 47 199 198 200 201 414 415 422 423 206 207 436 437 1161 1128 1129 1130 
20 90 70 69 66 823 822 807 806 813 812 791 790 785 784 783 782 1131 1341 1365 1256 
20 71 97 92 96 838 839 947 946 832 833 836 837 955 954 944 945 1132 1133 1134 1350 
20 58 46 64 62 559 558 562 563 680 681 678 679 560 561 737 736 1135 1136 1461 1452 
20 13 9 33 14 211 210 220 221 274 275 266 267 212 213 289 288 1137 1138 1139 1140 
20 39 56 40 51 494 495 499 498 486 487 488 489 627 626 496 497 1207 1141 1234 1142 
20 3 7 28 2 128 129 186 187 134 135 117 116 119 118 125 124 1143 1144 1145 1146 
20 46 57 58 41 556 557 668 669 558 559 503 502 505 504 507 506 1147 1148 1441 1149 
20 90 50 48 70 623 622 575 574 585 584 823 822 620 621 580 581 1150 1449 1151 1427 
20 90 54 70 48 659 658 652 653 823 822 585 584 577 576 581 580 1311 1447 1151 1152 
20 58 43 64 42 525 524 530 531 680 681 515 514 509 508 517 516 1153 1488 1453 1484 
20 28 43 27 7 416 417 411 410 409 408 187 186 189 188 185 184 1154 1155 1156 1157 
20 8 49 47 44 208 209 565 564 206 207 204 205 543 542 541 540 1163 1240 1159 1158 
20 28 8 47 44 199 198 206 207 422 423 418 419 204 205 541 540 1175 1159 1160 1161 
20 43 49 12 44 522 523 255 254 249 248 518 519 543 542 250 251 1248 1162 1168 1347 
20 12 49 13 44 254 255 281 280 244 245 250 251 543 542 278 279 1162 1164 1166 1223 
20 49 8 13 44 209 208 196 197 281 280 543 542 204 205 278 279 1163 1171 1164 1165 
20 12 13 7 44 244 245 181 180 179 178 250 251 278 279 190 191 1166 1172 1169 1167 
20 43 12 7 44 249 248 179 178 189 188 518 519 250 251 190 191 1168 1169 1170 1360 
20 13 8 7 44 197 196 175 174 181 180 278 279 204 205 190 191 1171 1174 1172 1173 
20 7 8 28 44 174 175 198 199 186 187 190 191 204 205 418 419 1174 1175 1176 1177 
20 91 51 49 65 637 636 587 586 605 604 777 776 628 629 592 593 1178 1179 1180 1181 
20 92 87 65 86 921 920 775 774 779 778 919 918 913 912 772 773 1182 1183 1184 1185 
20 63 61 60 82 731 730 711 710 713 712 748 749 734 735 726 727 1186 1187 1197 1242 
20 60 61 77 82 710 711 732 733 720 721 726 727 734 735 868 869 1187 1188 1199 1189 
20 67 51 72 71 631 630 634 635 794 795 792 793 632 633 827 826 1265 1190 1191 1192 
20 91 92 67 65 940 941 799 798 797 796 777 776 779 778 769 768 1193 1194 1195 1196 
20 63 60 81 82 713 712 724 725 746 747 748 749 726 727 888 889 1197 1204 1198 1291 
20 76 60 77 82 719 718 720 721 860 861 866 867 726 727 868 869 1202 1199 1200 1201 
20 60 76 81 82 718 719 864 865 724 725 726 727 866 867 888 889 1202 1203 1204 1205 
20 39 56 51 55 494 495 627 626 488 489 492 493 661 660 624 625 1206 1229 1249 1207 
20 18 35 13 51 342 343 277 276 271 270 346 347 464 465 282 283 1208 1215 1210 1209 
20 55 13 51 18 285 284 282 283 625 624 349 348 270 271 347 346 1227 1210 1250 1211 
20 49 55 12 51 590 591 263 262 255 254 586 587 625 624 258 259 1269 1212 1220 1213 
20 35 33 13 51 447 446 275 274 277 276 464 465 452 453 282 283 1214 1218 1215 1216 
20 33 49 13 51 450 451 281 280 275 274 452 453 586 587 282 283 1217 1222 1218 1219 
20 49 12 13 51 255 254 244 245 281 280 586 587 258 259 282 283 1220 1221 1222 1223 
20 55 13 18 17 285 284 270 271 349 348 337 336 268 269 319 318 1224 1225 1226 1227 
20 71 56 55 51 665 664 661 660 663 662 633 632 627 626 625 624 1228 1229 1267 1230 
20 51 40 39 35 497 496 487 486 489 488 465 464 463 462 461 460 1231 1232 1233 1234 
20 37 36 50 34 467 466 468 469 474 475 457 456 455 454 459 458 1235 1236 1382 1237 
20 47 60 44 65 566 567 545 544 541 540 572 573 714 715 546 547 1468 1244 1239 1419 
20 49 47 44 65 565 564 541 540 543 542 592 593 572 573 546 547 1238 1239 1246 1240 
20 47 61 60 63 568 569 711 710 566 567 570 571 730 731 712 713 1241 1242 1465 1243 
20 43 44 60 65 518 519 544 545 528 529 532 533 546 547 714 715 1247 1244 1286 1245 
20 43 49 44 65 522 523 543 542 518 519 532 533 592 593 546 547 1281 1246 1247 1248 
20 39 51 18 55 488 489 347 346 345 344 492 493 624 625 348 349 1249 1250 1251 1252 
20 54 39 38 17 491 490 483 482 485 484 335 334 331 330 329 328 1458 1253 1254 1255 
20 90 70 95 69 823 822 824 825 936 937 813 812 807 806 819 818 1256 1257 1258 1296 
20 49 12 54 85 255 254 260 261 588 589 598 599 264 265 656 657 1346 1335 1307 1259 
20 71 49 54 70 597 596 588 589 655 654 821 820 594 595 652 653 1260 1261 1262 1300 
20 51 91 71 67 636 637 831 830 632 633 630 631 797 796 793 792 1263 1264 1265 1266 
20 49 55 51 71 590 591 625 624 586 587 596 597 662 663 632 633 1301 1267 1268 1269 
20 6 43 26 42 168 169 405 404 160 161 166 167 509 508 402 403 1459 1270 1271 1272 
20 73 58 78 57 683 682 688 689 846 847 673 672 669 668 675 674 1273 1326 1274 1522 
20 37 22 17 38 375 374 323 322 327 326 472 473 376 377 328 329 1275 1276 1277 1278 
20 43 49 65 86 522 523 592 593 532 533 536 537 600 601 772 773 1279 1280 1285 1281 
20 59 43 60 86 527 526 528 529 698 699 708 709 536 537 728 729 1367 1284 1282 1283 
20 60 43 65 86 529 528 532 533 714 715 728 729 536 537 772 773 1284 1285 1287 1286 
20 63 60 65 86 713 712 714 715 744 745 750 751 728 729 772 773 1289 1287 1288 1466 
20 60 63 81 86 712 713 746 747 724 725 728 729 750 751 890 891 1289 1290 1370 1291 
20 37 17 16 54 327 326 305 304 311 310 480 481 334 335 316 317 1292 1395 1293 1294 
20 71 95 90 70 834 835 937 936 828 829 821 820 825 824 823 822 1295 1296 1297 1305 
20 49 55 71 54 590 591 662 663 596 597 588 589 649 648 655 654 1298 1299 1300 1301 
20 95 71 90 96 835 834 828 829 937 936 952 953 836 837 938 939 1302 1303 1304 1305 
20 88 69 66 89 809 808 783 782 787 786 922 923 810 811 788 789 1325 1364 1338 1316 
20 90 49 54 85 603 602 588 589 659 658 911 910 598 599 656 657 1306 1307 1313 1308 
20 78 64 62 84 755 754 737 736 739 738 874 875 758 759 742 743 1309 1462 1446 1310 
20 90 66 89 64 791 790 788 789 929 928 767 766 753 752 765 764 1412 1336 1413 1363 
20 54 90 85 48 658 659 911 910 656 657 577 576 585 584 583 582 1311 1312 1334 1313 
20 69 68 88 66 801 800 802 803 808 809 783 782 781 780 787 786 1314 1315 1316 1317 
20 9 29 28 31 216 217 413 412 214 215 218 219 424 425 414 415 1318 1319 1320 1321 
20 54 12 50 48 261 260 256 257 611 610 577 576 252 253 575 574 1333 1322 1448 1391 
20 88 69 89 94 809 808 810 811 922 923 926 927 816 817 930 931 1323 1353 1324 1325 
20 78 58 62 57 689 688 678 679 739 738 675 674 669 668 671 670 1326 1327 1328 1516 
20 69 54 50 70 651 650 611 610 619 618 806 807 652 653 620 621 1329 1450 1344 1355 
20 90 86 91 49 915 914 916 917 932 933 603 602 601 600 605 604 1330 1331 1378 1332 
20 12 54 85 48 260 261 656 657 264 265 252 253 577 576 583 582 1333 1334 1430 1335 
20 89 66 88 64 789 788 786 787 923 922 765 764 753 752 763 762 1336 1337 1339 1338 
20 88 84 89 64 903 902 904 905 922 923 763 762 759 758 765 764 1511 1414 1339 1340 
20 69 70 50 66 806 807 621 620 619 618 783 782 785 784 614 615 1341 1342 1343 1344 
20 49 43 12 85 523 522 249 248 255 254 598 599 534 535 264 265 1345 1432 1346 1347 
20 92 72 97 71 841 840 842 843 946 947 833 832 827 826 839 838 1348 1349 1350 1351 
20 90 94 89 69 934 935 931 930 929 928 813 812 817 816 811 810 1352 1353 1362 1354 
20 69 54 53 50 651 650 645 644 647 646 619 618 611 610 609 608 1355 1384 1372 1356 
20 68 69 52 50 800 801 643 642 641 640 617 616 619 618 607 606 1357 1374 1358 1359 
20 48 7 43 12 193 192 188 189 521 520 253 252 178 179 249 248 1407 1360 1429 1361 
20 69 90 66 89 812 813 791 790 783 782 810 811 929 928 788 789 1362 1363 1364 1365 
20 59 43 86 85 527 526 536 537 708 709 706 707 534 535 909 908 1434 1366 1498 1367 
20 60 80 86 81 722 723 886 887 728 729 724 725 880 881 891 890 1368 1369 1370 1371 
20 69 53 52 50 647 646 639 638 643 642 619 618 609 608 607 606 1372 1373 1374 1375 
20 90 71 49 91 829 828 597 596 603 602 932 933 830 831 604 605 1376 1377 1378 1379 
20 50 37 34 16 475 474 457 456 459 458 313 312 311 310 309 308 1380 1381 1403 1382 
20 54 16 53 50 317 316 314 315 645 644 611 610 312 313 609 608 1393 1383 1384 1385 
20 46 32 30 6 441 440 431 430 433 432 171 170 165 164 163 162 1386 1387 1435 1388 
20 32 34 11 50 438 439 239 238 237 236 444 445 458 459 242 243 1389 1402 1424 1390 
20 12 17 54 50 246 247 334 335 260 261 256 257 332 333 611 610 1396 1394 1391 1392 
20 17 16 54 50 305 304 316 317 334 335 332 333 312 313 611 610 1399 1393 1394 1395 
20 11 17 12 50 234 235 247 246 228 229 242 243 332 333 256 257 1400 1396 1397 1398 
20 11 16 17 50 232 233 304 305 234 235 242 243 312 313 332 333 1404 1399 1400 1401 
20 11 34 16 50 238 239 309 308 232 233 242 243 458 459 312 313 1402 1403 1404 1405 
20 11 7 48 12 177 176 192 193 240 241 228 229 178 179 253 252 1406 1407 1408 1409 
20 64 50 90 66 613 612 622 623 766 767 752 753 614 615 791 790 1410 1411 1412 1428 
20 90 89 84 64 929 928 905 904 907 906 767 766 765 764 759 758 1413 1414 1442 1415 
20 85 59 58 80 707 706 677 676 697 696 885 884 704 705 692 693 1496 1501 1416 1472 
20 60 45 47 44 551 550 548 549 567 566 545 544 539 538 541 540 1417 1418 1419 1420 
20 11 32 50 48 236 237 444 445 242 243 240 241 442 443 575 574 1421 1422 1423 1424 
20 50 64 90 48 612 613 766 767 622 623 575 574 579 578 585 584 1425 1426 1427 1428 
20 43 12 85 48 249 248 264 265 534 535 520 521 252 253 583 582 1429 1430 1431 1432 
20 59 43 85 64 527 526 534 535 706 707 700 701 530 531 761 760 1485 1433 1473 1434 
20 30 6 26 46 163 162 160 161 399 398 432 433 170 171 406 407 1435 1436 1437 1438 
20 46 41 58 42 503 502 506 507 558 559 511 510 500 501 515 514 1439 1440 1454 1441 
20 90 84 85 64 907 906 900 901 911 910 767 766 759 758 761 760 1442 1477 1443 1444 
20 84 62 78 79 743 742 738 739 875 874 879 878 740 741 870 871 1506 1518 1445 1446 
20 70 54 50 48 653 652 611 610 621 620 581 580 577 576 575 574 1447 1448 1449 1450 
20 78 74 79 58 851 850 852 853 870 871 689 688 685 684 691 690 1523 1470 1519 1451 
20 58 46 42 64 559 558 511 510 515 514 680 681 562 563 516 517 1452 1493 1453 1454 
20 54 39 17 55 491 490 331 330 335 334 648 649 492 493 336 337 1455 1456 1457 1458 
20 43 6 48 42 169 168 172 173 520 521 509 508 166 167 513 512 1459 1481 1489 1460 
20 84 64 62 58 759 758 737 736 743 742 695 694 681 680 679 678 1476 1461 1507 1462 
20 58 80 75 74 692 693 859 858 686 687 684 685 855 854 849 848 1471 1463 1464 1500 
20 47 60 65 63 566 567 714 715 572 573 570 571 712 713 745 744 1465 1466 1467 1468 
20 58 80 74 79 692 693 855 854 684 685 690 691 877 876 852 853 1514 1469 1470 1471 
20 85 59 64 58 707 706 700 701 761 760 697 696 677 676 681 680 1472 1486 1475 1473 
20 84 85 64 58 900 901 761 760 759 758 695 694 697 696 681 680 1474 1475 1476 1477 
20 60 75 80 76 716 717 858 859 722 723 718 719 856 857 863 862 1478 1479 1480 1502 
20 48 6 46 42 173 172 170 171 555 554 513 512 166 167 511 510 1481 1482 1492 1483 
20 58 43 59 64 525 524 526 527 676 677 680 681 530 531 700 701 1484 1485 1486 1487 
20 64 43 48 42 531 530 520 521 579 578 517 516 509 508 513 512 1488 1489 1491 1490 
20 64 48 46 42 579 578 555 554 563 562 517 516 513 512 511 510 1491 1492 1493 1494 
20 86 59 85 80 709 708 706 707 909 908 887 886 704 705 885 884 1495 1496 1497 1498 
20 59 58 80 75 677 676 692 693 704 705 702 703 686 687 859 858 1499 1500 1503 1501 
20 60 75 59 80 716 717 703 702 699 698 722 723 858 859 704 705 1502 1503 1504 1505 
20 62 84 58 79 742 743 695 694 679 678 740 741 879 878 690 691 1506 1513 1517 1507 
20 88 84 64 83 903 902 759 758 763 762 899 898 897 896 756 757 1508 1509 1510 1511 
20 80 84 79 58 882 883 879 878 877 876 693 692 695 694 691 690 1512 1513 1514 1515 
20 78 58 79 62 689 688 690 691 870 871 739 738 678 679 741 740 1516 1517 1518 1519 
20 78 74 58 73 851 850 685 684 689 688 847 846 845 844 682 683 1520 1521 1522 1523 

CELL_TYPES 236
-1
-1
-1
-1
-1
-1
-1
-1
-1
-1
-1
-1
-1
-1
-1
-1
-1
-1
-1
-1
-1
-1
-1
-1
-1
-1
-1
-1
-1
-1
-1
-1
-1
-1
-1
-1
-1
-1
-1
-1
-1
-1
-1
-1
-1
-1
-1
-1
-1
-1
-1
-1
-1
-1
-1
-1
-1
-1
-1
-1
-1
-1
-1
-1
-1
-1
-1
-1
-1
-1
-1
-1
-1
-1
-1
-1
-1
-1
-1
-1
-1
-1
-1
-1
-1
-1
-1
-1
-1
-1
-1
-1
-1
-1
-1
-1
-1
-1
-1
-1
-1
-1
-1
-1
-1
-1
-1
-1
-1
-1
-1
-1
-1
-1
-1
-1
-1
-1
-1
-1
-1
-1
-1
-1
-1
-1
-1
-1
-1
-1
-1
-1
-1
-1
-1
-1
-1
-1
-1
-1
-1
-1
-1
-1
-1
-1
-1
-1
-1
-1
-1
-1
-1
-1
-1
-1
-1
-1
-1
-1
-1
-1
-1
-1
-1
-1
-1
-1
-1
-1
-1
-1
-1
-1
-1
-1
-1
-1
-1
-1
-1
-1
-1
-1
-1
-1
-1
-1
-1
-1
-1
-1
-1
-1
-1
-1
-1
-1
-1
-1
-1
-1
-1
-1
-1
-1
-1
-1
-1
-1
-1
-1
-1
-1
-1
-1
-1
-1
-1
-1
-1
-1
-1
-1
-1
-1
-1
-1
-1
-1
-1
-1
-1
-1
-1
-1

POINT_DATA 1524
VECTORS displacement float
0 0 0
0 0 0
0 0 0
0 0 0
0 0 0
0 0 0
0 0 0
0 0 0
0 0 0
0 0 0
0 0 0
0 0 0
0 0 0
0 0 0
0 0 0
0 0 0
0 0 0
0 0 0
0 0 0
0 0 0
0 0 0
0 0 0
0 0 0
0 0 0
0 0 0
-0.006029 -0.0045342 -0.00478004
-0.00496823 -0.00490612 -0.00239496
-0.00470691 -0.00493893 9.93175e-06
-0.00496119 -0.00491589 0.00239506
-0.00601136 -0.00455212 0.00476346
-0.00498332 -0.002375 -0.00493304
-0.00499348 -0.00237968 0.0049531
-0.00468033 1.20393e-05 -0.00509292
-0.00466091 2.18483e-05 0.00506211
-0.00498139 0.00236318 -0.00489963
-0.00499675 0.00237775 0.00492811
-0.00600454 0.00451982 -0.00476935
-0.00497594 0.00492791 -0.00240736
-0.00470233 0.00494868 2.65322e-06
-0.00496829 0.00493283 0.00239067
-0.00601048 0.00455714 0.00474387
-0.00996879 -0.0052271 -0.00523905
-0.0099838 -0.00544443 -0.00292787
-0.0100197 -0.00588446 -5.08988e-06
-0.0100731 -0.00549745 0.00288628
-0.00997035 -0.00524263 0.00519814
-0.00993766 -0.00294007 -0.00537327
-0.00994093 -0.00294044 0.00538909
-0.0100259 2.17523e-05 -0.00595577
-0.00996546 -2.47614e-05 0.00591124
-0.0101309 0.00290946 -0.00542797
-0.010142 0.00285997 0.00537388
-0.00998371 0.00518644 -0.0052385
-0.00999821 0.00540862 -0.00295005
-0.00995778 0.0059091 -2.05364e-06
-0.0100318 0.00549321 0.00291501
-0.00996903 0.00520656 0.00524337
-0.0139911 -0.0045382 -0.00476406
-0.0149509 -0.00503108 -0.0023744
-0.0153156 -0.00512772 1.1439e-06
-0.0150337 -0.00498173 0.00240983
-0.0139989 -0.00453527 0.00475956
-0.0148872 -0.00237356 -0.00502769
-0.0149013 -0.00236664 0.00499277
-0.0153999 3.08967e-05 -0.0051604
-0.0154076 4.96003e-05 0.00511948
-0.0149943 0.00238782 -0.00492728
-0.0150136 0.0023885 0.00490745
-0.0139677 0.00454329 -0.00476426
-0.0149212 0.00501333 -0.00241968
-0.0153368 0.00504395 2.60556e-05
-0.0150122 0.00507946 0.00234141
-0.0139639 0.00456267 0.00474172
-0.02 0 0
-0.02 0 0
-0.02 0 0
-0.02 0 0
-0.02 0 0
-0.02 0 0
-0.02 0 0
-0.02 0 0
-0.02 0 0
-0.02 0 0
-0.02 0 0
-0.02 0 0
-0.02 0 0
-0.02 0 0
-0.02 0 0
-0.02 0 0
-0.02 0 0
-0.02 0 0
-0.02 0 0
-0.02 0 0
-0.02 0 0
-0.02 0 0
-0.02 0 0
-0.02 0 0
-0.02 0 0
0 0 0
0 0 0
0 0 0
0 0 0
-0.00327951 -0.00263663 -0.0034347
-0.00496425 -0.00396658 -0.00401442
-0.00179803 -0.00306405 -0.00221878
-0.00385626 -0.00398212 -0.00263194
0 0 0
0 0 0
0 0 0
0 0 0
0 0 0
0 0 0
0 0 0
0 0 0
-0.00143236 -0.00318085 -0.00108533
-0.00342574 -0.00418569 -0.00182949
0 0 0
0 0 0
0 0 0
0 0 0
-0.00142133 -0.00328264 -0.00039919
-0.00332592 -0.00415892 -0.00118917
-0.00130669 -0.00313172 2.18729e-05
-0.00306454 -0.00429219 1.78422e-05
-0.00141874 -0.00326371 0.000439759
-0.00332634 -0.00414737 0.0012138
0 0 0
0 0 0
0 0 0
0 0 0
0 0 0
0 0 0
0 0 0
0 0 0
-0.00142463 -0.00314479 0.00109027
-0.00342333 -0.00416252 0.00184835
0 0 0
0 0 0
-0.00179244 -0.00305645 0.00221258
-0.00384754 -0.00396843 0.00263681
-0.00327577 -0.00263815 0.00342403
-0.00495436 -0.00397083 0.00400538
0 0 0
0 0 0
0 0 0
0 0 0
0 0 0
0 0 0
-0.00215324 -0.00131088 -0.00314141
-0.00423298 -0.00326548 -0.00412632
-0.00106382 -0.00155686 -0.00225354
-0.00286767 -0.00330435 -0.00260118
-0.00146867 -0.000957402 -0.00309974
-0.00325717 -0.00176468 -0.00435595
-0.00136302 -0.000449153 -0.003235
-0.0032124 -0.00054329 -0.0042941
0 0 0
0 0 0
0 0 0
0 0 0
-0.000803434 -0.00165427 -0.00106126
-0.00254767 -0.00338848 -0.00181659
-0.000864469 -0.00110567 -0.00165991
-0.00262327 -0.00183509 -0.00345433
-0.000715681 -0.000685696 -0.00169502
-0.00233089 -0.000586948 -0.00346798
-0.00229283 -0.00259727 -0.00189764
-0.00618993 -0.00458896 -0.00273427
-0.00209799 -0.00265771 -0.00122764
-0.00597304 -0.00469441 -0.000908761
-0.00222428 -0.00189852 -0.0026747
-0.00620704 -0.00268917 -0.00461881
-0.00207098 -0.00128187 -0.0026791
-0.00598939 -0.000878533 -0.004692
0 0 0
0 0 0
0 0 0
0 0 0
0 0 0
0 0 0
0 0 0
0 0 0
-0.000712359 -0.00168458 -0.000307263
-0.00239863 -0.00345281 -0.0012061
-0.000711866 -0.00171341 2.4628e-05
-0.00240287 -0.00346014 1.57053e-05
-0.000690868 -0.00168179 0.000369892
-0.00237253 -0.00346399 0.00125623
-0.001984 -0.00267503 9.33123e-06
-0.00586594 -0.0047294 2.5354e-05
-0.00199872 -0.00269943 0.000629906
-0.00602026 -0.00464001 0.00179911
-0.00179719 -0.00129901 -0.00128399
-0.0057117 -0.0009073 -0.00377443
0 0 0
0 0 0
0 0 0
0 0 0
-0.000773717 -0.00162123 0.00112557
-0.00250065 -0.00336252 0.00185569
-0.000850909 -0.00109135 0.001674
-0.00262072 -0.00182715 0.00347608
-0.000728786 -0.000683812 0.00169838
-0.00234789 -0.000579356 0.00346612
-0.00215225 -0.00260787 0.00195395
-0.00615202 -0.00455399 0.0026908
-0.00220951 -0.00187713 0.00269704
-0.00622572 -0.00270765 0.00463408
-0.00208506 -0.00125267 0.0026908
-0.00598167 -0.000910996 0.00470631
0 0 0
0 0 0
0 0 0
0 0 0
-0.00105656 -0.00155728 0.00227221
-0.00284224 -0.00329181 0.00261053
-0.00215319 -0.00132022 0.00315705
-0.00422345 -0.00327523 0.00412796
-0.00147443 -0.000960862 0.0031079
-0.00326511 -0.00176496 0.00437186
-0.00136976 -0.000444416 0.00324001
-0.00321936 -0.00052596 0.00429268
0 0 0
0 0 0
0 0 0
0 0 0
-0.00150742 2.1557e-05 -0.003322
-0.00341307 -4.05952e-05 -0.00412477
0 0 0
0 0 0
0 0 0
0 0 0
0 0 0
0 0 0
0 0 0
0 0 0
-0.000689697 -1.15225e-06 -0.00171472
-0.00227861 -6.30325e-06 -0.00353117
-0.000714244 0.000367238 -0.00169542
-0.00242345 0.00121886 -0.00344987
-0.00194639 -1.29807e-06 -0.00274893
-0.00589668 -3.583e-06 -0.00471431
-0.00199565 0.000603588 -0.00274652
-0.00604596 0.00177394 -0.00463243
0 0 0
0 0 0
0 0 0
0 0 0
-0.00175289 -0.00127574 -5.63362e-06
-0.00571979 -0.00376555 -1.41876e-05
-0.00178154 -0.00121961 0.000610676
-0.00577405 -0.00375011 0.00180206
-0.00177494 1.90339e-06 -0.00126283
-0.0057092 8.32202e-07 -0.0037535
-0.00165395 -9.29126e-06 0.00126871
-0.0057047 -1.33268e-05 0.00379129
-0.00178591 0.000610329 -0.00123314
-0.00577805 0.00177603 -0.00373751
-0.00173218 0.000597728 0.0012622
-0.00577963 0.00186984 0.00377027
-0.00169549 0.0012696 -4.92627e-07
-0.0057137 0.00378363 -2.88481e-05
-0.00175156 0.00123718 0.00059144
-0.00578943 0.0037599 0.00181912
-0.00524226 -5.22778e-06 -1.20986e-05
-0.0147235 1.33682e-05 4.62179e-06
0 0 0
0 0 0
0 0 0
0 0 0
0 0 0
0 0 0
0 0 0
0 0 0
-0.000682038 -6.71907e-06 0.00166
-0.0022671 -1.57467e-06 0.00347732
-0.000703813 0.000330129 0.00164824
-0.00241752 0.00118649 0.00343936
-0.00188879 -0.00128713 0.00197352
-0.00590031 -0.00370249 0.00273962
-0.00194203 -2.44693e-05 0.00268384
-0.00585192 2.38252e-06 0.00475072
-0.00198411 0.000590963 0.00268486
-0.00603035 0.00182507 0.00466936
-0.00190422 0.00124264 0.00194775
-0.00589751 0.00370638 0.00274284
0 0 0
0 0 0
-0.00149972 3.03703e-05 0.00330636
-0.00339811 -2.95491e-05 0.00409783
0 0 0
0 0 0
0 0 0
0 0 0
0 0 0
0 0 0
-0.00145376 0.000688229 -0.00320711
-0.003308 0.00054879 -0.0042297
-0.00131413 0.000949494 -0.00306315
-0.00314259 0.0017725 -0.00431537
-0.00210026 0.00125705 -0.00310452
-0.0042227 0.0032674 -0.0041018
-0.00105206 0.0015114 -0.00225036
-0.00285431 0.00334624 -0.00258447
0 0 0
0 0 0
0 0 0
0 0 0
-0.000786754 0.00112084 -0.00165468
-0.00250618 0.0018549 -0.00340277
-0.000792473 0.00165858 -0.00105457
-0.0025378 0.00341039 -0.0018092
-0.00217365 0.00192822 -0.00262927
-0.00619472 0.00265029 -0.00455588
-0.00222068 0.00264297 -0.00189145
-0.00618191 0.00459168 -0.00272805
-0.00206569 0.00267628 -0.00123231
-0.00597324 0.00468197 -0.000918377
0 0 0
0 0 0
0 0 0
0 0 0
0 0 0
0 0 0
0 0 0
0 0 0
-0.000703307 0.0016802 -0.000310814
-0.00238787 0.00346894 -0.00120821
-0.000701242 0.00171167 1.09788e-05
-0.00239661 0.00346697 6.89094e-06
-0.000693846 0.00168747 0.00034689
-0.00238067 0.00348355 0.0012431
-0.00189386 0.00196093 -0.00128454
-0.00591271 0.00270264 -0.00369407
-0.00195529 0.00268549 3.29111e-06
-0.00586565 0.00473581 1.66393e-05
-0.00200544 0.00270419 0.000615158
-0.00603588 0.00465159 0.00181069
0 0 0
0 0 0
0 0 0
0 0 0
-0.000793034 0.00107618 0.00165522
-0.00252152 0.00183006 0.00342527
-0.000776704 0.00161962 0.00110453
-0.00251183 0.00337947 0.00184208
-0.00218093 0.00187986 0.00265716
-0.00621107 0.00271917 0.00460328
-0.00212536 0.00263585 0.00191844
-0.00615465 0.00456847 0.00269117
0 0 0
0 0 0
0 0 0
0 0 0
-0.00145406 0.000672412 0.00320218
-0.00330278 0.000541627 0.00420043
-0.00132498 0.000936077 0.00307278
-0.0031594 0.00176275 0.00433118
-0.00104809 0.00149568 0.00225616
-0.00283992 0.00331614 0.00258823
-0.00210236 0.00125111 0.00310927
-0.0042241 0.00327143 0.00410015
0 0 0
0 0 0
-0.00328218 0.0025952 -0.00343234
-0.00497175 0.00396175 -0.00400338
-0.00179508 0.00304141 -0.0022201
-0.00386701 0.00401486 -0.00263373
0 0 0
0 0 0
-0.00143982 0.00318144 -0.00107941
-0.00344459 0.00420367 -0.00181683
0 0 0
0 0 0
-0.00142035 0.00328137 -0.000403353
-0.0033269 0.00416926 -0.00118326
-0.00130804 0.00313206 1.07206e-05
-0.00306371 0.00429991 8.63267e-06
-0.00142361 0.00327094 0.000427256
-0.00333729 0.00416646 0.00120067
0 0 0
0 0 0
-0.00143526 0.00315356 0.00108692
-0.00344408 0.0041808 0.001831
-0.00179354 0.00303005 0.00221481
-0.00386549 0.00399254 0.00263015
-0.00328434 0.00259139 0.00342488
-0.0049779 0.00396465 0.00399166
-0.00567698 -0.00461619 -0.00402947
-0.00537516 -0.00475879 -0.00317795
-0.00565193 -0.00393878 -0.00471139
-0.00529712 -0.00318956 -0.00477898
-0.0073699 -0.00499761 -0.00501289
-0.00865508 -0.0052056 -0.00518224
-0.00705583 -0.00432005 -0.00507558
-0.00837001 -0.00375192 -0.00536513
-0.00477728 -0.00494011 -0.00153445
-0.00475105 -0.00494748 -0.000771302
-0.00469864 -0.00400893 -0.00321969
-0.00472813 -0.00316671 -0.00409478
-0.00686568 -0.00516224 -0.00362988
-0.00853406 -0.00522367 -0.00455559
-0.00668354 -0.00532649 -0.00275329
-0.00834909 -0.00552265 -0.00291239
-0.00653782 -0.00542188 -0.00186763
-0.00824533 -0.00574627 -0.00101678
-0.00646902 -0.00446366 -0.00361201
-0.00823262 -0.00374111 -0.00468818
-0.00474317 -0.00495453 0.00078484
-0.00476245 -0.00494645 0.00153686
-0.00640191 -0.00545149 9.66845e-06
-0.00817971 -0.00577425 7.39829e-06
-0.005367 -0.00475852 0.00316948
-0.00566785 -0.00462107 0.00401598
-0.00466702 -0.0040082 0.00321249
-0.00471411 -0.00317274 0.00411276
-0.00649505 -0.0054119 0.00181516
-0.00818906 -0.00573279 0.000998014
-0.00671054 -0.00532507 0.00271621
-0.0084248 -0.00551839 0.00284903
-0.00685575 -0.0051647 0.00359925
-0.00852364 -0.00522556 0.00450813
-0.00644794 -0.00446519 0.00358097
-0.00823725 -0.00374572 0.00467853
-0.00563678 -0.00395764 0.00470829
-0.00529183 -0.00320583 0.00479576
-0.0073533 -0.00502472 0.00497926
-0.0086442 -0.00522834 0.00513656
-0.00704045 -0.00434746 0.00506296
-0.00836443 -0.0037739 0.00536348
-0.00482714 -0.0015605 -0.00496468
-0.0047658 -0.000763975 -0.00498764
-0.00661469 -0.00273133 -0.00535856
-0.00827856 -0.00290603 -0.0055039
-0.00484085 -0.00155502 0.00497887
-0.00477114 -0.000751915 0.00498927
-0.00662881 -0.00274885 0.00537788
-0.00829263 -0.00292723 0.0055211
-0.00477184 0.000760062 -0.00497655
-0.00484432 0.00154847 -0.0049451
-0.00645468 -0.000882534 -0.00547404
-0.00822303 -0.00193246 -0.00561849
-0.00645361 1.1884e-05 -0.00554171
-0.00825285 3.10326e-05 -0.00582194
-0.0064349 0.000917949 -0.00544787
-0.0082383 0.00195565 -0.00560293
-0.00476609 0.000764013 0.0049523
-0.00484153 0.00154589 0.00494063
-0.00645713 -0.000892122 0.00548192
-0.00824253 -0.00196137 0.00563731
-0.00642847 1.50038e-05 0.00552443
-0.00820972 1.11622e-05 0.00581158
-0.00642712 0.000934326 0.00546227
-0.00823144 0.00197954 0.00563851
-0.00528301 0.0032054 -0.00475412
-0.00564316 0.00394872 -0.00468427
-0.0046913 0.00319104 -0.00405863
-0.0046718 0.00405641 -0.00320164
-0.00669889 0.00267638 -0.00534241
-0.00842506 0.00281666 -0.00553135
-0.00469307 0.00320224 0.00407388
-0.00466041 0.00404414 0.0031881
-0.00529306 0.00323126 0.0047673
-0.00564991 0.00398021 0.0046804
-0.00670785 0.00272972 0.00537687
-0.00843277 0.00287665 0.00553593
-0.00565307 0.00462809 -0.0040305
-0.00535771 0.00479388 -0.00319014
-0.00704089 0.00430344 -0.00506242
-0.00841444 0.00369982 -0.00535187
-0.00733653 0.00498546 -0.00501097
-0.00863756 0.00516901 -0.00518268
-0.00476985 0.00495631 -0.00154047
-0.00474023 0.0049587 -0.000776648
-0.00644473 0.0044734 -0.00359691
-0.00825647 0.00369454 -0.00467594
-0.00682829 0.00516895 -0.00363158
-0.00850205 0.0051926 -0.00454821
-0.00667245 0.00535445 -0.00276792
-0.00835018 0.00551827 -0.00293226
-0.00652264 0.00542177 -0.00186845
-0.00822182 0.00572102 -0.00101609
-0.00474451 0.00496912 0.00077736
-0.00477082 0.00496964 0.00153156
-0.00639592 0.00545213 3.77721e-06
-0.00816203 0.00577222 4.37725e-06
-0.00536251 0.00478706 0.00316195
-0.00566594 0.00463797 0.00400196
-0.0064409 0.00448899 0.00357149
-0.00826858 0.00374308 0.00467682
-0.00649721 0.00542621 0.00181773
-0.00818154 0.00571749 0.000998231
-0.00668294 0.00534888 0.00271279
-0.00837474 0.00553591 0.00286145
-0.00683594 0.00518163 0.00358823
-0.0085027 0.00522735 0.00451973
-0.007045 0.00436309 0.00505539
-0.00840898 0.0037591 0.00536495
-0.00735308 0.0050415 0.00497389
-0.00863933 0.00521976 0.00515433
-0.00998604 -0.00526536 -0.00457402
-0.00998669 -0.00534318 -0.00378964
-0.00997149 -0.00454798 -0.00524505
-0.00995891 -0.00379344 -0.00530526
-0.0113132 -0.00520356 -0.00513494
-0.0126335 -0.00499224 -0.00498098
-0.0114556 -0.00520373 -0.00450035
-0.0131309 -0.005135 -0.00359399
-0.0100115 -0.00560142 -0.00199128
-0.0100422 -0.00575404 -0.00100364
-0.0100169 -0.00463982 -0.0037882
-0.00999776 -0.0037543 -0.00462742
-0.0100339 -0.00384283 -0.00385138
-0.00999847 -0.00193348 -0.00487689
-0.0116128 -0.00542891 -0.00287198
-0.0132587 -0.00528169 -0.00271623
-0.0119009 -0.0038003 -0.00381007
-0.0138249 -0.0017926 -0.00465688
-0.0100163 -0.00576329 0.000977918
-0.01001 -0.00564474 0.00196121
-0.0100251 -0.00408199 -0.00202387
-0.00998619 -0.00201799 -0.00406514
-0.00998215 -0.00404419 0.0020068
-0.0100047 -0.0020203 0.0040598
-0.0117456 -0.00561481 -0.00100303
-0.0133923 -0.00534886 -0.00185464
-0.011753 -0.00575813 1.00292e-05
-0.0135407 -0.00552907 8.42436e-06
-0.0117967 -0.00570447 0.000983504
-0.0134896 -0.00544197 0.00184211
-0.0121149 -0.00401204 -0.00195417
-0.0141335 -0.00183089 -0.00379707
-0.0120767 -0.00397317 0.00193555
-0.0141695 -0.00182538 0.00377283
-0.0142586 -0.00375085 -1.2736e-06
-0.018312 -0.00126539 2.08085e-05
-0.0142414 -0.00376938 0.000911567
-0.0182586 -0.00130341 0.00127373
-0.0100041 -0.00533198 0.00374673
-0.00998224 -0.0052539 0.00453203
-0.0100207 -0.00463831 0.00376016
-0.00999811 -0.00374055 0.00462292
-0.0100227 -0.0038006 0.00389473
-0.0100254 -0.00193287 0.00491885
-0.0116802 -0.00541277 0.00286674
-0.0133394 -0.0052557 0.00274079
-0.0118967 -0.00378145 0.00380171
-0.0138434 -0.00177559 0.00464699
-0.00997759 -0.00455717 0.00521729
-0.00996129 -0.00379908 0.00529231
-0.0114597 -0.00519229 0.00448591
-0.0131549 -0.00512819 0.00359937
-0.0113255 -0.00519511 0.00512302
-0.0126457 -0.00498086 0.0049785
-0.009988 -0.00201529 -0.0055206
-0.00999449 -0.00103624 -0.00570043
-0.0115919 -0.00374633 -0.00532218
-0.0129407 -0.00430644 -0.00504136
-0.0117501 -0.00372271 -0.00461586
-0.0134994 -0.0044523 -0.00356793
-0.0116575 -0.00288931 -0.00542116
-0.0132745 -0.00272655 -0.00526225
-0.0116938 -0.001971 -0.00551944
-0.0135264 -0.000956328 -0.0054814
-0.00999507 -0.00201794 0.00555611
-0.00999356 -0.00103993 0.00572844
-0.0117446 -0.00371377 0.00460719
-0.0135039 -0.00443895 0.00356852
-0.0115965 -0.00374257 0.00531604
-0.0129442 -0.00429923 0.00503693
-0.011665 -0.0028885 0.00542874
-0.0132848 -0.0027269 0.00526095
-0.0117054 -0.00196859 0.00552416
-0.0135669 -0.000941589 0.0054641
-0.0100078 0.00097711 -0.00582792
-0.010035 0.00196398 -0.00563683
-0.00994565 0.00200001 -0.00407185
-0.00998648 0.00406432 -0.00203402
-0.0117908 1.93642e-05 -0.00582178
-0.0136104 1.32452e-05 -0.0055754
-0.0120595 0.0019409 -0.00400385
-0.0141683 0.00379788 -0.00184577
-0.0142682 -3.43669e-06 -0.00377518
-0.0183052 1.02938e-05 -0.00126398
-0.0142418 0.00091703 -0.0037796
-0.0182603 0.00128418 -0.00129399
-0.00999226 0.000955424 0.00577101
-0.0100409 0.00194188 0.00557434
-0.0100164 0.0020231 0.00405009
-0.00998772 0.00405597 0.00199494
-0.00997646 0.00193319 0.00490689
-0.00995822 0.00384233 0.00383845
-0.0117827 8.76828e-06 0.00579201
-0.0136214 2.0649e-05 0.0055514
-0.0121244 0.00195369 0.00397588
-0.0141514 0.00377004 0.00180923
-0.0119495 0.00187189 0.00487132
-0.0138046 0.00364213 0.00361924
-0.0143029 -1.99496e-06 0.00374001
-0.0182627 -1.12423e-05 0.00125523
-0.0141137 1.31652e-05 0.00470247
-0.0180654 -2.25288e-05 0.00273499
-0.0143144 0.000901845 0.00377806
-0.0182271 0.00124505 0.00127009
-0.0140425 0.000916336 0.00466737
-0.0179819 0.00120834 0.00272294
-0.0100109 0.00376471 -0.00529474
-0.00997687 0.00450874 -0.00523593
-0.010006 0.00377054 -0.00462133
-0.00997717 0.00462513 -0.00375916
-0.00998539 0.00390318 -0.00380241
-0.00999638 0.0049348 -0.00194235
-0.0117132 0.001973 -0.00560964
-0.0135204 0.000934828 -0.00548025
-0.0116735 0.00286516 -0.00550083
-0.0133194 0.00270887 -0.00533968
-0.0115948 0.00369146 -0.00530908
-0.0129281 0.00431308 -0.00504899
-0.0117406 0.0037047 -0.00464563
-0.0134609 0.00448107 -0.0035797
-0.0118669 0.00380322 -0.00382044
-0.0138386 0.0046688 -0.00181004
-0.0140024 0.00274947 -0.00370654
-0.0181267 0.00197858 -0.00125363
-0.0100121 0.00375088 0.00461407
-0.0099865 0.00463237 0.00377713
-0.0100123 0.00373684 0.00524923
-0.00997663 0.00451118 0.00521593
-0.0117562 0.00197846 0.0055779
-0.013562 0.000929842 0.00546862
-0.0117248 0.0029142 0.00545266
-0.0133727 0.00275788 0.00531004
-0.0117197 0.00370178 0.00464402
-0.0134756 0.00449104 0.00357815
-0.011616 0.00372248 0.00531724
-0.012923 0.00433307 0.00504498
-0.0137454 0.00272537 0.00455399
-0.0178299 0.00185133 0.00268142
-0.00996881 0.00521597 -0.00457583
-0.00996884 0.00530289 -0.0037986
-0.0113233 0.00516812 -0.00516884
-0.0126349 0.0049977 -0.00499576
-0.0114546 0.00518108 -0.00452821
-0.0131338 0.00514296 -0.00359354
-0.0100251 0.00557033 -0.00201609
-0.0100096 0.00574232 -0.00101623
-0.0116717 0.0054378 -0.00290845
-0.0133496 0.00527607 -0.00275985
-0.0100127 0.00572991 0.000977571
-0.0100216 0.00560538 0.0019698
-0.0117996 0.00565134 -0.00101181
-0.0135248 0.00538613 -0.0018418
-0.0117826 0.00576889 7.18638e-06
-0.0135892 0.00550561 1.47073e-05
-0.0117864 0.00562064 0.00100276
-0.0135123 0.0053621 0.00183949
-0.0142757 0.00374597 -8.83637e-06
-0.0182448 0.00127721 -4.56939e-06
-0.0140965 0.00469302 -3.16298e-06
-0.0180252 0.00275181 -5.35273e-06
-0.009988 0.00532713 0.00378395
-0.00997703 0.00524517 0.00456997
-0.0117086 0.00542023 0.00289121
-0.0133591 0.00527892 0.00273869
-0.0114615 0.00519865 0.00451778
-0.0131425 0.00516936 0.00360325
-0.0113286 0.00518582 0.00515538
-0.0126239 0.00501168 0.00497936
-0.0143223 -0.00464675 -0.00402443
-0.0146014 -0.0048311 -0.00317215
-0.0143288 -0.00396776 -0.00469588
-0.014669 -0.00322403 -0.004797
-0.0149977 -0.00397797 -0.00400436
-0.0166955 -0.00260582 -0.00342964
-0.0157405 -0.00328463 -0.00411537
-0.0178712 -0.00124629 -0.00310786
-0.0151639 -0.00511386 -0.00154775
-0.0152644 -0.00512719 -0.000764527
-0.0152521 -0.00409574 -0.00322754
-0.0152413 -0.00321538 -0.00412447
-0.0157406 -0.00326601 -0.00330212
-0.0157233 -0.00150601 -0.0042704
-0.0160934 -0.00399528 -0.00263072
-0.0181917 -0.00303941 -0.00221445
-0.0164915 -0.00420135 -0.00181688
-0.0185476 -0.00312722 -0.00107718
-0.0165753 -0.00423042 -0.0011967
-0.0185551 -0.00326195 -0.000413992
-0.0170993 -0.00332073 -0.00257993
-0.018935 -0.00148185 -0.00224
-0.0174509 -0.00339602 -0.00180755
-0.0192245 -0.00155452 -0.0010743
-0.0176264 -0.00352758 -0.00122613
-0.0193184 -0.00165316 -0.000340104
-0.0178148 -0.00261689 -0.00189977
-0.0194253 -0.000744276 -0.00111201
-0.017935 -0.0026782 -0.00120487
-0.0195073 -0.000700639 -0.000336186
-0.0153 -0.00503178 0.000798282
-0.0152442 -0.00501354 0.00159667
-0.0161783 -0.00338007 -0.00159199
-0.0161357 -0.00159108 -0.00337662
-0.0169014 -0.00440061 -1.12996e-05
-0.018684 -0.00313999 -1.34722e-05
-0.017652 -0.00360283 -7.27299e-06
-0.0193026 -0.0017295 -4.70518e-06
-0.0179757 -0.00278431 5.94043e-07
-0.0194992 -0.000763034 -3.08383e-06
-0.0179691 -0.00276861 0.000593088
-0.0194626 -0.000743534 0.000706054
-0.0146315 -0.00480389 0.00318773
-0.0143312 -0.00463696 0.00402651
-0.0152512 -0.00406391 0.00323486
-0.0152378 -0.00320245 0.0041173
-0.0157201 -0.00326425 0.00328236
-0.0157516 -0.00154086 0.00424279
-0.0166155 -0.00424292 0.00120217
-0.0185607 -0.00328771 0.000394302
-0.0165206 -0.0042355 0.00182151
-0.0185482 -0.00316273 0.00107712
-0.0161 -0.00401711 0.002634
-0.0181851 -0.00304568 0.0022277
-0.0176152 -0.0035575 0.00120749
-0.0192948 -0.00170329 0.00032484
-0.0174311 -0.00344778 0.00181081
-0.0192074 -0.00157344 0.00108368
-0.0170883 -0.00334521 0.00258623
-0.0189261 -0.0014807 0.0022304
-0.0177839 -0.00268355 0.00187261
-0.0194132 -0.000676445 0.00113871
-0.0143285 -0.00396474 0.00469123
-0.0146702 -0.00322045 0.00478742
-0.0149995 -0.00397638 0.00400975
-0.0166951 -0.00259638 0.00344701
-0.0157409 -0.0032834 0.00411162
-0.0178739 -0.00123553 0.0030969
-0.0151121 -0.00156546 -0.0051256
-0.0152153 -0.000762364 -0.00513441
-0.0167536 -0.00177488 -0.00438758
-0.0186463 -0.000940433 -0.00308403
-0.0174168 -0.00180634 -0.00347705
-0.0192201 -0.0010487 -0.0016058
-0.0175259 -0.00114973 -0.00349888
-0.0192897 -0.000330477 -0.00162584
-0.0151493 -0.00153504 0.00508562
-0.0152567 -0.000722641 0.00509817
-0.017422 -0.00181636 0.00346624
-0.0192208 -0.00104559 0.00161534
-0.0167635 -0.00178959 0.00436807
-0.0186472 -0.000933393 0.00309164
-0.0175461 -0.00116263 0.00349926
-0.0192805 -0.000336512 0.00167086
-0.0152648 0.000802635 -0.00504123
-0.0151603 0.00160081 -0.0049751
-0.0166046 -0.000533823 -0.00430458
-0.0185017 -0.000661084 -0.00322378
-0.0165593 6.15246e-05 -0.0041911
-0.0184682 1.2856e-06 -0.00335339
-0.0177024 1.37879e-05 -0.00361814
-0.0193091 -6.66168e-06 -0.00167351
-0.0180006 5.6655e-06 -0.00277369
-0.0195285 8.84297e-06 -0.000769023
-0.0167672 0.000558837 -0.0043776
-0.0186248 0.000450315 -0.0032328
-0.0176573 0.000565229 -0.00356983
-0.0192745 0.000674262 -0.00165474
-0.018022 0.000573001 -0.00278636
-0.0194859 0.00069547 -0.000737681
-0.0152865 0.000802931 0.00501534
-0.015183 0.00158239 0.00496792
-0.0166934 -0.000502745 0.00426698
-0.0185325 -0.000660675 0.00325091
-0.0176819 1.58726e-05 0.00350302
-0.0192966 -2.36687e-05 0.00169584
-0.0166195 6.23639e-05 0.00412857
-0.0184906 -5.62142e-06 0.00335851
-0.0176631 0.000568458 0.00348917
-0.0192748 0.000665192 0.00171363
-0.0168325 0.000534105 0.00431114
-0.0186496 0.000442671 0.0032492
-0.0146849 0.00322145 -0.00477099
-0.0143384 0.00396537 -0.00470111
-0.0152328 0.00319298 -0.00409222
-0.0152507 0.00409217 -0.00322613
-0.0157134 0.00327568 -0.00326978
-0.0157551 0.00427633 -0.00154883
-0.0167385 0.00178509 -0.00438319
-0.0185475 0.000950755 -0.00307996
-0.0174177 0.0018381 -0.00347631
-0.0192117 0.00104696 -0.00166137
-0.017773 0.00185734 -0.00269155
-0.0194189 0.00109609 -0.000694838
-0.0152487 0.00318081 0.00406643
-0.0152747 0.00405504 0.00316538
-0.0146887 0.00320873 0.00476368
-0.0143381 0.00396185 0.00468554
-0.0174011 0.00181437 0.00345893
-0.0191958 0.00104609 0.00169733
-0.0167472 0.00177336 0.00434696
-0.0185351 0.00096258 0.00310168
-0.0143062 0.0046506 -0.00403472
-0.0145777 0.00484565 -0.00320344
-0.0157481 0.00327634 -0.00412348
-0.0178463 0.00129433 -0.00312766
-0.0150122 0.00397473 -0.00402169
-0.0167043 0.00262587 -0.00344694
-0.0151651 0.005109 -0.00156642
-0.0152621 0.00511121 -0.000749828
-0.0170983 0.00334294 -0.00258781
-0.0189361 0.00153883 -0.00223378
-0.017383 0.0034076 -0.00180302
-0.0192025 0.00152939 -0.00109453
-0.0175679 0.00352209 -0.00118695
-0.0192779 0.00165003 -0.000326672
-0.0160821 0.00400891 -0.00263924
-0.0181839 0.00306419 -0.00222473
-0.0164684 0.0042224 -0.00182659
-0.0185357 0.00315564 -0.00107601
-0.0165577 0.0042357 -0.00118937
-0.0185377 0.0033055 -0.000405286
-0.0152609 0.00510953 0.000772118
-0.015192 0.00513085 0.00154154
-0.0175939 0.00348909 9.54506e-06
-0.0192681 0.0017304 2.00893e-06
-0.0169313 0.00433412 1.87314e-05
-0.0186847 0.00316812 4.55026e-06
-0.0145972 0.00480617 0.00313632
-0.0142988 0.00463036 0.00399252
-0.0175238 0.0034682 0.00120656
-0.0192688 0.00158034 0.000335638
-0.0173565 0.00336038 0.00182019
-0.0191845 0.00151664 0.00111051
-0.0171272 0.00329059 0.00257779
-0.0189307 0.00153694 0.00226003
-0.0165559 0.00421152 0.00119577
-0.0185267 0.00329804 0.000414974
-0.0165235 0.00419958 0.00183236
-0.0185524 0.00315567 0.00109158
-0.0161211 0.0039656 0.00261147
-0.0181909 0.00305778 0.00221518
-0.0157648 0.00327507 0.00411005
-0.0178473 0.00131525 0.00314829
-0.0150313 0.00397635 0.00399074
-0.0167208 0.00263918 0.003428
-0.02 0 0
-0.02 0 0
-0.02 0 0
-0.02 0 0
-0.02 0 0
-0.02 0 0
-0.02 0 0
-0.02 0 0
-0.02 0 0
-0.02 0 0
-0.02 0 0
-0.02 0 0
-0.02 0 0
-0.02 0 0
-0.02 0 0
-0.02 0 0
-0.02 0 0
-0.02 0 0
-0.02 0 0
-0.02 0 0
-0.02 0 0
-0.02 0 0
-0.02 0 0
-0.02 0 0
-0.02 0 0
-0.02 0 0
-0.02 0 0
-0.02 0 0
-0.02 0 0
-0.02 0 0
-0.02 0 0
-0.02 0 0
-0.02 0 0
-0.02 0 0
-0.02 0 0
-0.02 0 0
-0.02 0 0
-0.02 0 0
-0.02 0 0
-0.02 0 0
-0.02 0 0
-0.02 0 0
-0.02 0 0
-0.02 0 0
-0.02 0 0
-0.02 0 0
-0.02 0 0
-0.02 0 0
-0.02 0 0
-0.02 0 0
-0.02 0 0
-0.02 0 0
-0.02 0 0
-0.02 0 0
-0.02 0 0
-0.02 0 0
-0.02 0 0
-0.02 0 0
-0.02 0 0
-0.02 0 0
-0.02 0 0
-0.02 0 0
-0.02 0 0
-0.02 0 0
-0.02 0 0
-0.02 0 0
-0.02 0 0
-0.02 0 0
-0.02 0 0
-0.02 0 0
-0.02 0 0
-0.02 0 0
-0.02 0 0
-0.02 0 0
-0.02 0 0
-0.02 0 0
-0.02 0 0
-0.02 0 0
-0.02 0 0
-0.02 0 0
-0.02 0 0
-0.02 0 0
-0.02 0 0
-0.02 0 0
-0.02 0 0
-0.02 0 0
-0.02 0 0
-0.02 0 0
-0.02 0 0
-0.02 0 0
-0.02 0 0
-0.02 0 0
-0.02 0 0
-0.02 0 0
-0.02 0 0
-0.02 0 0
-0.02 0 0
-0.02 0 0
-0.02 0 0
-0.02 0 0
-0.02 0 0
-0.02 0 0
-0.02 0 0
-0.02 0 0
-0.02 0 0
-0.02 0 0
-0.02 0 0
-0.02 0 0
-0.02 0 0
-0.02 0 0
-0.02 0 0
-0.02 0 0
-0.0157964 0.00407685 -0.00337529
-0.0174229 0.00203577 -0.00321031
-0.00840996 -0.00535032 0.00375679
-0.0183814 0.00316111 -0.0015338
-0.02 0 0
-0.0186546 0.0021383 -0.00221269
0 0 0
-0.02 0 0
0 0 0
-0.00643385 0.00544198 -0.000926333
-0.02 0 0
-0.0181692 -2.22093e-05 0.00197619
-0.00709652 0.0050069 -0.00435426
-0.00850364 0.00448815 -0.0052351
-0.02 0 0
-0.0168014 -0.00110685 0.00435574
-0.0190595 -0.00063223 0.00233797
-0.00416507 -0.00405554 -0.00336483
-0.00257086 -0.00204878 -0.00321315
-0.00822565 -0.00096104 -0.00570492
-0.0131574 -0.00355542 -0.00513994
-0.00850427 -0.00453099 -0.00524625
-0.00713399 -0.00500564 -0.00435396
-0.00319462 0.004293 0.000664852
-0.000896434 -0.00156239 -0.0015982
-0.00683793 -0.00357608 -0.00519653
-0.00677991 -0.00435896 -0.00438328
0 0 0
-0.0190139 -0.000348411 0.00237332
-0.02 0 0
-0.0185062 -0.000320079 0.00334883
-0.00363316 0.00253863 -0.00427741
0 0 0
-0.00133702 -0.00215057 -0.00222217
-0.00159016 -0.00315874 -0.00153187
-0.0011299 -0.00218252 -0.00156006
-0.00837379 0.00533149 -0.00380108
-0.00838304 0.00451524 -0.00455217
-0.00188979 -0.00132129 -0.0019597
-0.02 0 0
-0.00203929 -0.00266311 -0.00060665
0 0 0
-0.00148259 0.000348024 -0.00330279
0 0 0
-0.0131286 0.00355925 -0.00515549
-0.0163784 0.00251905 0.001603
-0.00823714 -0.00564286 0.00192369
-0.0163057 0.00253553 0.00429146
-0.0128581 0.00501569 0.00432226
-0.0114693 0.00450652 0.00520827
-0.00824195 0.0046491 -0.00376851
-0.00319654 -0.00111758 -0.00431675
-0.00103937 -0.00104101 -0.00235832
-0.00364122 0.0025383 0.00428504
0 0 0
-0.00158516 -0.00314167 0.00153204
0 0 0
-0.00112251 -0.00216461 0.00156775
-0.02 0 0
-0.00331901 0.00326558 -0.00344562
-0.00416945 0.00406786 -0.00336265
-0.00255046 0.0020002 -0.00319161
-0.00132655 0.00211788 -0.0022106
-0.00159502 0.00315823 -0.00153507
-0.00112801 0.00217881 -0.00156054
0 0 0
0 0 0
-0.000954246 0.00106104 -0.00227933
-0.000892203 0.00156767 -0.00159222
-0.00284279 0.00254956 -0.00344804
0 0 0
0 0 0
-0.000964434 -0.000658841 -0.00234178
0 0 0
-0.000935292 -0.000295433 -0.00229766
-0.00097068 1.06522e-05 -0.00230618
-0.00145201 -0.000256674 -0.00330349
0 0 0
-0.00147636 0.000338943 0.0032825
-0.00840681 -0.00535527 -0.00380267
-0.00825946 -0.00468091 -0.00378529
-0.00839258 -0.00454842 -0.00456596
-0.00255125 0.00199432 0.0031888
-0.00331508 0.00324923 0.00344364
-0.00417273 0.0040567 0.00335173
-0.0134943 0.00185605 0.0053939
0 0 0
-0.00104554 0.00227488 -0.00104005
0 0 0
-0.000983995 0.00229927 -0.000621099
-0.00146655 0.00329341 -0.000722898
-0.0193034 0.000312438 0.00170452
0 0 0
-0.00146396 -0.00329421 -0.000726372
-0.00571366 0.00379655 0.000900555
-0.00318424 0.00112594 0.00429636
-0.000923745 0.000647798 0.00231116
-0.000953276 0.000339284 0.00231083
-0.00319048 -0.0042837 -0.000646234
-0.000943997 -0.00233994 -0.00031038
-0.00320488 -0.00110797 0.00432899
0 0 0
-0.00094103 0.00232641 0.000340031
-0.00146587 0.00327202 0.000747587
0 0 0
-0.000978512 0.00226782 0.000647589
-0.000713237 0.00166339 0.000711233
-0.00103617 0.00223538 0.00106071
-0.00408471 -0.00417441 -0.000753824
-0.00644873 -0.00544412 -0.000920762
-0.00238161 -0.00343412 -0.000558046
-0.00318613 0.00114719 -0.00430519
-0.000925253 0.000669501 -0.00231506
-0.000960351 0.000359707 -0.00234278
-0.00284037 0.00253147 0.00345614
-0.00095637 0.00103859 0.00228713
-0.0023939 0.00257485 0.002617
-0.000881709 0.00153362 0.00161764
0 0 0
-0.00132321 0.00210223 0.00220954
-0.00159189 0.00313828 0.00153515
-0.00112353 0.0021525 0.00156545
-0.000882587 -0.00154563 0.00163666
-0.00103618 -0.00103688 0.00237088
-0.00133033 -0.00214364 0.0022235
-0.00256948 -0.00205373 0.00321201
-0.00415476 -0.00404972 0.00336024
-0.0189256 0.00219974 0.00105274
-0.02 0 0
-0.00187523 0.0019447 0.000603694
0 0 0
-0.00183247 0.0012413 0.00124513
-0.0170921 0.0025204 0.00347526
-0.0190916 0.00149016 0.00162285
-0.00368989 -0.00252627 -0.00429698
-0.00290211 -0.00252948 -0.0034867
-0.00509164 -0.00392797 -0.00401755
-0.00333323 -0.00325301 -0.00347296
-0.0128731 -0.00498589 0.00431398
-0.0114762 -0.00451786 0.00519043
-0.0162873 -2.04665e-06 -0.00338302
-0.000971232 -0.000655154 0.00235131
-0.000688216 -0.000331421 0.00168406
0 0 0
-0.0184765 -0.000319991 -0.00333763
-0.02 0 0
-0.00406842 -0.000793904 -0.00420178
-0.00194809 -0.000627877 -0.00271571
-0.000679802 -0.000336597 -0.00169226
-0.0043023 0.00414355 -0.00238662
-0.0082761 0.00562165 -0.00198999
-0.00651548 -0.0018251 0.00543115
-0.00244558 -0.0011898 0.00347744
0 0 0
-0.000727738 -0.00168703 -0.000665677
-0.00104508 -0.00227728 -0.00104234
-0.000985172 -0.00230583 -0.000622987
-0.02 0 0
-0.02 0 0
-0.0184969 0.00328099 -0.000750593
-0.00318927 -0.00427896 0.000677641
-0.00091826 -0.00241465 1.99236e-05
-0.00712024 -0.00501521 0.00431933
-0.00838755 -0.00454699 0.00452885
-0.00849478 -0.00455326 0.00522073
-0.00102958 -0.00223143 0.00106735
0 0 0
-0.00676762 -0.00437243 0.00436527
-0.00683439 -0.00360286 0.00520781
-0.00419656 -0.00158489 0.0042067
-0.00407627 -0.000787664 0.00421262
-0.00822664 -0.000984435 0.00572323
-0.00437517 -0.00237011 0.00420155
-0.0064694 -0.0035747 0.00451384
-0.00242325 -0.00254838 0.00266634
-0.017895 0.00270528 -0.00123592
-0.0183947 0.003143 0.0015334
-0.02 0 0
-0.0188595 0.00214468 0.00156125
-0.0135168 -0.00354542 -0.00445881
-0.0133777 -0.00184578 -0.00537901
0 0 0
-0.00145441 -0.000237899 0.00330956
-0.000963471 9.06663e-06 0.0022727
-0.000938609 -0.000286735 0.00230245
-0.00849667 0.00454389 0.0052247
-0.00710724 0.00503604 0.00431416
0 0 0
-0.000937647 -0.0023202 0.000353351
-0.0014571 -0.00325963 0.000757455
-0.000972189 -0.00225726 0.000657967
-0.0114675 -0.00452457 -0.00519982
-0.0128655 -0.00499316 -0.00431465
-0.0132039 -0.00434947 -0.00434193
-0.0161286 0.00340734 -0.00160467
-0.0164147 0.00256247 -0.00162843
-0.0159494 0.00422974 1.38324e-06
-0.0117002 -0.00553666 -0.00195689
-0.00406703 -0.00417962 0.000776439
-0.00406471 -0.0041947 1.66324e-05
-0.00237467 -0.0034328 0.000591479
-0.00642137 -0.0054529 0.00092044
-0.00607705 -0.00180905 0.00468116
-0.00610699 -0.00363276 0.00368614
-0.00826111 -0.00467262 0.00373282
-0.00420062 -0.00321702 0.003308
-0.00563781 -0.00189423 0.00281132
-0.00590638 -0.00275664 0.00373557
-0.00580511 -0.00186461 0.00375359
-0.00200695 -0.000640731 0.00268193
-0.00181022 -0.0012653 0.00127441
0 0 0
-0.00570284 -0.00378348 0.000900072
-0.00187177 -0.00194586 0.000615467
-0.00590849 -0.00468841 0.000919904
-0.0019873 -0.00192579 0.00198552
-0.00190877 -0.00195236 0.00127219
0 0 0
-0.00201153 -0.00268741 0.00127957
-0.00425446 -0.00409014 0.00239703
-0.00414652 -0.00418306 0.00158245
-0.000710528 -0.00165287 0.000731276
-0.0158363 0.00157688 0.00419121
-0.0117588 0.000981644 0.00569755
-0.0159533 0.00078171 0.00421668
-0.0139289 0.00182084 0.00462758
-0.02 0 0
-0.0190122 -5.59109e-06 0.0023256
-0.0190485 0.000292434 0.0023276
-0.0185496 0.000257751 0.00333717
-0.0163195 -0.00255753 0.00430045
-0.0166339 -0.00326872 0.0034515
-0.0174312 -0.00199349 0.00319565
-0.0157956 -0.00407536 0.00336635
-0.0131904 0.00437785 0.00435022
-0.0148925 0.00394414 0.00398259
-0.0131363 0.00359159 0.00516623
-0.0190345 0.000644619 0.00236112
-0.0168167 0.00111405 0.00432828
-0.0175799 0.00116721 0.00347862
-0.0189879 0.00101631 0.00237862
-0.0170978 -0.00254445 0.00345562
-0.0190313 -0.00101196 0.00227382
-0.0186531 -0.00210817 0.00220796
-0.02 0 0
-0.0183875 -0.0031602 0.00153625
-0.0188509 -0.00216062 0.0015472
-0.02 0 0
-0.0191034 -0.00151144 0.00158764
-0.0189473 -0.00222413 0.00103721
-0.00838324 0.00534434 0.00375951
-0.00838499 0.00455392 0.00453625
-0.00431055 0.0023883 0.00415961
-0.000726988 0.000676802 0.00165966
-0.00206725 0.00123561 0.00266503
-0.00590278 0.00276722 0.00371318
-0.00575391 0.00280911 0.0027827
-0.00565551 0.00187313 0.00283762
-0.00651434 0.00183434 0.00542382
-0.00414738 0.00157579 0.00418814
-0.00236497 0.000568177 0.00341794
-0.00818727 0.00100134 0.00573243
-0.0040675 0.000763629 0.00419476
-0.00399812 -6.79215e-07 0.00421395
-0.00571243 0.000928343 0.00382069
-0.00182921 0.000606056 0.00196497
-0.00590747 0.00092599 0.00471324
-0.00180335 -1.76484e-05 0.00197161
-0.00191659 0.00194518 0.00125926
0 0 0
-0.00202025 0.00269823 0.00125508
-0.00198697 0.00191593 0.00195562
-0.0115852 0.00451732 0.00452901
-0.00998506 0.00453793 0.00455307
-0.0115936 0.00529392 0.00375564
-0.00685705 0.00361262 0.00519781
-0.00507338 0.00396072 0.00398732
-0.00647122 0.00359363 0.00450068
-0.00676258 0.00439806 0.00435874
-0.00507204 0.00395199 -0.00399436
-0.00685105 0.00355165 -0.00517865
-0.00675954 0.00435394 -0.00436855
-0.0117659 -0.000992193 0.00565485
-0.0118258 -0.00282492 0.00471273
-0.0100278 -0.00288102 0.00476773
-0.013158 -0.00355321 0.00513904
-0.0148795 -0.00396504 0.004016
-0.0132072 -0.00433977 0.00433964
-0.0138223 -0.00363056 0.00363135
-0.0117331 -0.00553537 0.0019431
-0.0119316 -0.00191167 0.00481795
-0.012008 -0.00388582 0.00289607
-0.00997492 -0.0039352 0.00298078
-0.00825 0.00467544 0.00373893
-0.00609693 0.00364351 0.00366456
-0.00425278 0.00411834 0.00238018
-0.00417744 0.0032481 0.00326662
-0.00237624 0.00344892 0.000579785
-0.00406073 0.00420212 8.55139e-06
-0.0064211 0.00545308 0.000918455
-0.0175875 0.00354275 -0.000556293
-0.0167723 0.00435372 -0.000639655
-0.0190325 0.0023426 -0.000333357
-0.00553066 0.00189593 0.00189836
-0.0140282 0.00372741 0.00271561
-0.0120868 0.00395932 0.00194841
-0.0135508 0.00542868 0.000929146
-0.0156264 0.00237705 0.00414975
-0.017539 0.00253325 0.00261816
-0.0134738 0.00357723 0.00446109
-0.0157356 0.00324054 0.00323515
-0.0117113 0.00460713 0.00375799
-0.0118381 0.00283317 0.00475033
-0.00997065 0.00287886 0.00474935
-0.00827795 -0.00564098 -0.0019726
-0.00432583 -0.00410863 -0.00239255
-0.00416388 -0.00416242 -0.00158263
-0.0157994 -0.0040644 -0.00336195
-0.0174285 -0.00200181 -0.00319165
-0.00318593 0.00429121 -0.000648215
-0.000916859 0.00241298 8.62532e-06
-0.00237107 0.00344252 -0.000562117
-0.000939903 0.0023343 -0.000315899
-0.0143766 -0.00186339 0.00284069
-0.0160033 7.26211e-06 0.00424304
-0.012093 -0.00195395 0.00396685
-0.0179195 -0.002768 0.00120333
-0.0135573 -0.00543865 0.000926364
-0.0161342 -0.00336119 0.00159808
-0.016388 -0.00162847 0.00252587
-0.0140276 -0.00369361 0.00274633
-0.0179005 -0.00121373 0.00269844
-0.0175962 -0.000558294 0.00349653
-0.0177829 -0.00188563 0.00265863
-0.0192597 -0.000653846 0.0016427
-0.0175534 -0.00259037 0.00260723
-0.00407484 0.00418287 -0.000762572
-0.0041474 0.0041772 -0.00158278
-0.000719114 0.001687 -0.000664793
-0.016752 0.00432778 0.000663206
-0.0190597 0.00243076 5.05899e-07
-0.0175382 0.0034998 0.000576819
-0.00997474 0.00395244 0.00294262
-0.0117877 0.00552188 0.00196137
-0.0119906 0.00390643 0.00289675
-0.0118531 0.00381625 0.00380832
-0.0184983 0.0032736 0.000764578
-0.019 0.00221115 0.000637102
-0.02 0 0
-0.0190153 0.00231093 0.000340811
-0.0182562 0.000613803 0.00126589
-0.0145025 0.00187423 0.00188829
-0.0143693 0.00283166 0.00185511
-0.0190171 -0.000325997 -0.00233138
-0.0167441 -0.00111522 -0.00437222
-0.0143758 0.00285951 -0.00187355
-0.0183062 0.000644339 -0.00128355
-0.0181388 0.00199796 -9.37179e-06
-0.014882 0.00396344 -0.00401765
-0.0162972 0.00254373 -0.0042971
-0.0170805 0.00254849 -0.00347229
-0.0166431 0.00327373 -0.00346703
-0.00368631 -0.0025363 0.00431538
-0.00507387 -0.00393249 0.00401382
-0.00288886 -0.00252561 0.00350942
-0.00331807 -0.00324693 0.00347784
-0.00569513 0.000888678 -0.00376751
-0.0188526 0.00215956 -0.00154795
-0.02 0 0
-0.0191012 0.00150525 -0.0016031
-0.0166438 -0.00325846 -0.00345304
-0.0148833 -0.00397511 -0.00401844
-0.016318 -0.00255535 -0.00430954
-0.0135735 0.00545488 -0.000921761
-0.0181679 0.000599181 0.00197895
-0.0180564 0.000579857 0.00274036
-0.02 0 0
-0.00550723 0.0018758 -0.00189172
-0.0145054 0.00189531 -0.00189629
-0.0100043 0.00217691 1.54481e-07
-0.0175754 0.00117466 -0.00352805
-0.0167805 0.00114028 -0.00436105
-0.0190057 0.00101115 -0.00233654
-0.0190354 0.000644448 -0.00232606
-0.02 0 0
-0.0156013 0.0042138 -0.00238885
-0.0137787 0.00365001 -0.00363813
-0.013476 0.0035621 -0.00446132
-0.0136845 0.00459703 -0.00270709
-0.0145118 -0.00188516 0.00188787
-0.0100082 -1.51965e-06 0.00215991
-0.0055134 -0.0018997 0.00187892
-0.0166589 0.00324253 0.00345267
-0.0158175 0.00404788 0.00334208
-0.0186572 0.00213439 0.00221956
-0.0174288 0.00205025 0.00321023
-0.0190127 0.00222631 -0.000628042
-0.0189355 0.00219523 -0.00104075
-0.02 0 0
-0.0118357 0.0047255 -0.00286029
-0.011767 0.00555248 -0.00197998
-0.013193 0.00436762 -0.00435625
-0.011454 0.00448543 -0.00521623
-0.012876 0.00500875 -0.00432986
-0.0018705 -0.00196584 -3.18166e-06
-0.0056373 -0.00282122 -0.00188903
-0.0192608 0.00156565 -0.000686594
-0.0193396 0.00106631 -0.00113525
-0.0175419 0.00258828 -0.00262211
-0.017777 0.00264084 -0.00190218
-0.0182967 -0.00129009 0.000639096
-0.0162414 -0.00338193 0.000786784
-0.0192629 -0.00163411 0.000677934
-0.02 0 0
-0.0193304 -0.00107272 0.00111821
-0.0193846 -0.00114644 0.000701609
-0.0117077 0.00461296 -0.00373531
-0.00997737 0.0045265 -0.00455533
-0.0115796 0.00450373 -0.00452501
-0.0115881 0.00530328 -0.00377326
-0.0192482 0.00153441 0.000702128
-0.0160459 0.00243369 0.00328786
-0.0181315 0.0012311 0.00197771
-0.0162453 0.0025034 0.0024218
-0.00419781 0.00325522 -0.00325486
-0.00240515 0.00261835 -0.00260687
-0.00646431 0.00353535 -0.0044858
-0.00609889 0.00363557 -0.00365699
-0.0100093 0.00477498 -0.00288567
-0.00604059 0.00465146 -0.00182505
-0.00418365 -0.00158913 -0.00419135
-0.00243672 -0.00120151 -0.00346441
-0.00649633 -0.0018123 -0.00541556
-0.00651944 0.00179292 -0.00541218
-0.00237076 0.000582237 -0.00346483
-0.00563053 0.00279558 -0.00190095
-0.00183229 0.00197211 -5.66944e-06
-0.00589267 0.00369477 -0.00277624
-0.00578997 0.00372958 -0.00187688
-0.0020089 0.00267599 -0.000615455
-0.00181653 0.00126431 -0.00127694
-0.00187648 0.000599702 -0.00197347
0 0 0
-0.0019932 0.00196532 -0.00193225
-0.00191408 0.00125081 -0.00197225
0 0 0
-0.00415413 0.0015606 -0.00419423
-0.00429404 0.00237527 -0.00411134
-0.0020273 0.00126126 -0.00270366
-0.000724533 0.00072417 -0.00167059
0 0 0
-0.00175572 -0.00063301 -0.0012842
-0.00185419 -7.99245e-07 -0.00199758
-0.0018383 -0.000645866 -0.00198089
-0.0134426 0.00184653 -0.00540081
-0.0159825 0.00241882 -0.00330906
-0.0179428 0.00118543 -0.00276007
-0.0194032 0.000698875 -0.00114297
-0.0193008 0.00033508 -0.00165286
-0.02 0 0
-0.0194316 -0.0011388 -0.000343057
-0.0115941 -0.00528927 0.0037367
-0.0099996 -0.00454907 0.00453802
-0.0117549 -0.00460203 0.00372913
-0.0116023 -0.00450918 0.00449864
-0.00401612 1.60803e-06 -0.0042436
-0.00821268 0.000988014 -0.00569997
-0.00591758 0.000898935 -0.00467038
-0.00407231 0.000752093 -0.00421456
-0.0117326 0.000992492 -0.00572126
-0.0162646 0.000782664 -0.00338682
-0.0141663 0.00183585 -0.00376091
-0.0161698 0.00158493 -0.00336463
-0.00549833 -0.00188357 -0.00190416
-0.00998217 -4.74312e-06 -0.00215817
-0.0144717 -0.00190388 -0.001897
-0.0100186 -0.00217044 -2.36467e-05
-0.0164959 -0.00162859 -0.00165056
-0.0162667 -0.00338287 6.1601e-06
-0.0043686 -0.00236763 -0.00417973
-0.00424574 -0.00322178 -0.00328516
-0.00647582 -0.00355896 -0.0045062
-0.00245274 -0.0025673 -0.00263405
-0.00999739 -0.00456361 -0.00456817
-0.0115736 -0.00529711 -0.00374604
-0.0115965 -0.00452146 -0.00450927
-0.0194186 0.000351218 -0.00115811
-0.0194916 0.000344221 -0.000743099
-0.02 0 0
-0.02 0 0
-0.0190587 -0.000630943 -0.00230521
-0.0120806 0.00397808 -0.00197609
-0.0099427 0.00297196 -0.00395345
-0.0119733 0.00290261 -0.00391802
-0.011922 0.00482752 -0.00193285
-0.02 0 0
-0.013693 -0.00268319 -0.00456321
-0.0138234 -0.00364012 -0.00363876
-0.0117537 -0.00461856 -0.00374061
-0.00823535 0.00563855 0.0019341
-0.00415532 0.00420128 0.00157449
-0.00592551 0.0046925 0.000926752
-0.00407619 0.00419209 0.000773134
-0.00604641 -0.00465959 -0.00182524
-0.00571431 -0.00280334 -0.0028278
-0.0155826 -0.0023702 -0.00423399
-0.0175713 -0.000543854 -0.00352099
-0.02 0 0
-0.0185093 -0.00326092 -0.000750069
-0.0135137 -0.00353826 0.00445629
-0.0155919 -0.00237628 0.00420763
-0.0134128 -0.00183917 0.00537507
-0.0137113 -0.00267897 0.00455885
-0.02 0 0
-0.0189572 -0.00218549 -0.00103389
-0.0190279 -0.00222411 -0.00062749
-0.0179753 -0.00272961 -0.000588247
-0.0182435 -0.00124342 -0.00128533
-0.0194887 -0.000730449 -0.000695715
-0.0181417 -0.001253 -0.0019765
-0.0179189 -0.00123195 -0.00269622
-0.0194254 8.72976e-06 -0.00118003
-0.0185122 -0.00329248 0.000741293
-0.02 0 0
-0.0190196 -0.00227286 0.000625348
-0.00588952 -0.00275848 -0.00374701
-0.00612533 -0.00364583 -0.00369103
-0.00605698 -0.00178727 -0.00466508
-0.0140535 -0.00373962 -0.00272701
-0.0141859 -0.00377078 -0.00181984
-0.0160325 -0.00334885 -0.00243372
-0.0134839 -0.00542965 -0.000929597
-0.0120198 -0.00391169 -0.00291189
-0.0100275 -0.00396462 -0.00296735
-0.0120509 -0.00197061 -0.00399352
-0.0119112 -0.00192421 -0.00482656
-0.0100173 -0.00289031 -0.00473334
-0.0118282 -0.0028417 -0.00471563
-0.0117476 -0.000993643 -0.00566049
-0.0194089 -0.00117564 0.00034182
-0.0194044 -0.00118142 2.80246e-06
-0.02 0 0
-0.0194904 -0.000753619 0.000340484
-0.0167837 -0.00434878 -0.000669586
-0.0190544 -0.00230509 -0.000332481
-0.0176452 -0.00354194 -0.000589278
-0.0190463 -0.00235377 0.000318171
-0.0190952 -0.00240864 -1.08259e-05
-0.0176351 -0.00357147 0.000569026
-0.0168055 -0.00436651 0.000663621
-0.0192655 -0.000657699 -0.00161741
-0.017808 -0.00187027 -0.00267258
-0.02 0 0
-0.019014 5.70025e-06 -0.00230368
-0.0185288 0.000268044 -0.00332452
-0.0190533 0.000291945 -0.00228878
-0.0193986 -0.00110382 -0.000684474
-0.0193497 -0.00109718 -0.00111151
-0.0192836 -0.00158733 -0.000671313
-0.02 0 0
-0.0171078 -0.00253337 -0.00346819
-0.0175755 -0.00256461 -0.00262748
-0.0190268 -0.00101881 -0.00226566
-0.0191162 -0.00150373 -0.00158629
-0.02 0 0
-0.0183904 -0.00313904 -0.00153157
-0.0186607 -0.00210064 -0.00220402
-0.0188576 -0.00213371 -0.00154789

CELL_DATA 236
TENSORS stress float
-6145.47 -287.605 214.785
-287.605 -1178.42 26.552
214.785 26.552 -348.675

-4892.17 87.6456 -32.2471
87.6456 165.006 177.164
-32.2471 177.164 395.668

-6702.2 -1369.33 1404.11
-1369.33 -2563.09 -471.801
1404.11 -471.801 -3197.89

-6212.97 98.4938 -196.455
98.4938 -1363.5 18.7227
-196.455 18.7227 -1297.08

-6038.72 -1294.09 -1209.81
-1294.09 -2943.28 219.844
-1209.81 219.844 -3230.95

-6009.97 614.316 -1388.85
614.316 -3791.03 -88.7733
-1388.85 -88.7733 -2888.59

-6032.29 -400.37 -609.888
-400.37 -2917.27 12.2705
-609.888 12.2705 -2768.97

-5398.57 23.9986 -93.2551
23.9986 -296.279 17.9106
-93.2551 17.9106 -273.816

-6077.82 128.413 228.214
128.413 -1304.87 -88.8267
228.214 -88.8267 -1186.01

-5783.15 -215.079 -409.536
-215.079 -2833.95 14.6009
-409.536 14.6009 -2641.69

-4702.94 -79.728 42.6934
-79.728 147.228 132.831
42.6934 132.831 150.785

-5834 -449.941 -1445.09
-449.941 -3804.16 110.823
-1445.09 110.823 -2870.92

-5657.63 341.567 -557.36
341.567 -2093.24 -4.56292
-557.36 -4.56292 -1036.24

-6133.46 -279.556 -204.935
-279.556 -1174.62 -36.5933
-204.935 -36.5933 -349.071

-5523.63 -82.8817 24.3845
-82.8817 35.5067 -52.4997
24.3845 -52.4997 -262.294

-4987.8 -50.2435 -128.52
-50.2435 253.131 -188.316
-128.52 -188.316 36.7169

-4686.8 90.6179 34.65
90.6179 141.751 -129.711
34.65 -129.711 157.451

-5691.28 534.501 96.7966
534.501 -1196.15 23.9871
96.7966 23.9871 -2105.93

-6046.6 48.9557 36.7876
48.9557 -288.681 -137.867
36.7876 -137.867 -203.555

-6124.18 -603.729 -716.06
-603.729 -2009.1 -19.5762
-716.06 -19.5762 -1574.09

-5008.33 26.007 97.7251
26.007 241.708 -170.749
97.7251 -170.749 35.7303

-6023.15 659.293 -1393.92
659.293 -3813.26 -85.9424
-1393.92 -85.9424 -2999.33

-6201.91 215.876 -1593.99
215.876 -3987.21 -104.038
-1593.99 -104.038 -2221.47

-5204.23 153.607 17.9625
153.607 -217.025 55.3082
17.9625 55.3082 114.876

-6121.69 36.8892 73.3074
36.8892 -608.931 -65.8972
73.3074 -65.8972 -516.809

-6658.38 -1380.85 -1404.16
-1380.85 -2563.93 454.871
-1404.16 454.871 -3179.84

-4911.08 -60.8936 56.9894
-60.8936 98.4305 174.842
56.9894 174.842 312.948

-6006.49 611.211 -322.96
611.211 -2185.02 12.3785
-322.96 12.3785 -2602.22

-6018.11 -292.487 -205.264
-292.487 -1029.66 -50.0372
-205.264 -50.0372 -1095.29

-5992.73 -1265.97 -1246.51
-1265.97 -2830.6 232.145
-1246.51 232.145 -3182.03

-5983.72 -426.984 -248.543
-426.984 -1359.05 -46.3057
-248.543 -46.3057 -1617.14

-5506.38 -42.533 -75.7206
-42.533 -140.704 -206.585
-75.7206 -206.585 -69.3406

-6185.05 234.733 -1569.89
234.733 -3958.67 -110.405
-1569.89 -110.405 -2270.82

-5962.31 -181.623 -127.147
-181.623 -600.781 -84.7358
-127.147 -84.7358 -851.339

-6001.68 -1277.67 1230.94
-1277.67 -2935.97 -218.405
1230.94 -218.405 -3238.64

-5031.21 38.2771 -96.9376
38.2771 216.895 195.343
-96.9376 195.343 -2.97267

-5983.79 -64.8711 -3.59468
-64.8711 -365.596 -78.6178
-3.59468 -78.6178 -483.183

-5444.29 36.7952 49.5038
36.7952 -245.167 86.8475
49.5038 86.8475 58.0534

-5239.08 -198.98 31.3587
-198.98 -207.422 -56.7375
31.3587 -56.7375 101.625

-4684.06 110.929 31.6109
110.929 136.028 -128.638
31.6109 -128.638 158.748

-5572.91 14.8397 -63.8883
14.8397 -218.411 187.671
-63.8883 187.671 -162.42

-5780.54 -498.473 -545.233
-498.473 -1955.43 -12.931
-545.233 -12.931 -1154.88

-5207.54 173.074 -28.9177
173.074 -200.858 -48.4551
-28.9177 -48.4551 116.831

-5953.77 38.4892 -244.969
38.4892 -1182.37 49.1389
-244.969 49.1389 -1046.61

-6001.49 1295.59 -1209.84
1295.59 -2918.21 -219.07
-1209.84 -219.07 -3192.4

-6647.76 -1375.7 1408.18
-1375.7 -2564.13 -456.578
1408.18 -456.578 -3187.04

-5586.97 596.359 425.725
596.359 -3602.61 16.3249
425.725 16.3249 -3746.76

-6108.89 285.18 -204.911
285.18 -1151.14 37.1163
-204.911 37.1163 -365.262

-6641.38 1364.85 -1404.19
1364.85 -2553.38 -432.71
-1404.19 -432.71 -3170.01

-6077.5 624.324 1384.73
624.324 -3872.58 111.695
1384.73 111.695 -3048.9

-5616.67 149.257 67.4096
149.257 -384.063 -139.01
67.4096 -139.01 -427.016

-6003.84 584.652 -737.788
584.652 -1982.89 1.97047
-737.788 1.97047 -1508.87

-5987.9 1270.4 1224.21
1270.4 -2917.65 209.534
1224.21 209.534 -3218.92

-5895.56 -455.848 -1422.76
-455.848 -3842.31 95.9066
-1422.76 95.9066 -2956.56

-6211.15 -218.264 -1561.6
-218.264 -4108.97 52.7341
-1561.6 52.7341 -2271.24

-6175.28 224.136 1548.23
224.136 -3981.64 115.837
1548.23 115.837 -2250.37

-4885.79 78.0007 51.9485
78.0007 148.89 -174.557
51.9485 -174.557 359.297

-6117.51 283.559 194.867
283.559 -1149.84 -31.654
194.867 -31.654 -382.009

-5450.38 -182.937 -11.322
-182.937 -291.478 -41.5434
-11.322 -41.5434 -323.786

-6083.02 1357.94 -603.032
1357.94 -3130.58 -119.166
-603.032 -119.166 -3889.81

-6135.17 1608.15 -366.934
1608.15 -2148.51 -171.424
-366.934 -171.424 -3909.12

-5773.92 -133.887 -387.277
-133.887 -1620.69 5.01785
-387.277 5.01785 -1280.32

-6143.23 -1611.27 -367.37
-1611.27 -2156.26 171.605
-367.37 171.605 -3903.07

-5983.92 256.042 15.8917
256.042 -1103.87 -24.8367
15.8917 -24.8367 -1172.4

-5661.34 358.451 511.052
358.451 -2104.82 28.6096
511.052 28.6096 -1089.97

-5711.4 -526.845 -97.8118
-526.845 -1200.7 31.8315
-97.8118 31.8315 -2119.47

-5778.51 -501.6 551.07
-501.6 -1950.11 -0.457049
551.07 -0.457049 -1155.62

-5882.72 366.218 329.858
366.218 -1367.37 -88.7538
329.858 -88.7538 -1598.88

-6115.47 1603.87 387.015
1603.87 -2127.81 155.566
387.015 155.566 -3882.43

-5943.6 1350.05 641.514
1350.05 -2994.89 93.7754
641.514 93.7754 -3738.11

-5410.42 -28.0709 -88.8109
-28.0709 -296.514 -14.5122
-88.8109 -14.5122 -277.017

-5656.3 364.464 -519.658
364.464 -2087.14 7.25974
-519.658 7.25974 -1101.02

-5988.17 590.594 727.909
590.594 -1932.5 22.5248
727.909 22.5248 -1502.77

-6649.32 1351.78 1401.49
1351.78 -2560.09 431.687
1401.49 431.687 -3195

-6109.56 -606.633 705.031
-606.633 -1998.58 -2.95491
705.031 -2.95491 -1602.18

-6126.48 -279.851 201.903
-279.851 -1178.22 34.2891
201.903 34.2891 -360.283

-5691.21 -54.5825 -36.5422
-54.5825 -147.056 -140.935
-36.5422 -140.935 -289.94

-5869.66 -1306.48 -622.103
-1306.48 -2759.23 98.6598
-622.103 98.6598 -3573.84

-5630.85 395.494 307.492
395.494 -2501.96 24.2821
307.492 24.2821 -2587.07

-6127.21 -591.876 -702.912
-591.876 -2002.82 5.49997
-702.912 5.49997 -1596.88

-5219.45 -180.397 21.2552
-180.397 -199.982 -58.1045
21.2552 -58.1045 92.482

-4715.19 -84.6261 57.1887
-84.6261 116.066 107.968
57.1887 107.968 155.896

-5849.98 -118.455 414.987
-118.455 -1610.28 50.8928
414.987 50.8928 -1235.5

-6133.64 -171.545 277.148
-171.545 -2067.42 10.7788
277.148 10.7788 -1843.94

-5972.26 -447.093 1417.65
-447.093 -3905.79 -105.09
1417.65 -105.09 -3007.66

-6206.44 205.252 1560.83
205.252 -3977.74 94.3718
1560.83 94.3718 -2210.79

-5854.4 -134.18 -382.391
-134.18 -1654.33 -63.8089
-382.391 -63.8089 -1345.8

-5403.47 -34.9544 -122.183
-34.9544 -121.699 43.5995
-122.183 43.5995 205.83

-5448.79 -190.117 27.115
-190.117 -276.51 32.7364
27.115 32.7364 -325.869

-6158.38 -1356.35 -600.401
-1356.35 -3192.3 116.634
-600.401 116.634 -3957.31

-5982.32 1355.16 -607.311
1355.16 -2945.33 -82.6627
-607.311 -82.6627 -3735.6

-6246.85 -1585.93 381.085
-1585.93 -2144.46 -133.897
381.085 -133.897 -3991.15

-5813.31 -185.779 117.944
-185.779 -543.328 147.789
117.944 147.789 -724.862

-5697.27 -531.717 102.366
-531.717 -1197.42 -15.5037
102.366 -15.5037 -2102.08

-4700.94 98.3416 -46.4748
98.3416 130.372 129.317
-46.4748 129.317 169.538

-5934.49 -1347.99 656.224
-1347.99 -2993.87 -95.0937
656.224 -95.0937 -3734.31

-5022.08 15.0625 -112.366
15.0625 232.06 183.587
-112.366 183.587 34.3333

-5434.91 -83.6155 -15.8607
-83.6155 148.351 49.1819
-15.8607 49.1819 -155.029

-5582.68 -177.016 70.2444
-177.016 -393.844 145.884
70.2444 145.884 -438.297

-5869.29 -343.999 229.246
-343.999 -861.046 91.1787
229.246 91.1787 -1187.81

-6681.15 -1371.13 -1400.34
-1371.13 -2554.33 463.433
-1400.34 463.433 -3209.35

-5144.43 42.3448 -238.84
42.3448 551.475 -107.558
-238.84 -107.558 219.451

-6213.07 -206.507 1554.81
-206.507 -4123.05 -69.6406
1554.81 -69.6406 -2258.39

-4695.16 -95.424 -46.6431
-95.424 134.479 -137.567
-46.6431 -137.567 172.588

-6107.69 -1600.46 399.521
-1600.46 -2128.32 -155.021
399.521 -155.021 -3878.96

-4704.36 -94.0411 -46.5124
-94.0411 125.842 -113.148
-46.5124 -113.148 174.348

-5990.4 -92.0269 51.7133
-92.0269 -374.391 149.138
51.7133 149.138 -530.771

-6010.5 -64.5723 21.9312
-64.5723 -372.384 56.3007
21.9312 56.3007 -461.235

-5478.61 -92.9626 -14.201
-92.9626 33.6591 -181.507
-14.201 -181.507 450.033

-5400.63 -19.4494 98.3769
-19.4494 -297.601 23.5047
98.3769 23.5047 -321.059

-5556.99 -37.1923 -22.4767
-37.1923 181.433 166.518
-22.4767 166.518 3.44125

-5528.55 -13.0083 16.0567
-13.0083 -130.311 212.991
16.0567 212.991 -74.4192

-6071.42 -36.9771 42.8924
-36.9771 -326.543 126.326
42.8924 126.326 -244.07

-6163.98 -81.2528 228.669
-81.2528 -1356.29 48.6619
228.669 48.6619 -1235.1

-5889.53 -190.436 288.009
-190.436 -1062.58 92.5968
288.009 92.5968 -835.924

-5674.27 -394.541 324.186
-394.541 -2566.87 -25.1528
324.186 -25.1528 -2623.73

-5984.78 -260.523 42.9169
-260.523 -1080.26 23.5529
42.9169 23.5529 -1162.48

-6093.19 -601.7 504.843
-601.7 -2838.62 -21.219
504.843 -21.219 -2875.98

-5845.98 -364.697 321.04
-364.697 -1334.21 106.413
321.04 106.413 -1532.38

-5534.86 -66.041 31.3557
-66.041 38.5673 -51.5507
31.3557 -51.5507 -240.949

-6193.77 -219.314 -1590.36
-219.314 -4115.34 67.3498
-1590.36 67.3498 -2213.23

-5236.22 187.931 -16.8616
187.931 -229.403 62.1207
-16.8616 62.1207 105.917

-6131.58 299.886 -206.662
299.886 -1145.04 30.2704
-206.662 30.2704 -362.057

-5033.76 30.92 77.4147
30.92 212.304 -172.458
77.4147 -172.458 47.3848

-5769.11 -505.107 -549.073
-505.107 -1988.25 12.0959
-549.073 12.0959 -1183.76

-6102.49 586.23 -722.054
586.23 -1979.2 -14.0983
-722.054 -14.0983 -1553.59

-6692.94 1358.37 -1396.74
1358.37 -2555.74 -443.257
-1396.74 -443.257 -3188.38

-5946.23 1264.41 -1207.18
1264.41 -2812.04 -220.875
-1207.18 -220.875 -3143.22

-4878.01 -77.51 -35.9614
-77.51 154.429 -183.275
-35.9614 -183.275 388.13

-5847.35 298.989 400.125
298.989 -1503.6 -37.9232
400.125 -37.9232 -1266.72

-5861.86 205.263 256.167
205.263 -1067.33 -105.455
256.167 -105.455 -933.66

-5890.87 -2.46239 43.8507
-2.46239 -73.2385 -139.578
43.8507 -139.578 -245.495

-5388.21 97.6029 15.3631
97.6029 -289.746 -32.0662
15.3631 -32.0662 -320.137

-5409.85 3.52542 -37.9349
3.52542 97.4462 -66.1076
-37.9349 -66.1076 -170.927

-6105.88 29.6962 260.876
29.6962 -1295.85 -49.647
260.876 -49.647 -1269.68

-6070.74 598.298 512.082
598.298 -2772.67 12.5137
512.082 12.5137 -2875.06

-4884.24 69.2903 48.9166
69.2903 153.131 -155.136
48.9166 -155.136 314.451

-5042.32 -7.91863 -112.46
-7.91863 247.844 -187.672
-112.46 -187.672 33.4814

-5030.85 -31.9314 104.854
-31.9314 275.903 174.774
104.854 174.774 34.9078

-5436.15 -45.895 113.446
-45.895 194.539 197.288
113.446 197.288 82.2343

-5368.72 -19.0913 103.499
-19.0913 516.609 148.088
103.499 148.088 -158.69

-4987.71 -42.4465 127.212
-42.4465 242.971 174.293
127.212 174.293 24.3856

-5452.5 -61.8625 14.0379
-61.8625 123.911 180.489
14.0379 180.489 478.159

-5681.18 -7.2928 3.42233
-7.2928 291.759 234.56
3.42233 234.56 270.849

-5518.69 2.94795 18.7799
2.94795 -104.094 -199.483
18.7799 -199.483 -89.8037

-5395.56 20.8331 93.2946
20.8331 -300.712 -22.6707
93.2946 -22.6707 -308.484

-5721.85 -581.034 66.7636
-581.034 -1241.28 -25.3528
66.7636 -25.3528 -2148.66

-6428.74 -5.26532 -5.11509
-5.26532 -465.823 -79.7612
-5.11509 -79.7612 -464.52

-5598.71 107.772 -21.8243
107.772 129.749 -110.807
-21.8243 -110.807 393.216

-5629.42 -149.175 -83.3367
-149.175 -420.473 -149.332
-83.3367 -149.332 -415.961

-5345.52 41.3939 41.7295
41.3939 330.285 -270.941
41.7295 -270.941 202.099

-5431.17 20.9913 -115.481
20.9913 -165.37 -76.8624
-115.481 -76.8624 171.55

-6135.92 299.196 206.056
299.196 -1148.9 -23.1497
206.056 -23.1497 -357.915

-5694.64 530.498 -101.06
530.498 -1190.77 -29.4087
-101.06 -29.4087 -2124.33

-5968.59 -4.96593 -71.5576
-4.96593 -444.595 89.046
-71.5576 89.046 -321.393

-5710.04 72.6764 -175.624
72.6764 -569.502 38.0878
-175.624 38.0878 -524.532

-6026.61 124.389 -213.478
124.389 -912.627 111.33
-213.478 111.33 -746.187

-5954.16 214.848 -321.607
214.848 -1341.57 73.7697
-321.607 73.7697 -1033.63

-5953.77 526.833 -677.251
526.833 -2223.19 14.5555
-677.251 14.5555 -2009.52

-5938.47 411.584 -255.296
411.584 -1356.46 43.2518
-255.296 43.2518 -1605.76

-5754.42 -595.844 -62.4488
-595.844 -1215.52 -1.68778
-62.4488 -1.68778 -2174.03

-5444.39 45.644 27.7658
45.644 150.287 -195.487
27.7658 -195.487 536.922

-6207.79 -1578.54 -393.526
-1578.54 -2063.24 146.487
-393.526 146.487 -3929.37

-6156.76 -588.392 702.846
-588.392 -2038.82 0.686228
702.846 0.686228 -1629.43

-6216.82 -203.705 -109.66
-203.705 -1299.56 -44.0182
-109.66 -44.0182 -1368.3

-5642.11 348.655 549.834
348.655 -2047.6 10.844
549.834 10.844 -988.316

-5902.74 -492.689 567.359
-492.689 -2442.39 -11.8895
567.359 -11.8895 -2092.89

-6203 -196.956 119.436
-196.956 -1254.74 18.3384
119.436 18.3384 -1331.09

-5207.19 -193.526 -5.07655
-193.526 -169.094 64.9305
-5.07655 64.9305 133.181

-5209.03 -189.486 -33.9488
-189.486 -188.104 59.4445
-33.9488 59.4445 91.4341

-6048.7 51.0926 -42.511
51.0926 -250.35 133.08
-42.511 133.08 -315.095

-5957.51 -1259.91 1225.21
-1259.91 -2794.99 -245.365
1225.21 -245.365 -3141.13

-5249.51 200.011 12.0553
200.011 -235.305 -69.1163
12.0553 -69.1163 101.351

-5277.67 123.476 8.47085
123.476 54.6708 122.894
8.47085 122.894 595.275

-6033.13 -390.105 -613.582
-390.105 -3000.95 28.6732
-613.582 28.6732 -2758.54

-6436.74 0.646688 1.93237
0.646688 -482.414 71.564
1.93237 71.564 -475.177

-5741.67 -524.172 557.615
-524.172 -1964.96 -14.8412
557.615 -14.8412 -1155.47

-5861.39 -451.801 1419.55
-451.801 -3806.67 -94.5235
1419.55 -94.5235 -2875.81

-5409.4 106.62 -21.3453
106.62 198.773 199.943
-21.3453 199.943 216.996

-6446.88 6.85838 4.14505
6.85838 -491.531 71.9093
4.14505 71.9093 -476.463

-6144.01 -283.417 -197.31
-283.417 -1177.43 -28.6107
-197.31 -28.6107 -360.226

-5959.03 -1315.83 611.012
-1315.83 -2879.4 -87.4052
611.012 -87.4052 -3682.06

-5275.19 69.4973 -37.3412
69.4973 -125.012 152.511
-37.3412 152.511 490.751

-4687.29 105.066 -42.0412
105.066 128.445 134.271
-42.0412 134.271 172.801

-6216.37 -200.978 -104.907
-200.978 -1329.9 -33.7569
-104.907 -33.7569 -1358.18

-5946.88 -694.568 499.878
-694.568 -2078.05 26.7691
499.878 26.7691 -2209.08

-5986.02 261.769 -169.627
261.769 -1701.89 11.1245
-169.627 11.1245 -1912.03

-5823.4 824.726 -684.079
824.726 -3587.28 -2.02106
-684.079 -2.02106 -3778.42

-4861.15 71.1523 -42.3235
71.1523 159.367 141.852
-42.3235 141.852 377.831

-5977.06 -452.579 -325.885
-452.579 -1498.15 -87.4072
-325.885 -87.4072 -1590.1

-5642.94 116.002 -81.6833
116.002 -413.251 127.217
-81.6833 127.217 -425.757

-5555.57 -2.11843 -22.3162
-2.11843 -10.8628 172.719
-22.3162 172.719 201.709

-5430.96 -176.978 -26.7506
-176.978 -269.104 -46.9628
-26.7506 -46.9628 -310.262

-5429.4 81.868 -0.431197
81.868 -356.539 45.7816
-0.431197 45.7816 -364.874

-6164.72 237.559 -89.4352
237.559 -1259.86 61.7184
-89.4352 61.7184 -1351.56

-5897.15 301.003 -192.452
301.003 -888.316 107.306
-192.452 107.306 -1054.18

-5693.34 321.786 -395.695
321.786 -2635.56 -10.8754
-395.695 -10.8754 -2547.63

-6052.08 494.231 -599.045
494.231 -2830.85 -11.9843
-599.045 -11.9843 -2784.88

-5781.92 302.21 -373.503
302.21 -1459.12 89.929
-373.503 89.929 -1265.5

-5838.83 -225.102 -421.875
-225.102 -2823.71 18.1112
-421.875 18.1112 -2686.51

-5753.61 -186.599 43.5821
-186.599 -609.727 87.9283
43.5821 87.9283 -674.693

-5885.63 -484.71 841.368
-484.71 -4019.29 -35.3548
841.368 -35.3548 -3671.91

-6072.79 589.061 142.516
589.061 -2162.18 -37.0277
142.516 -37.0277 -2725.3

-4905.86 -66.5092 61.5108
-66.5092 125.703 146.422
61.5108 146.422 295.767

-5356.98 22.4011 62.3371
22.4011 135.619 76.3341
62.3371 76.3341 -24.3974

-5688.99 -86.9324 27.8346
-86.9324 -101.37 82.1199
27.8346 82.1199 -338.643

-6426.86 1.2446 -3.67039
1.2446 -468.998 -64.3663
-3.67039 -64.3663 -477.112

-6161.51 149.999 111.928
149.999 -1014.33 -45.947
111.928 -45.947 -1061.25

-5593.02 -161.158 -103.908
-161.158 -401.403 -150.971
-103.908 -150.971 -425.565

-4898.67 -83.2174 -30.0535
-83.2174 119.627 -145.849
-30.0535 -145.849 309.99

-5536.99 -242.137 606.692
-242.137 -3759.66 -9.04512
606.692 -9.04512 -3509.76

-5928.23 617.474 1378.47
617.474 -3698.04 103.522
1378.47 103.522 -2825.07

-5638.85 8.80232 -20.7816
8.80232 334.703 238.29
-20.7816 238.29 360.187

-5940.07 1249.65 1203.46
1249.65 -2837.14 232.815
1203.46 232.815 -3136.01

-5405.65 -49.0998 -116.956
-49.0998 214.939 -211.429
-116.956 -211.429 93.7823

-5471.74 -27.5633 58.9789
-27.5633 -264.77 -87.3063
58.9789 -87.3063 31.0518

-5800.11 -34.8482 -55.157
-34.8482 -66.5833 -181.153
-55.157 -181.153 54.866

-5931.06 241.537 311.503
241.537 -1353.96 -106.753
311.503 -106.753 -1001.46

-6126.73 1575.22 385.381
1575.22 -2086.16 146.641
385.381 146.641 -3889.06

-5184.95 30.3548 224.056
30.3548 474.803 115.67
224.056 115.67 168.979

-5899.59 1322.16 609.379
1322.16 -2880.98 89.2458
609.379 89.2458 -3670.9

-6101.2 276.858 253.043
276.858 -1427.83 -56.8399
253.043 -56.8399 -1519.95

-6171 253.663 561.511
253.663 -2812.97 -31.007
561.511 -31.007 -2567.21

-6142.09 1610.86 -376.788
1610.86 -2117.7 -148.156
-376.788 -148.156 -3897.95

-5573.11 -28.0288 31.1095
-28.0288 167.397 -174.537
31.1095 -174.537 -58.2842

-5617.19 -99.1568 53.1196
-99.1568 -8.8244 -91.8414
53.1196 -91.8414 244.487

-5668.88 2.95706 -22.0924
2.95706 266.35 -257.12
-22.0924 -257.12 196.614

-5241.91 -20.9989 -124.849
-20.9989 703.369 -155.174
-124.849 -155.174 11.3929

-5633.85 600.998 -248.105
600.998 -3601.97 -11.8205
-248.105 -11.8205 -3852.18

-5625.98 582.597 84.2147
582.597 -1182.13 -9.88358
84.2147 -9.88358 -2086.32

-5662.49 575.3 -91.1019
575.3 -1266.06 -34.7108
-91.1019 -34.7108 -2121.02

-6026.28 529.557 671.304
529.557 -2342.83 -24.6868
671.304 -24.6868 -2116.25

-6214.85 -220.909 1560.45
-220.909 -4125.99 -63.2248
1560.45 -63.2248 -2226.13

-5939.44 813.276 669.746
813.276 -3718.98 40.6835
669.746 40.6835 -3893.24

-6091.16 587.78 727.95
587.78 -1973.73 23.2313
727.95 23.2313 -1549.62

-6697.44 1351.73 1396.4
1351.73 -2557.54 452.173
1396.4 452.173 -3203.29

