# vtk DataFile Version 3.0
vtk output at time 0.8
ASCII
DATASET UNSTRUCTURED_GRID
POINTS 1524 float
0 0 0 0 0 0.05 0 0 0.1 
0 0 0.15 0 0 0.2 0 0.05 0 
0 0.05 0.05 0 0.05 0.1 0 0.05 0.15 
0 0.05 0.2 0 0.1 0 0 0.1 0.05 
0 0.1 0.1 0 0.1 0.15 0 0.1 0.2 
0 0.15 0 0 0.15 0.05 0 0.15 0.1 
0 0.15 0.15 0 0.15 0.2 0 0.2 0 
0 0.2 0.05 0 0.2 0.1 0 0.2 0.15 
0 0.2 0.2 0.0372048 -0.00814352 -0.00870045 0.0395551 -0.00883592 0.0455049 
0.0403439 -0.00881448 0.100026 0.0396301 -0.00883913 0.154494 0.0372426 -0.00818745 0.208666 
0.0395698 0.0455924 -0.00888031 0.0395453 0.0455728 0.208914 0.0404855 0.100012 -0.00910077 
0.0404918 0.100032 0.209069 0.0396133 0.154385 -0.00880961 0.0395565 0.154426 0.20885 
0.0372861 0.208144 -0.00865604 0.0395811 0.208869 0.0455008 0.0403539 0.208846 0.100007 
0.0396202 0.208882 0.15447 0.0372688 0.208231 0.208602 0.0800584 -0.00949644 -0.00948865 
0.0799977 -0.00984358 0.0446133 0.0799419 -0.0106524 0.0999854 0.0797978 -0.00995521 0.155337 
0.0800661 -0.00950152 0.209449 0.080136 0.0445571 -0.009726 0.0801264 0.0445826 0.209757 
0.0799585 0.100033 -0.0107894 0.0800691 0.0999655 0.210712 0.0796803 0.155436 -0.00982954 
0.0797316 0.155308 0.209752 0.0800407 0.209456 -0.00947112 0.080022 0.209791 0.0445877 
0.0800968 0.210679 0.0999942 0.0799261 0.209941 0.155369 0.0800754 0.209447 0.209515 
0.122733 -0.00818135 -0.00866549 0.120643 -0.00906148 0.0455456 0.119596 -0.00917046 0.100024 
0.120445 -0.00896893 0.154539 0.122714 -0.00815708 0.208663 0.12071 0.0455601 -0.0090665 
0.120653 0.0455889 0.208964 0.119392 0.100059 -0.00925594 0.119374 0.10008 0.209157 
0.12052 0.154473 -0.00887947 0.120425 0.154441 0.208843 0.122793 0.208199 -0.00865344 
0.120643 0.209024 0.0454827 0.119586 0.209027 0.100034 0.120469 0.209101 0.154396 
0.122795 0.208215 0.208624 0.16 0 0 0.16 0 0.05 
0.16 0 0.1 0.16 0 0.15 0.16 0 0.2 
0.16 0.05 0 0.16 0.05 0.05 0.16 0.05 0.1 
0.16 0.05 0.15 0.16 0.05 0.2 0.16 0.1 0 
0.16 0.1 0.05 0.16 0.1 0.1 0.16 0.1 0.15 
0.16 0.1 0.2 0.16 0.15 0 0.16 0.15 0.05 
0.16 0.15 0.1 0.16 0.15 0.15 0.16 0.15 0.2 
0.16 0.2 0 0.16 0.2 0.05 0.16 0.2 0.1 
0.16 0.2 0.15 0.16 0.2 0.2 0 0 0.0166667 
0 0 0.0333333 0 0.0166667 0 0 0.0333333 0 
0.00830017 -0.00481446 -0.00612131 0.022143 -0.00718989 -0.00725706 0.0121097 -0.00580645 0.0124253 
0.0248671 -0.00723999 0.0284082 0 0 0.0666667 0 0 0.0833333 
0 0.0166667 0.0333333 0 0.0333333 0.0166667 0 0.0166667 0.05 
0 0.0333333 0.05 0 0.0166667 0.0666667 0 0.0333333 0.0833333 
0.0131856 -0.00590196 0.0479425 0.0258908 -0.00756464 0.046546 0 0 0.116667 
0 0 0.133333 0 0.0166667 0.1 0 0.0333333 0.1 
0.0133308 -0.00595124 0.0826377 0.0262502 -0.00743811 0.0644264 0.0138224 -0.00563505 0.10005 
0.0269224 -0.00764887 0.100042 0.0133568 -0.00590679 0.117452 0.0262927 -0.00739176 0.135626 
0 0 0.166667 0 0 0.183333 0 0.0166667 0.133333 
0 0.0333333 0.116667 0 0.0166667 0.15 0 0.0333333 0.15 
0 0.0166667 0.166667 0 0.0333333 0.183333 0.0132306 -0.00582737 0.152057 
0.0259373 -0.00750854 0.153479 0 0.0166667 0.2 0 0.0333333 0.2 
0.0121344 -0.00579631 0.187546 0.0249125 -0.00721339 0.171585 0.00832191 -0.00482928 0.206087 
0.0221732 -0.00721009 0.207226 0 0.05 0.0166667 0 0.05 0.0333333 
0 0.0666667 0 0 0.0833333 0 0 0.0666667 0.0166667 
0 0.0833333 0.0333333 0.0114865 0.0308172 -0.00576713 0.0238439 0.0106489 -0.00750629 
0.0140281 0.0303366 0.0123603 0.0269453 0.0105815 0.0283738 0.0131418 0.048163 -0.00572999 
0.0261916 0.0466918 -0.00788527 0.0134621 0.0658429 -0.00591757 0.0265671 0.0823121 -0.00766818 
0 0.05 0.0666667 0 0.05 0.0833333 0 0.0666667 0.05 
0 0.0833333 0.05 0.0148641 0.0302544 0.0479622 0.027822 0.0104691 0.0465305 
0.0146931 0.0479182 0.030224 0.0275952 0.0465549 0.0103579 0.0151072 0.0653892 0.0302027 
0.0284689 0.0822378 0.0103922 0.0285157 0.0285419 0.0464311 0.0539751 0.00832251 0.0449134 
0.0290265 0.0284527 0.0643574 0.0545964 0.00817519 0.0816232 0.028628 0.046457 0.0283821 
0.0539977 0.0449986 0.00825377 0.0291066 0.0642843 0.028396 0.0546238 0.0816805 0.00818175 
0 0.05 0.116667 0 0.05 0.133333 0 0.0666667 0.0833333 
0 0.0833333 0.0666667 0 0.0666667 0.1 0 0.0833333 0.1 
0 0.0666667 0.116667 0 0.0833333 0.133333 0.0151416 0.0302679 0.0827531 
0.0282403 0.01039 0.0643776 0.0151762 0.0302301 0.100044 0.0283318 0.010468 0.100032 
0.0151891 0.0302848 0.117354 0.0283237 0.0103964 0.135706 0.0293843 0.0284737 0.100009 
0.0548698 0.00812509 0.100045 0.0293044 0.0284245 0.117849 0.054506 0.00824895 0.136705 
0.0297909 0.0642757 0.0642956 0.0552779 0.0816535 0.026465 0 0.05 0.166667 
0 0.05 0.183333 0 0.0666667 0.15 0 0.0833333 0.15 
0.0149262 0.0303094 0.152143 0.0279459 0.0105155 0.153529 0.0147227 0.047928 0.169802 
0.027598 0.0465513 0.189679 0.0150699 0.0653758 0.169816 0.0284113 0.0822418 0.189622 
0.0288461 0.0285003 0.153666 0.0541183 0.00838513 0.155018 0.0286579 0.0464703 0.171651 
0.0539547 0.0449683 0.19177 0.0290253 0.0643125 0.17162 0.0545755 0.0816195 0.191847 
0 0.0666667 0.183333 0 0.0833333 0.166667 0 0.0666667 0.2 
0 0.0833333 0.2 0.0140396 0.0303277 0.187671 0.0270189 0.0105989 0.171634 
0.0114855 0.0307878 0.205792 0.0238695 0.0106193 0.207501 0.013129 0.0481432 0.205746 
0.0261735 0.0466741 0.207913 0.013435 0.0658367 0.205938 0.0265313 0.0823303 0.207683 
0 0.1 0.0166667 0 0.1 0.0333333 0 0.116667 0 
0 0.133333 0 0.0131783 0.100067 -0.00602784 0.0262773 0.0999366 -0.00730368 
0 0.1 0.0666667 0 0.1 0.0833333 0 0.116667 0.0333333 
0 0.133333 0.0166667 0 0.116667 0.05 0 0.133333 0.05 
0 0.116667 0.0666667 0 0.133333 0.0833333 0.0151964 0.100014 0.0302269 
0.0285947 0.1 0.0103254 0.0151365 0.117369 0.0302324 0.0282113 0.135629 0.0103987 
0.0294499 0.100006 0.0283301 0.0548831 0.0999935 0.00814818 0.0293109 0.117811 0.0283288 
0.0544787 0.136642 0.00827589 0 0.1 0.116667 0 0.1 0.133333 
0 0.116667 0.1 0 0.133333 0.1 0.029983 0.0643667 0.0999856 
0.055256 0.0264962 0.0999781 0.0298438 0.0644658 0.117793 0.0550802 0.0264954 0.1367 
0.029922 0.100005 0.0643829 0.055336 0.10001 0.0265175 0.0302024 0.0999835 0.135634 
0.0552832 0.0999796 0.173559 0.0298419 0.117795 0.0644229 0.0551044 0.136632 0.0265289 
0.0299549 0.117763 0.135624 0.0550428 0.136815 0.173524 0.0301026 0.135634 0.0999925 
0.055264 0.17353 0.0999537 0.0299045 0.135579 0.117745 0.0550568 0.173534 0.136717 
0.0566021 0.0999993 0.0999752 0.103468 0.100015 0.100012 0 0.1 0.166667 
0 0.1 0.183333 0 0.116667 0.133333 0 0.133333 0.116667 
0 0.116667 0.15 0 0.133333 0.15 0 0.116667 0.166667 
0 0.133333 0.183333 0.0152152 0.100001 0.169676 0.0286043 0.100011 0.189594 
0.0151622 0.117302 0.169681 0.0282113 0.135581 0.189581 0.0295155 0.0642852 0.15365 
0.0547284 0.0265548 0.155076 0.0294549 0.0999628 0.171562 0.0548788 0.100007 0.191915 
0.0293288 0.117789 0.171564 0.0544494 0.136744 0.191782 0.0294923 0.135648 0.153588 
0.0547505 0.173462 0.15506 0 0.116667 0.2 0 0.133333 0.2 
0.0131887 0.100082 0.206011 0.0262879 0.0999557 0.207273 0 0.15 0.0166667 
0 0.15 0.0333333 0 0.166667 0 0 0.183333 0 
0 0.166667 0.0166667 0 0.183333 0.0333333 0.0132543 0.134661 -0.00587466 
0.0264134 0.117716 -0.00753464 0.0135529 0.151832 -0.00566119 0.0265182 0.153331 -0.00781871 
0.01167 0.169061 -0.00571491 0.0239137 0.189358 -0.00744812 0.0140626 0.169556 0.0123544 
0.0269936 0.18948 0.028415 0 0.15 0.0666667 0 0.15 0.0833333 
0 0.166667 0.05 0 0.183333 0.05 0.014901 0.152127 0.0302328 
0.0279319 0.15349 0.0104307 0.0148887 0.169749 0.0479737 0.0278594 0.189563 0.046552 
0.0288221 0.1536 0.0284461 0.0540746 0.154927 0.00838868 0.0286776 0.171544 0.0464368 
0.0540373 0.191678 0.0449425 0.029096 0.171591 0.0643417 0.0545987 0.191796 0.0816106 
0 0.15 0.116667 0 0.15 0.133333 0 0.166667 0.0833333 
0 0.183333 0.0666667 0 0.166667 0.1 0 0.183333 0.1 
0 0.166667 0.116667 0 0.183333 0.133333 0.015157 0.169736 0.0827425 
0.0282691 0.189645 0.064371 0.0151929 0.169788 0.100016 0.0283379 0.189567 0.100012 
0.0151795 0.169736 0.117308 0.0283005 0.189653 0.135679 0.0295261 0.153622 0.0642744 
0.0547447 0.154989 0.0265765 0.0294287 0.171568 0.0999992 0.0548544 0.19188 0.100031 
0.0292839 0.171602 0.117817 0.0544731 0.19178 0.136712 0 0.15 0.166667 
0 0.15 0.183333 0 0.166667 0.15 0 0.183333 0.15 
0.0148832 0.152057 0.169771 0.0278804 0.153459 0.189604 0.0149195 0.169691 0.152101 
0.0279174 0.189523 0.153495 0.0287538 0.153539 0.171578 0.0539919 0.155061 0.191682 
0.0289029 0.171565 0.1536 0.0541219 0.19165 0.155 0 0.166667 0.183333 
0 0.183333 0.166667 0 0.166667 0.2 0 0.183333 0.2 
0.0132511 0.134633 0.205868 0.0264071 0.117711 0.207492 0.0135238 0.151813 0.205682 
0.0264677 0.153325 0.207845 0.0140693 0.169536 0.187656 0.0270287 0.189444 0.171586 
0.0116623 0.169059 0.205725 0.023908 0.189379 0.207442 0 0.2 0.0166667 
0 0.2 0.0333333 0.00832671 0.204709 -0.00611985 0.0221561 0.207184 -0.00720821 
0.0121434 0.205733 0.0124156 0.0248604 0.207278 0.0284265 0 0.2 0.0666667 
0 0.2 0.0833333 0.0131728 0.205891 0.0479374 0.0258615 0.207578 0.0465759 
0 0.2 0.116667 0 0.2 0.133333 0.0133289 0.205957 0.0826181 
0.0262547 0.207458 0.0644325 0.0138093 0.205647 0.100022 0.0269171 0.207679 0.100018 
0.0133344 0.205932 0.117428 0.0262564 0.207437 0.135597 0 0.2 0.166667 
0 0.2 0.183333 0.0131943 0.205845 0.152067 0.0258761 0.207541 0.153439 
0.0121491 0.20572 0.187569 0.0248698 0.207249 0.171559 0.00831991 0.204711 0.206102 
0.0221389 0.207202 0.20718 0.0379286 -0.00834109 0.00929578 0.0386463 -0.00858828 0.0274391 
0.0379635 0.00948865 -0.00855695 0.0388176 0.0274729 -0.00865104 0.0514037 -0.00903562 -0.00909961 
0.0657634 -0.0094358 -0.00940376 0.0520638 0.00878621 -0.0091969 0.0664006 0.0264325 -0.00971067 
0.0401775 -0.00891339 0.063812 0.0402562 -0.00887835 0.0819144 0.0400106 0.00933229 0.027358 
0.0399814 0.0274726 0.00918628 0.0525114 -0.00933831 0.0266478 0.06602 -0.00947542 0.00835415 
0.0529265 -0.00961406 0.044893 0.0664188 -0.00997621 0.0446281 0.0533326 -0.00975886 0.063203 
0.0667488 -0.0103449 0.0814529 0.0533181 0.00852949 0.0266651 0.0666696 0.0264455 0.00813093 
0.0402927 -0.00887513 0.118126 0.0402535 -0.00890224 0.136203 0.0537023 -0.00978053 0.100022 
0.0668855 -0.0104035 0.100014 0.038695 -0.00858678 0.172541 0.0379641 -0.00835656 0.190675 
0.0401071 0.00932837 0.17263 0.0400169 0.0274515 0.190842 0.0534741 -0.00974888 0.13672 
0.066867 -0.0103415 0.118521 0.0529197 -0.00960153 0.155049 0.0662785 -0.00996448 0.155272 
0.0525622 -0.00934708 0.173311 0.0660568 -0.00947547 0.191592 0.053395 0.00852555 0.173294 
0.0666634 0.0264503 0.191865 0.0379977 0.00944594 0.208549 0.0388276 0.0274349 0.208678 
0.051443 -0.00908319 0.209056 0.0657949 -0.00946192 0.209355 0.0520946 0.00873869 0.209186 
0.0664093 0.0264121 0.209719 0.0400517 0.0637562 -0.00892887 0.0403115 0.0818975 -0.00895745 
0.0531399 0.0449443 -0.00967724 0.0666438 0.0446224 -0.00995831 0.040007 0.0637534 0.208957 
0.0402703 0.081909 0.208971 0.0531053 0.0449161 0.209708 0.0666088 0.0446029 0.209987 
0.0403344 0.118109 -0.00891759 0.0400693 0.136228 -0.00888132 0.0536335 0.0816771 -0.00984262 
0.0667766 0.0630629 -0.0101433 0.0536572 0.100014 -0.00992628 0.066782 0.100047 -0.0104698 
0.0537012 0.118367 -0.00978996 0.0667788 0.136971 -0.0101131 0.0403181 0.118132 0.20889 
0.0400474 0.136241 0.208877 0.0535905 0.0816609 0.209859 0.0667222 0.0630299 0.210171 
0.0536614 0.100025 0.20991 0.0668267 0.100019 0.210456 0.0536767 0.118414 0.209825 
0.0667789 0.137021 0.210173 0.0388873 0.172578 -0.00859112 0.0380153 0.190558 -0.00848656 
0.0401059 0.172584 0.00926489 0.0401049 0.190755 0.0274062 0.0529786 0.154965 -0.00961245 
0.0663258 0.155239 -0.00997642 0.0400884 0.172623 0.190753 0.0401405 0.190755 0.172569 
0.0388495 0.172636 0.208609 0.037994 0.19063 0.208477 0.0529396 0.155068 0.209662 
0.0663203 0.155337 0.209982 0.0379968 0.208379 0.00932255 0.0387001 0.208657 0.0274461 
0.0521171 0.19121 -0.00915523 0.0663052 0.173503 -0.00968171 0.0514896 0.209049 -0.00906879 
0.0658085 0.209409 -0.0093794 0.0402156 0.208946 0.0638022 0.0402886 0.208908 0.0818991 
0.0534043 0.19149 0.0267143 0.0666376 0.173486 0.00816992 0.0526168 0.209361 0.0266731 
0.0661039 0.209446 0.00839352 0.0530051 0.209662 0.0448892 0.0664728 0.209966 0.0446182 
0.0534057 0.209757 0.0632145 0.0668282 0.210289 0.0814675 0.0402885 0.208919 0.118107 
0.0402356 0.20896 0.136187 0.0537188 0.209784 0.100007 0.0669311 0.210386 0.100006 
0.038703 0.208657 0.1725 0.037974 0.208413 0.190619 0.0534233 0.191533 0.173251 
0.0665991 0.173555 0.191841 0.053483 0.209786 0.136711 0.0668984 0.210309 0.118506 
0.0530028 0.209659 0.155022 0.0664246 0.210003 0.15527 0.0526233 0.209399 0.173265 
0.0661212 0.209496 0.191583 0.0520949 0.191321 0.209148 0.066309 0.173584 0.209707 
0.0514608 0.209152 0.209012 0.0658185 0.209474 0.209355 0.080009 -0.00955781 0.00834555 
0.0799982 -0.00967925 0.0264042 0.0800608 0.00835184 -0.00948804 0.0800916 0.026356 -0.00959458 
0.0942855 -0.00945638 -0.00929141 0.108561 -0.00904957 -0.0090154 0.093973 -0.00945593 0.00847629 
0.107483 -0.00930352 0.0267317 0.0799465 -0.0101298 0.0629689 0.0799003 -0.0104098 0.0814485 
0.0799471 0.00820362 0.0264039 0.0799998 0.0264218 0.00825492 0.0799223 0.0262646 0.0262757 
0.0800019 0.0630447 0.00778256 0.0936156 -0.0098406 0.0447057 0.107186 -0.0095464 0.0449728 
0.0930206 0.0263399 0.0263508 0.105877 0.0633065 0.00823475 0.0799701 -0.0104512 0.118488 
0.0799854 -0.0102423 0.136973 0.0799303 0.0258321 0.0629075 0.0800383 0.062891 0.0258819 
0.0800423 0.0259161 0.137066 0.0799875 0.0629187 0.174105 0.0932586 -0.0101397 0.0814625 
0.106806 -0.0096419 0.0632221 0.0932177 -0.0103556 0.0999941 0.106393 -0.00990655 0.100004 
0.0931535 -0.0102986 0.118488 0.106608 -0.00980572 0.136769 0.0924543 0.0260001 0.0630372 
0.105135 0.0632593 0.0264163 0.0925524 0.0260791 0.13693 0.105068 0.0632836 0.173529 
0.104753 0.0265082 0.100003 0.129887 0.0643545 0.10004 0.104838 0.0264762 0.118375 
0.130081 0.0642537 0.135676 0.0799677 -0.00966169 0.173549 0.0800275 -0.00952644 0.191612 
0.0799373 0.00820662 0.173579 0.079997 0.0264629 0.191759 0.0799507 0.0263476 0.173818 
0.0799411 0.0630684 0.192285 0.093454 -0.00980121 0.155299 0.106991 -0.00949459 0.155089 
0.0930161 0.0263817 0.173632 0.105821 0.0633493 0.191729 0.0800534 0.00835992 0.209462 
0.0800868 0.0263723 0.209586 0.0939698 -0.00941751 0.191526 0.107423 -0.00927911 0.173294 
0.0942713 -0.00941078 0.209301 0.108543 -0.00900079 0.209031 0.0800179 0.0629093 -0.00999604 
0.0800056 0.0813928 -0.0103281 0.0936911 0.0264291 -0.00962269 0.107925 0.00879026 -0.00911727 
0.0933538 0.0264721 0.00826513 0.106723 0.00853481 0.0267619 0.0935087 0.0446436 -0.00979592 
0.1071 0.0449392 -0.00948801 0.0933896 0.0629855 -0.00997129 0.106449 0.0815333 -0.00986101 
0.0800042 0.062929 0.210051 0.0800043 0.0814017 0.210363 0.0933625 0.0265053 0.191724 
0.106704 0.00857504 0.17325 0.0936831 0.0264618 0.209618 0.107926 0.00883175 0.209117 
0.0934839 0.0446667 0.209808 0.107057 0.0449608 0.209482 0.0933588 0.0630148 0.209971 
0.10634 0.0815695 0.209814 0.080006 0.118525 -0.010557 0.0799391 0.137031 -0.0102178 
0.0801674 0.137073 0.0258767 0.0800703 0.174127 0.0629121 0.0931532 0.100004 -0.0104907 
0.106238 0.0999982 -0.0100183 0.0926113 0.13695 0.0260074 0.105108 0.173592 0.0632363 
0.104753 0.0999845 0.0264617 0.129908 0.100009 0.0643802 0.104852 0.118379 0.0264473 
0.130078 0.135699 0.0642822 0.0800342 0.118475 0.210452 0.0799511 0.136969 0.210105 
0.0799684 0.137096 0.174077 0.080065 0.174112 0.137023 0.080053 0.13694 0.192266 
0.0801062 0.17372 0.173709 0.0931666 0.100002 0.210417 0.106213 0.100019 0.20995 
0.0924408 0.136955 0.173928 0.105131 0.173535 0.136707 0.0928731 0.136847 0.192162 
0.106045 0.17336 0.173313 0.104665 0.099997 0.173457 0.130015 0.099974 0.135598 
0.105143 0.100011 0.191819 0.130552 0.099966 0.171644 0.104686 0.118342 0.173532 
0.130165 0.135621 0.13567 0.105327 0.118366 0.191771 0.130797 0.135602 0.171688 
0.0799634 0.173636 -0.00959038 0.0800525 0.191617 -0.00947356 0.0799867 0.173652 0.0082525 
0.080049 0.191795 0.0264475 0.0800484 0.173868 0.0263596 0.0800273 0.192324 0.0630645 
0.0933647 0.137016 -0.0101496 0.106441 0.118405 -0.00987675 0.0934751 0.155335 -0.00994884 
0.107048 0.155052 -0.00963843 0.0936789 0.173482 -0.00960836 0.107968 0.191238 -0.00913438 
0.0933798 0.173504 0.00819917 0.106814 0.191496 0.0267453 0.0930882 0.173664 0.0263233 
0.105866 0.19179 0.0632943 0.10553 0.155096 0.0265492 0.130433 0.153653 0.0643242 
0.0799654 0.173564 0.191752 0.0800204 0.191777 0.173604 0.079969 0.173537 0.209519 
0.0800488 0.191569 0.209454 0.093295 0.137004 0.21006 0.106341 0.118389 0.209825 
0.0933858 0.155386 0.209858 0.1069 0.155103 0.209585 0.0934197 0.17348 0.191789 
0.106779 0.191509 0.173251 0.0936403 0.173512 0.209626 0.107972 0.191252 0.209132 
0.106113 0.155058 0.191619 0.131247 0.153474 0.171642 0.0800687 0.209491 0.0083553 
0.0800683 0.209623 0.0264 0.094286 0.209404 -0.00935589 0.108579 0.209079 -0.00903762 
0.0940016 0.209421 0.00842408 0.107476 0.209308 0.026742 0.0799683 0.210069 0.0629449 
0.08001 0.210375 0.0814428 0.0935155 0.209848 0.0446501 0.106971 0.209529 0.0449026 
0.0799982 0.210375 0.118474 0.0799839 0.210157 0.136966 0.0931852 0.210188 0.081458 
0.106525 0.209715 0.0632545 0.0932084 0.210384 0.100009 0.10634 0.209879 0.10002 
0.0932123 0.210152 0.11852 0.106553 0.20967 0.136751 0.104781 0.173476 0.0999888 
0.130028 0.135647 0.0999957 0.105245 0.191821 0.0999966 0.13063 0.171681 0.0999948 
0.0800274 0.209651 0.173602 0.0800557 0.209514 0.191665 0.0934106 0.209812 0.155331 
0.106948 0.209528 0.155069 0.0939761 0.209427 0.191573 0.107453 0.209347 0.173286 
0.0942667 0.2094 0.209351 0.108595 0.209078 0.209021 0.122068 -0.00843849 0.00930838 
0.12142 -0.00875331 0.0274544 0.122069 0.00939018 -0.00852721 0.121253 0.0273638 -0.00869821 
0.137946 -0.00721804 -0.00720574 0.151758 -0.00474066 -0.00608316 0.136201 0.0106037 -0.00747764 
0.148412 0.0309604 -0.00572085 0.120025 -0.00921797 0.0637785 0.119728 -0.00920716 0.0819193 
0.120071 0.00915195 0.0273338 0.120089 0.027348 0.00911462 0.118871 0.0272858 0.0272244 
0.118805 0.0638256 0.00893095 0.135238 -0.00723563 0.0284368 0.147878 -0.00572728 0.0124504 
0.134276 -0.00754534 0.0466016 0.14681 -0.00575625 0.0479703 0.133964 -0.0075051 0.0644257 
0.146687 -0.00586185 0.0826114 0.133076 0.0105669 0.0284308 0.145942 0.0304974 0.0123742 
0.132086 0.0104602 0.0465624 0.14503 0.0304201 0.0479474 0.131618 0.0102798 0.0643404 
0.144751 0.030311 0.0826869 0.131211 0.0285155 0.0464263 0.144512 0.065267 0.0479346 
0.130873 0.0284542 0.0644018 0.144275 0.0653953 0.0826958 0.119636 -0.00904444 0.118175 
0.119819 -0.00904567 0.136329 0.117703 0.0271645 0.063704 0.117822 0.0637087 0.0271813 
0.133127 -0.00783197 0.0999855 0.146178 -0.00563105 0.0999732 0.13151 0.0101806 0.0999944 
0.144782 0.030179 0.0999931 0.130742 0.0282866 0.100005 0.144286 0.0652981 0.0999737 
0.130784 0.0282988 0.117792 0.144405 0.0653107 0.134642 0.121337 -0.00868902 0.172585 
0.122037 -0.00840074 0.190701 0.120076 0.00922455 0.172675 0.120094 0.0273957 0.190851 
0.118936 0.0273145 0.172742 0.118755 0.0637802 0.190999 0.133874 -0.00755069 0.135593 
0.146692 -0.00592993 0.117347 0.134227 -0.00762939 0.153415 0.146833 -0.00583941 0.152034 
0.13523 -0.00729244 0.171576 0.147907 -0.00574651 0.187588 0.131667 0.0102088 0.135632 
0.144818 0.0302079 0.117284 0.132154 0.0103477 0.153446 0.145082 0.0303677 0.15207 
0.133122 0.010505 0.171586 0.145971 0.0304891 0.18762 0.131325 0.0283866 0.153518 
0.144559 0.0653998 0.152123 0.122072 0.00941932 0.208515 0.121243 0.0273944 0.208663 
0.137935 -0.00721917 0.207219 0.151763 -0.00472268 0.20613 0.1362 0.0106021 0.207473 
0.148409 0.0309727 0.205714 0.120092 0.0637144 -0.00922943 0.119803 0.0818812 -0.0092092 
0.133739 0.0466747 -0.00793892 0.146542 0.0481931 -0.00569602 0.132235 0.0466099 0.0102947 
0.145084 0.0480002 0.0303155 0.131891 0.064506 0.0103146 0.144847 0.0827226 0.0303563 
0.119993 0.0637771 0.209112 0.119699 0.0819459 0.209103 0.132248 0.04659 0.18971 
0.145099 0.0479952 0.169722 0.133716 0.0466451 0.207931 0.14655 0.0482026 0.205731 
0.131878 0.0644843 0.189714 0.144883 0.0827103 0.169746 0.119677 0.118181 -0.00906203 
0.120007 0.136339 -0.00895412 0.133821 0.082331 -0.00764961 0.146838 0.0654115 -0.00588535 
0.133802 0.100122 -0.00740115 0.146876 0.100002 -0.00606561 0.131404 0.100031 0.0101715 
0.144772 0.0999953 0.03029 0.130682 0.100022 0.0283055 0.144225 0.100004 0.0652946 
0.133472 0.117724 -0.00778319 0.146544 0.134159 -0.00589928 0.131514 0.11774 0.0102348 
0.144884 0.1346 0.0302517 0.130651 0.117753 0.0282665 0.144347 0.134612 0.0653327 
0.119587 0.118159 0.209009 0.119916 0.136278 0.208941 0.133644 0.0823733 0.207631 
0.146811 0.0653969 0.20597 0.131486 0.100035 0.189646 0.144825 0.099972 0.169757 
0.133683 0.100118 0.207342 0.146855 0.0999841 0.206113 0.131554 0.117748 0.189654 
0.144918 0.134595 0.169836 0.133354 0.117686 0.207718 0.146523 0.134158 0.205957 
0.12123 0.172635 -0.00864713 0.122057 0.19061 -0.00853426 0.120106 0.172612 0.00919054 
0.120087 0.190835 0.0273484 0.118961 0.172734 0.0272923 0.118776 0.191088 0.0637411 
0.133794 0.153353 -0.00792012 0.146774 0.151804 -0.00568236 0.132238 0.153467 0.0103059 
0.145111 0.151983 0.0301778 0.131373 0.153485 0.0283651 0.144543 0.152021 0.06536 
0.120058 0.172565 0.190765 0.120035 0.190752 0.172556 0.121199 0.172575 0.208624 
0.122042 0.190571 0.208509 0.132336 0.153414 0.189664 0.145178 0.151983 0.169854 
0.13377 0.153326 0.207884 0.146821 0.151836 0.205748 0.122108 0.208436 0.0093042 
0.121445 0.208759 0.0274134 0.136198 0.189388 -0.00750863 0.148493 0.169123 -0.00574552 
0.137931 0.207218 -0.00727373 0.151766 0.204774 -0.00615872 0.119996 0.209205 0.0637543 
0.119745 0.209176 0.0819326 0.133122 0.189508 0.0283806 0.145963 0.169611 0.012383 
0.132325 0.189595 0.0465377 0.145127 0.169541 0.0478953 0.131845 0.189746 0.0643929 
0.144883 0.169665 0.0827166 0.135272 0.207294 0.0283904 0.147937 0.205795 0.0123917 
0.13434 0.207633 0.0465476 0.146877 0.205865 0.047939 0.134039 0.20757 0.0644204 
0.146778 0.205985 0.0826249 0.119764 0.209165 0.118104 0.119964 0.209218 0.136215 
0.13166 0.189633 0.100015 0.144848 0.169824 0.100005 0.133109 0.207747 0.100032 
0.146201 0.205715 0.100006 0.121394 0.208676 0.172482 0.12211 0.208385 0.190632 
0.131912 0.189635 0.135649 0.144892 0.169571 0.11731 0.132364 0.189489 0.153499 
0.145162 0.169518 0.152149 0.133066 0.189407 0.171614 0.145987 0.169615 0.187672 
0.134035 0.20752 0.135612 0.146795 0.20597 0.117399 0.134214 0.207586 0.153479 
0.146839 0.20586 0.152095 0.135174 0.207218 0.171579 0.147921 0.205789 0.187598 
0.136149 0.189365 0.207494 0.148505 0.169168 0.205793 0.137869 0.207199 0.207239 
0.15171 0.204799 0.206142 0.16 0 0.0166667 0.16 0 0.0333333 
0.16 0.0166667 0 0.16 0.0333333 0 0.16 0 0.0666667 
0.16 0 0.0833333 0.16 0.0166667 0.0333333 0.16 0.0333333 0.0166667 
0.16 0.0166667 0.05 0.16 0.0333333 0.05 0.16 0.0166667 0.0666667 
0.16 0.0333333 0.0833333 0.16 0 0.116667 0.16 0 0.133333 
0.16 0.0166667 0.1 0.16 0.0333333 0.1 0.16 0 0.166667 
0.16 0 0.183333 0.16 0.0166667 0.133333 0.16 0.0333333 0.116667 
0.16 0.0166667 0.15 0.16 0.0333333 0.15 0.16 0.0166667 0.166667 
0.16 0.0333333 0.183333 0.16 0.0166667 0.2 0.16 0.0333333 0.2 
0.16 0.05 0.0166667 0.16 0.05 0.0333333 0.16 0.0666667 0 
0.16 0.0833333 0 0.16 0.0666667 0.0166667 0.16 0.0833333 0.0333333 
0.16 0.05 0.0666667 0.16 0.05 0.0833333 0.16 0.0666667 0.05 
0.16 0.0833333 0.05 0.16 0.05 0.116667 0.16 0.05 0.133333 
0.16 0.0666667 0.0833333 0.16 0.0833333 0.0666667 0.16 0.0666667 0.1 
0.16 0.0833333 0.1 0.16 0.0666667 0.116667 0.16 0.0833333 0.133333 
0.16 0.05 0.166667 0.16 0.05 0.183333 0.16 0.0666667 0.15 
0.16 0.0833333 0.15 0.16 0.0666667 0.183333 0.16 0.0833333 0.166667 
0.16 0.0666667 0.2 0.16 0.0833333 0.2 0.16 0.1 0.0166667 
0.16 0.1 0.0333333 0.16 0.116667 0 0.16 0.133333 0 
0.16 0.1 0.0666667 0.16 0.1 0.0833333 0.16 0.116667 0.0333333 
0.16 0.133333 0.0166667 0.16 0.116667 0.05 0.16 0.133333 0.05 
0.16 0.116667 0.0666667 0.16 0.133333 0.0833333 0.16 0.1 0.116667 
0.16 0.1 0.133333 0.16 0.116667 0.1 0.16 0.133333 0.1 
0.16 0.1 0.166667 0.16 0.1 0.183333 0.16 0.116667 0.133333 
0.16 0.133333 0.116667 0.16 0.116667 0.15 0.16 0.133333 0.15 
0.16 0.116667 0.166667 0.16 0.133333 0.183333 0.16 0.116667 0.2 
0.16 0.133333 0.2 0.16 0.15 0.0166667 0.16 0.15 0.0333333 
0.16 0.166667 0 0.16 0.183333 0 0.16 0.166667 0.0166667 
0.16 0.183333 0.0333333 0.16 0.15 0.0666667 0.16 0.15 0.0833333 
0.16 0.166667 0.05 0.16 0.183333 0.05 0.16 0.15 0.116667 
0.16 0.15 0.133333 0.16 0.166667 0.0833333 0.16 0.183333 0.0666667 
0.16 0.166667 0.1 0.16 0.183333 0.1 0.16 0.166667 0.116667 
0.16 0.183333 0.133333 0.16 0.15 0.166667 0.16 0.15 0.183333 
0.16 0.166667 0.15 0.16 0.183333 0.15 0.16 0.166667 0.183333 
0.16 0.183333 0.166667 0.16 0.166667 0.2 0.16 0.183333 0.2 
0.16 0.2 0.0166667 0.16 0.2 0.0333333 0.16 0.2 0.0666667 
0.16 0.2 0.0833333 0.16 0.2 0.116667 0.16 0.2 0.133333 
0.16 0.2 0.166667 0.16 0.2 0.183333 0.136289 0.207412 0.0102902 
0.149771 0.18715 -0.00589503 0.0662968 -0.00969274 0.173581 0.147372 0.205911 0.0303575 
0.16 0.183333 0.0166667 0.146729 0.18748 0.0123979 0 0.0333333 0.0333333 
0.16 0.0666667 0.166667 0 0.0666667 0.0666667 0.0536428 0.209783 0.0816278 
0.16 0.116667 0.116667 0.130266 0.0999625 0.153595 0.0520128 0.209099 0.00873719 
0.0660985 0.191564 -0.00947637 0.16 0.133333 0.166667 0.133538 0.0646007 0.207834 
0.145489 0.0654807 0.187686 0.0238212 -0.0073662 0.0103193 0.0102434 0.0128029 -0.00588402 
0.0668183 0.0815341 -0.0102846 0.107425 0.0267745 -0.00928477 0.0660898 0.00839353 -0.00950891 
0.0519167 -0.00907485 0.00870729 0.0265736 0.207645 0.117929 0.0145512 0.030358 0.0302815 
0.0525791 0.0267549 -0.00940161 0.0526415 0.00870718 0.00865157 0 0.133333 0.0333333 
0.145562 0.0826836 0.187723 0.16 0.0833333 0.183333 0.146857 0.0827412 0.206075 
0.0253569 0.171424 -0.00774492 0 0.0166667 0.0166667 0.0132841 0.0124839 0.0124014 
0.0126951 -0.0059117 0.0303842 0.0139463 0.0124847 0.0303253 0.0663795 0.209664 0.0263921 
0.0663507 0.1916 0.00837678 0.0295557 0.0642286 0.0463759 0.16 0.166667 0.166667 
0.0292097 0.0284718 0.0821843 0 0.116667 0.0166667 0.0132042 0.117329 -0.00597173 
0 0.0333333 0.166667 0.107499 0.173247 -0.00932003 0.117251 0.154613 0.136313 
0.06675 -0.0101947 0.136908 0.134818 0.17141 0.207785 0.108081 0.209098 0.191215 
0.0939672 0.19156 0.209439 0.0666551 0.191809 0.0264313 0.0264673 0.0645726 -0.00775222 
0.0141776 0.0480136 0.0122419 0.0253322 0.171436 0.207754 0 0.166667 0.0333333 
0.012724 -0.00587747 0.169602 0 0.0166667 0.183333 0.0139722 0.0125182 0.169683 
0.16 0.0833333 0.0833333 0.0257975 0.189378 0.0102233 0.0238271 0.207375 0.0103457 
0.0103409 0.18708 -0.0058582 0.0133307 0.187424 0.0124125 0.0126975 0.205884 0.0303668 
0.0139591 0.187483 0.0303173 0 0.183333 0.0166667 0 0.133333 0.166667 
0.0144331 0.152039 0.0123893 0.0145668 0.169635 0.0302886 0.027034 0.171444 0.010288 
0 0.166667 0.166667 0 0.0666667 0.0333333 0.0144735 0.0654519 0.0123298 
0 0.0833333 0.0166667 0.014581 0.0828087 0.012441 0.0145188 0.10004 0.0124212 
0.0132701 0.0828948 -0.00597506 0 0.116667 0.183333 0.0132147 0.117315 0.205944 
0.0662859 -0.00969787 0.0263613 0.0665982 0.0081397 0.0263807 0.066316 0.00836238 0.00833565 
0.0103392 0.187079 0.205852 0.0258058 0.189363 0.189769 0.0238196 0.207366 0.189628 
0.106555 0.136778 0.209717 0 0.166667 0.0666667 0.0142377 0.187602 0.0479746 
0 0.183333 0.0833333 0.0144275 0.187589 0.0654389 0.013165 0.205991 0.0653295 
0.144832 0.117271 0.169792 0 0.0166667 0.0833333 0.0131717 -0.00599229 0.065337 
0.0552485 0.173578 0.118355 0.0265129 0.135457 0.207708 0.014559 0.134567 0.187617 
0.0145271 0.117317 0.187594 0.0265686 -0.00762922 0.0821175 0.0145309 0.0123678 0.0827193 
0.0264362 0.0645731 0.207782 0 0.183333 0.116667 0.0145454 0.187608 0.117338 
0.0131804 0.205948 0.134708 0 0.166667 0.133333 0.0144495 0.187529 0.134598 
0.0150972 0.169733 0.134687 0.0142631 0.18754 0.152055 0.0416673 0.00911278 0.08191 
0.053594 -0.00978778 0.0816357 0.0283428 0.0104616 0.0822683 0.0265267 0.135483 -0.00772006 
0.0145584 0.134603 0.0123759 0.0145098 0.117356 0.0123488 0.0270319 0.171428 0.189719 
0.0144221 0.152006 0.187628 0.0281455 0.171473 0.171551 0.0145852 0.169586 0.169751 
0 0.183333 0.183333 0.0133389 0.187404 0.187584 0.0127105 0.205855 0.169626 
0.0139728 0.187444 0.169688 0.014579 0.0303812 0.169781 0.0141827 0.0480082 0.187782 
0.0133039 0.0124912 0.187593 0.0102542 0.012782 0.205873 0.0238602 -0.00736197 0.189656 
0.145811 0.187487 0.152071 0.16 0.166667 0.133333 0.0296024 0.153546 0.117778 
0 0.116667 0.116667 0.0296855 0.135607 0.135623 0.133147 0.171387 0.189784 
0.145473 0.169509 0.169793 0.0251736 0.0286047 -0.00778563 0.0268577 0.0286038 0.0102067 
0.0391042 0.00947256 0.00930231 0.0257297 0.0106414 0.0101571 0.108046 -0.00903457 0.191213 
0.0939526 0.00843013 0.209409 0.117395 0.0999991 0.0271868 0.0144474 0.065446 0.187699 
0.0151856 0.0827137 0.169756 0 0.0666667 0.166667 0.146892 0.08275 -0.00602322 
0.16 0.0833333 0.0166667 0.0417386 0.0818453 0.00906322 0.0293904 0.0821662 0.0283678 
0.015206 0.0827108 0.0302376 0.0410423 0.19088 0.0455292 0.0666757 0.210132 0.0629978 
0.0534161 0.0632663 0.209788 0.0281123 0.0644073 0.189656 0 0.0333333 0.0666667 
0.0150655 0.0302295 0.0653842 0.0142349 0.0123831 0.047976 0.0144247 0.0124008 0.0654415 
0.16 0.0333333 0.133333 0.16 0.183333 0.0833333 0.146922 0.205978 0.0652773 
0.0265952 -0.00760384 0.117957 0.0146338 0.0123176 0.100042 0.0519641 -0.00909573 0.191247 
0.0663346 0.00837205 0.191622 0.0661107 0.00836969 0.209485 0.0142831 0.0124687 0.152063 
0 0.0333333 0.133333 0.0526793 0.00868075 0.191329 0.0525833 0.0267111 0.209426 
0.0413571 0.0636858 0.190976 0.0416714 0.0818512 0.190966 0.0667844 0.0814992 0.210308 
0.040859 0.0455686 0.190985 0.0533498 0.0267431 0.191572 0.0280557 0.0285873 0.171646 
0.13104 0.171633 0.0643256 0.14734 0.205885 0.169648 0.16 0.183333 0.183333 
0.146074 0.18745 0.169706 0.106689 0.0267834 0.0085484 0.106804 0.0632208 -0.00968224 
0 0.0833333 0.183333 0.013252 0.0829218 0.205996 0.0145332 0.100035 0.187526 
0.0145651 0.0828183 0.187577 0.0661047 0.191639 0.209471 0.0520069 0.20916 0.191205 
0 0.0166667 0.116667 0.0145603 0.0124155 0.117365 0.0132126 -0.00592019 0.134721 
0.0144711 0.0124969 0.134618 0.0939642 0.00838849 -0.00940851 0.108065 -0.00906695 0.00880399 
0.107375 0.00871106 0.00874987 0.117892 0.172886 0.0636684 0.117178 0.154702 0.0636449 
0.118243 0.190975 0.100004 0.0933908 -0.010021 0.0630336 0.0417311 0.0091202 0.118134 
0.0417556 0.00911495 0.100031 0.0283809 0.0104838 0.117797 0.0536636 -0.00980006 0.118375 
0.0543295 0.0632818 0.191825 0.0541828 0.0266491 0.173452 0.0666118 0.00816018 0.173548 
0.0412252 0.0273794 0.172783 0.0553946 0.0631661 0.155157 0.054683 0.0448941 0.173511 
0.054961 0.0632056 0.173518 0.0292539 0.0821306 0.171579 0.0297321 0.0643594 0.135693 
0 0.0833333 0.116667 0.055269 0.0264501 0.118361 0.029617 0.0464646 0.117807 
0.0547604 0.00818403 0.118395 0.0292654 0.0464235 0.153698 0.0294806 0.0464163 0.1357 
0 0.0666667 0.133333 0.0291984 0.0284051 0.135738 0.041157 0.00920965 0.154501 
0.0415069 0.00908829 0.136311 0.015106 0.0302928 0.134727 0.118548 0.136289 0.190947 
0.093231 0.118493 0.210254 0.11823 0.118128 0.190968 0.105643 0.136727 0.191718 
0.16 0.116667 0.183333 0.145526 0.099989 0.187631 0.145461 0.117201 0.187625 
0.146749 0.117125 0.206049 0.134781 0.0285377 0.207798 0.134319 0.0106062 0.189795 
0.149731 0.0129202 0.205865 0.136266 -0.00739625 0.189666 0.10741 0.191332 0.191273 
0.120919 0.190574 0.190637 0.107475 0.173282 0.209342 0.145534 0.134532 0.187716 
0.13349 0.135423 0.207785 0.131809 0.135544 0.18966 0.145751 0.151935 0.187807 
0.133115 0.0285655 0.189736 0.145604 0.0480507 0.187624 0.146709 0.0125863 0.18758 
0.16 0.0166667 0.183333 0.147339 -0.00588699 0.169621 0.146073 0.0125479 0.169655 
0.16 0.0333333 0.166667 0.145426 0.0304484 0.169711 0.145745 0.0124963 0.152011 
0.0663775 0.209688 0.173558 0.0663444 0.191654 0.191611 0.0410189 0.154468 0.190893 
0.0150706 0.13463 0.169738 0.0290772 0.13567 0.171557 0.0547153 0.155121 0.173445 
0.0551093 0.155176 0.155104 0.0553665 0.136806 0.15519 0.0534542 0.136765 0.209756 
0.0414826 0.136293 0.190917 0.0283829 0.117753 0.189501 0.0668867 0.118541 0.210331 
0.0417246 0.118116 0.190916 0.0418783 0.100004 0.190941 0.0552282 0.118407 0.173608 
0.0297119 0.117801 0.15359 0.0547624 0.118406 0.191864 0.0298228 0.0999736 0.153596 
0.0294678 0.153585 0.135671 0 0.133333 0.133333 0.0291793 0.171629 0.135689 
0.0292682 0.153573 0.153634 0.0937217 0.191573 0.191593 0.0800276 0.191618 0.191638 
0.0936886 0.209589 0.173554 0.052542 0.173328 0.209383 0.0391784 0.190624 0.190619 
0.053358 0.17331 0.19152 0.0527009 0.191393 0.191291 0.0391803 0.19059 0.00936563 
0.0525755 0.173217 -0.00935255 0.0527104 0.191302 0.0087002 0.0932142 0.0814792 0.210183 
0.0931545 0.0447684 0.191892 0.0799386 0.0446748 0.192017 0.107427 0.0268026 0.209284 
0.120948 0.00938359 0.190695 0.107368 0.00875021 0.191254 0.105958 0.026667 0.17334 
0.0933348 -0.0100144 0.13694 0.0928944 0.063101 0.192062 0.0927467 0.0262136 0.15534 
0.080073 0.0261054 0.155512 0.0666453 0.191849 0.173535 0.0542219 0.173379 0.173388 
0.0411669 0.190856 0.154459 0.0412971 0.172691 0.172693 0.0283682 0.189566 0.117774 
0.0417537 0.190912 0.100015 0.0536693 0.209808 0.118363 0.131733 0.189736 0.0822602 
0.133535 0.207754 0.0821112 0.145522 0.187628 0.0826783 0.0556937 0.136837 0.136824 
0.105462 0.173484 0.155021 0.0925577 0.173898 0.136952 0.106434 0.209769 0.118392 
0.119128 0.154436 0.1909 0.132022 0.171385 0.171584 0.10677 0.173267 0.191464 
0.118923 0.172654 0.17266 0.0934374 0.191733 0.173566 0.0931493 0.155259 0.19197 
0.0800707 0.15533 0.191991 0.0666243 -0.0101742 0.0630052 0.0409563 0.00918069 0.0455079 
0.0414102 0.00910811 0.063687 0.136262 -0.00736698 0.010345 0.149732 0.0129116 -0.0058465 
0.0265789 0.207653 0.0821047 0.0146305 0.187697 0.100016 0.0283638 0.189569 0.0822547 
0.0145374 0.187633 0.0827029 0.104551 0.0632331 0.155199 0.1181 0.100008 0.190984 
0.0925092 0.0630395 0.173889 0.130939 0.0282752 0.135606 0.106373 -0.00978739 0.118387 
0.117828 0.0272126 0.136329 0.117225 0.0636596 0.154625 0.105447 0.0265733 0.155086 
0.131032 0.0643877 0.171613 0.131709 0.0822908 0.189652 0.131368 0.0464756 0.171592 
0.144965 0.0654248 0.169731 0.131958 0.028508 0.171551 0.0416886 0.190911 0.0818916 
0.0414623 0.190921 0.063689 0.0150832 0.169775 0.0653833 0.13358 0.207706 0.117937 
0.145403 0.187726 0.1 0.131819 0.189665 0.117777 0.0800884 0.17392 0.155423 
0.0932382 0.209992 0.136964 0.0928071 0.173816 0.155356 0.0931282 0.173667 0.173659 
0.146914 0.205963 0.134756 0.145593 0.187448 0.134608 0.16 0.183333 0.116667 
0.145549 0.187581 0.11734 0.130077 0.11779 0.135629 0.104229 0.136777 0.136812 
0.104581 0.155187 0.136771 0.145526 0.0827253 0.0123791 0.133642 0.0645917 -0.00782768 
0.104579 0.155243 0.0631978 0.129956 0.117845 0.0643306 0.13031 0.153646 0.0999879 
0.120954 0.190633 0.00930506 0.134842 0.17144 -0.00779225 0.133163 0.171449 0.0102281 
0.134324 0.189414 0.0101566 0.025181 0.0285727 0.207813 0.0391553 0.00945681 0.190689 
0.0268866 0.0285968 0.189827 0.0257728 0.0106426 0.189842 0.0553195 0.118327 0.0264881 
0.146086 0.187467 0.0303222 0.16 0.166667 0.0333333 0.14545 0.16953 0.0302548 
0.134289 0.0106325 0.0102049 0.120938 0.00934157 0.0092934 0.134788 0.0285457 -0.00780826 
0.106388 0.20981 0.081617 0.130311 0.117785 0.153617 0.130612 0.117764 0.17168 
0.16 0.133333 0.133333 0.0557708 0.136795 0.0631844 0.104237 0.136824 0.0631731 
0.0800121 0.137344 0.100002 0.131768 0.135556 0.0102644 0.133553 0.135469 -0.00781759 
0.145677 0.151924 0.0122776 0.145506 0.134533 0.0123614 0.16 0.133333 0.0333333 
0.119197 0.191023 0.0455239 0.106071 0.173387 0.0266543 0.106779 0.17325 0.008533 
0.106261 0.19169 0.0449928 0.104192 0.063201 0.136806 0.0799644 0.099999 0.137306 
0.0557218 0.0631642 0.136802 0.134283 0.189347 0.189829 0.136221 0.207354 0.189666 
0.146731 0.187481 0.187622 0.149754 0.18718 0.205902 0.145573 0.187468 0.0654198 
0.145795 0.187484 0.047959 0.16 0.166667 0.0666667 0.0931649 0.19194 0.0447149 
0.0932887 0.210036 0.0630059 0.107416 0.191326 0.00871976 0.0940046 0.191553 -0.00944509 
0.108057 0.2091 0.00878232 0.0296937 0.046429 0.0999859 0.0554082 0.0448349 0.0631684 
0.144949 0.169558 0.0653459 0.144767 0.151995 0.0478484 0.132003 0.171496 0.0284069 
0.131384 0.171561 0.0464104 0.129969 0.0642982 0.117841 0.117535 0.0271797 0.118152 
0.144911 0.0303073 0.134627 0.16 0.0666667 0.133333 0.144773 0.0479858 0.152118 
0.144606 0.0478841 0.134655 0.0934576 0.191758 0.0264784 0.0800507 0.19164 0.00837452 
0.0937431 0.191574 0.00841787 0.0937087 0.209624 0.0264271 0.144968 0.169515 0.134692 
0.11814 0.15452 0.172719 0.130412 0.135621 0.153654 0.117608 0.154607 0.154483 
0.0412622 0.172673 0.0273153 0.0281272 0.171525 0.0284524 0.0533904 0.173199 0.00850517 
0.0542242 0.173344 0.0266187 0.0799888 0.192046 0.0446807 0.0544078 0.191762 0.063265 
0.0414045 0.0636925 0.00905184 0.0281464 0.0644041 0.010374 0.0534733 0.063287 -0.00976197 
0.0534774 0.136674 -0.00973791 0.0283799 0.117772 0.010421 0.055444 0.155121 0.0631624 
0.0297607 0.153597 0.0999818 0.0547366 0.173421 0.0448703 0.0550195 0.173462 0.0631918 
0.0292657 0.171568 0.0821652 0.0297343 0.135674 0.064324 0.0296178 0.117788 0.0463971 
0 0.116667 0.0833333 0.0292744 0.153648 0.0463954 0.0294836 0.135663 0.0463693 
0 0.133333 0.0666667 0.0415067 0.136251 0.00906435 0.0410944 0.154427 0.00917643 
0.0291763 0.135698 0.0283601 0.0150748 0.134712 0.0302393 0 0.0833333 0.0833333 
0.0299092 0.0821694 0.0643284 0.0296992 0.100003 0.0463688 0.0296873 0.0821417 0.0463755 
0.106673 0.13679 -0.00974429 0.118281 0.15451 0.0272601 0.130898 0.135562 0.0282932 
0.144561 0.134634 0.0478913 0.144802 0.117302 0.0303023 0.16 0.133333 0.0666667 
0.144467 0.0479181 0.0826758 0.0936697 -0.00958817 0.173529 0.0799929 0.00836566 0.191617 
0.0933366 0.00826698 0.173523 0.0936763 0.00843687 0.191544 0.0418852 0.100004 0.00902072 
0.0668714 0.118512 -0.010272 0.0547732 0.118342 0.0082265 0.0417391 0.118084 0.00905959 
0.0932949 0.118511 -0.010334 0.117477 0.118137 0.0271684 0.105094 0.136754 0.0264676 
0.117761 0.136307 0.0271937 0.0557826 0.0632021 0.0631545 0.0800604 0.0999976 0.062694 
0.104255 0.063156 0.0631803 0.0799397 0.0626674 0.0999615 0.116893 0.0636727 0.063642 
0.117438 0.0271874 0.100024 0.0408759 0.0455852 0.00904971 0.0411144 0.0273867 0.0272535 
0.0533287 0.0267705 0.00844507 0.0279864 0.0285692 0.028403 0.0799946 0.00832802 0.00835711 
0.0937136 -0.00961328 0.0264754 0.0936892 0.00839607 0.00845355 0.144505 0.117332 0.0479062 
0.144319 0.117292 0.0653475 0.16 0.116667 0.0833333 0.16 0.0666667 0.0333333 
0.145471 0.0654832 0.0124011 0.0925825 0.17393 0.0630028 0.0801724 0.155523 0.0260879 
0.0928445 0.155376 0.0261495 0.092941 0.192099 0.0630747 0.16 0.0333333 0.0333333 
0.106239 0.0450073 0.00838451 0.105963 0.026632 0.0266514 0.093343 0.00822568 0.0264686 
0.0667756 0.210187 0.136906 0.0414888 0.190961 0.136289 0.0547208 0.191829 0.1184 
0.0417027 0.19092 0.118127 0.054363 0.00821927 0.063252 0.0551698 0.0448462 0.0447833 
0.119203 0.0455458 0.0089432 0.131727 0.0823161 0.0103312 0.16 0.0166667 0.0833333 
0.146846 -0.00588401 0.0652975 0.106695 0.0268159 0.191445 0.119193 0.0455606 0.190984 
0.106698 0.0632469 0.209666 0.106186 0.0450307 0.191598 0.16 0.0333333 0.0666667 
0.145707 0.0125868 0.0479963 0.145498 0.0125872 0.0654381 0.130747 0.0283793 0.0822317 
0.130104 0.0643823 0.0642984 0.144339 0.0653101 0.0653716 0.130376 0.0643353 0.0463565 
0.130946 0.0643605 0.0283968 0.144483 0.10002 0.0478745 0.146859 -0.00596193 0.134684 
0.16 0.0166667 0.116667 0.145537 0.0124759 0.134559 0.0547092 0.0448948 0.026467 
0.0541241 0.0266295 0.0265418 0.0543951 0.0633218 0.00819872 0.105382 0.0264847 0.044959 
0.105004 0.0264593 0.0632903 0.118107 0.0271824 0.045477 0.106551 -0.00976425 0.0816016 
0.0927194 0.0261564 0.0446268 0.0799329 0.0260463 0.0445186 0.092609 0.0629876 0.0260488 
0.0929486 0.06306 0.00790354 0.0799597 0.0446371 0.00805051 0.0931604 0.0447203 0.00809589 
0.093255 0.0814545 -0.0102141 0.144528 0.047858 0.117311 0.144525 0.0478693 0.100001 
0.16 0.0833333 0.116667 0.144325 0.0653128 0.117286 0.133461 -0.00770868 0.0820677 
0.145429 0.0124732 0.0826835 0.131525 0.0102763 0.0822182 0.145466 0.0123608 0.117291 
0.145319 0.0123319 0.0999809 0.131567 0.0102133 0.117757 0.133421 -0.00776049 0.117928 
0.144936 0.0654243 0.0303403 0.131275 0.0465111 0.0283952 0.16 0.116667 0.0166667 
0.145493 0.10001 0.0124405 0.146762 0.117143 -0.00599131 0.145416 0.117197 0.0124755 
0.144561 0.0479544 0.0653691 0.14471 0.0479409 0.0478959 0.144851 0.0304012 0.0653789 
0.16 0.0666667 0.0666667 0.133083 0.0285908 0.0102521 0.131877 0.028565 0.0284197 
0.145599 0.0480434 0.0124159 0.145382 0.0304784 0.0303014 0.16 0.0166667 0.0166667 
0.147314 -0.0058301 0.0303984 0.14668 0.0126119 0.0124368 0.146042 0.01262 0.0303485 

CELLS 236 4956
20 69 93 88 68 814 815 925 924 808 809 801 800 805 804 803 802 956 957 1317 961 
20 28 47 45 44 422 423 549 548 420 421 418 419 541 540 539 538 1160 1418 958 1119 
20 93 69 88 94 815 814 808 809 925 924 948 949 816 817 926 927 959 1323 960 961 
20 43 49 86 85 522 523 600 601 536 537 534 535 598 599 909 908 1345 967 1366 1279 
20 5 1 26 6 109 108 114 115 150 151 142 143 110 111 161 160 962 1111 980 991 
20 82 86 81 63 892 893 891 890 889 888 749 748 751 750 747 746 972 1290 1198 963 
20 7 11 48 6 176 177 240 241 192 193 157 156 159 158 173 172 964 1103 994 1409 
20 37 17 54 38 327 326 334 335 480 481 472 473 328 329 485 484 1277 1254 965 1292 
20 55 13 12 51 285 284 245 244 263 262 625 624 282 283 258 259 1211 1221 1212 1087 
20 90 86 49 85 915 914 601 600 603 602 911 910 909 908 598 599 966 967 1306 1330 
20 37 52 50 36 476 477 607 606 474 475 467 466 471 470 469 468 968 969 1237 993 
20 91 92 65 86 940 941 779 778 777 776 917 916 919 918 772 773 970 1184 1047 1193 
20 82 65 86 63 771 770 772 773 892 893 749 748 745 744 751 750 971 1288 972 984 
20 25 5 0 26 149 148 101 100 103 102 388 389 150 151 104 105 1093 989 973 974 
20 46 32 6 48 441 440 165 164 171 170 554 555 442 443 172 173 975 1102 1483 1386 
20 57 46 58 62 557 556 558 559 668 669 670 671 560 561 678 679 976 1135 1327 1149 
20 26 41 25 46 400 401 393 392 389 388 406 407 502 503 394 395 1037 977 982 978 
20 22 38 39 17 376 377 482 483 378 379 323 322 329 328 331 330 1276 1253 1058 979 
20 55 49 12 54 591 590 255 254 263 262 649 648 588 589 260 261 1298 1259 1050 1213 
20 26 5 6 30 151 150 142 143 161 160 398 399 152 153 162 163 1091 1008 1438 980 
20 25 30 26 46 390 391 399 398 388 389 394 395 432 433 406 407 981 1437 982 1092 
20 11 15 16 34 230 231 290 291 232 233 238 239 298 299 308 309 1068 1023 1405 983 
20 82 65 87 86 771 770 774 775 894 895 892 893 772 773 913 912 984 1183 985 986 
20 15 34 36 37 298 299 454 455 300 301 302 303 456 457 466 467 1025 1235 1015 987 
20 43 85 64 48 534 535 761 760 530 531 520 521 583 582 579 578 1431 1096 1490 1433 
20 1 5 26 0 108 109 150 151 114 115 99 98 101 100 105 104 988 989 990 991 
20 52 37 50 53 477 476 474 475 607 606 638 639 478 479 608 609 992 1006 1373 993 
20 60 80 59 86 722 723 705 704 699 698 728 729 886 887 708 709 1371 1495 1282 1504 
20 48 7 6 43 193 192 157 156 173 172 521 520 188 189 168 169 1361 996 1460 994 
20 92 71 96 91 833 832 836 837 944 945 941 940 830 831 943 942 1089 1083 995 1134 
20 26 7 43 6 183 182 188 189 404 405 161 160 157 156 169 168 1110 996 1272 1064 
20 6 26 46 42 160 161 406 407 170 171 166 167 402 403 511 510 1271 1036 1482 1436 
20 32 15 10 11 297 296 225 224 227 226 237 236 231 230 222 223 1069 997 1031 998 
20 90 71 70 49 829 828 821 820 823 822 603 602 597 596 595 594 1379 1260 1001 1297 
20 28 9 8 3 215 214 195 194 199 198 135 134 133 132 131 130 1013 999 1121 1078 
20 68 69 50 66 800 801 619 618 617 616 781 780 783 782 614 615 1314 1343 1000 1357 
20 49 90 54 70 602 603 659 658 588 589 594 595 823 822 652 653 1001 1152 1261 1308 
20 28 43 7 44 416 417 189 188 187 186 418 419 518 519 190 191 1002 1170 1176 1154 
20 92 72 71 67 841 840 827 826 833 832 799 798 795 794 793 792 1003 1191 1088 1348 
20 71 56 51 72 665 664 627 626 633 632 826 827 666 667 634 635 1004 1005 1190 1228 
20 50 37 16 53 475 474 311 310 313 312 608 609 478 479 314 315 1006 1105 1383 1380 
20 5 6 30 32 142 143 162 163 152 153 154 155 164 165 430 431 1028 1387 1007 1008 
20 39 19 35 40 359 358 356 357 461 460 486 487 360 361 462 463 1039 1009 1232 1070 
20 12 11 50 48 229 228 242 243 256 257 252 253 240 241 575 574 1408 1423 1322 1397 
20 21 15 37 16 295 294 302 303 370 371 307 306 290 291 311 310 1010 1024 1043 1020 
20 28 4 9 3 139 138 136 137 215 214 135 134 127 126 133 132 1011 1012 1013 1080 
20 80 84 58 85 882 883 695 694 693 692 884 885 900 901 696 697 1014 1474 1416 1512 
20 15 36 20 37 300 301 365 364 292 293 302 303 466 467 366 367 1015 1016 1018 1017 
20 15 20 21 37 292 293 362 363 294 295 302 303 366 367 370 371 1018 1019 1020 1021 
20 19 18 35 13 339 338 342 343 356 357 273 272 271 270 277 276 1022 1209 1052 1071 
20 39 51 35 18 488 489 465 464 461 460 345 344 347 346 343 342 1252 1208 1072 1233 
20 15 34 37 16 298 299 456 457 302 303 290 291 309 308 311 310 1023 1381 1024 1025 
20 19 23 39 18 350 351 382 383 358 359 339 338 341 340 345 344 1026 1063 1073 1077 
20 5 6 32 11 142 143 164 165 154 155 146 147 158 159 237 236 1027 1104 1030 1028 
20 10 5 32 11 145 144 154 155 226 227 222 223 146 147 237 236 1029 1030 1031 1032 
20 19 33 14 13 354 355 289 288 287 286 273 272 275 274 267 266 1053 1139 1033 1034 
20 26 41 46 42 400 401 502 503 406 407 402 403 500 501 511 510 1035 1439 1036 1037 
20 24 19 39 40 353 352 358 359 384 385 386 387 360 361 486 487 1038 1039 1040 1075 
20 51 91 67 65 636 637 797 796 630 631 628 629 777 776 769 768 1178 1195 1041 1263 
20 17 21 37 16 320 321 370 371 326 327 305 304 307 306 311 310 1042 1043 1294 1045 
20 37 22 21 17 375 374 369 368 371 370 327 326 323 322 321 320 1278 1044 1045 1046 
20 49 91 65 86 604 605 777 776 592 593 600 601 917 916 772 773 1331 1047 1280 1180 
20 7 1 26 2 113 112 114 115 182 183 119 118 106 107 121 120 1048 1049 1055 1112 
20 17 55 12 54 336 337 263 262 247 246 334 335 649 648 260 261 1457 1050 1392 1085 
20 19 33 13 35 354 355 275 274 273 272 356 357 446 447 276 277 1051 1216 1052 1053 
20 7 2 26 27 119 118 120 121 182 183 184 185 122 123 396 397 1117 1054 1066 1055 
20 33 9 8 31 221 220 195 194 203 202 435 434 218 219 200 201 1056 1079 1108 1097 
20 55 18 39 17 349 348 344 345 493 492 337 336 319 318 331 330 1226 1062 1456 1251 
20 23 22 39 17 373 372 378 379 382 383 325 324 323 322 331 330 1057 1058 1061 1059 
20 18 23 39 17 340 341 382 383 344 345 319 318 325 324 331 330 1060 1061 1062 1063 
20 26 7 27 43 183 182 184 185 396 397 404 405 188 189 410 411 1064 1155 1065 1066 
20 32 15 11 34 297 296 231 230 237 236 438 439 298 299 238 239 1067 1068 1390 1069 
20 39 19 18 35 359 358 339 338 345 344 461 460 356 357 342 343 1070 1071 1072 1073 
20 23 19 39 24 351 350 358 359 382 383 380 381 352 353 385 384 1074 1075 1076 1077 
20 28 9 31 8 215 214 218 219 414 415 199 198 195 194 201 200 1078 1079 1130 1320 
20 28 4 29 9 139 138 140 141 412 413 215 214 136 137 217 216 1080 1081 1321 1082 
20 51 91 49 71 636 637 605 604 587 586 632 633 831 830 596 597 1266 1377 1268 1181 
20 96 71 90 91 837 836 828 829 939 938 943 942 830 831 932 933 1083 1376 1084 1303 
20 13 55 12 17 284 285 263 262 245 244 268 269 337 336 246 247 1224 1085 1086 1087 
20 92 71 91 67 833 832 830 831 941 940 799 798 793 792 797 796 1088 1264 1196 1089 
20 25 5 26 30 149 148 150 151 388 389 390 391 152 153 398 399 1090 1091 1092 1093 
20 47 61 45 60 568 569 553 552 549 548 566 567 711 710 550 551 1243 1094 1420 1095 
20 33 49 8 13 450 451 209 208 203 202 275 274 281 280 196 197 1219 1165 1098 1126 
20 85 90 64 48 910 911 767 766 761 760 583 582 585 584 579 578 1312 1426 1096 1443 
20 13 9 8 33 211 210 195 194 197 196 274 275 220 221 202 203 1140 1097 1098 1099 
20 78 64 84 83 755 754 758 759 874 875 872 873 756 757 897 896 1100 1509 1101 1309 
20 6 32 11 48 164 165 237 236 158 159 172 173 442 443 240 241 1102 1421 1103 1104 
20 16 37 54 53 310 311 480 481 316 317 314 315 478 479 645 644 1105 1106 1385 1293 
20 47 33 8 31 449 448 203 202 207 206 437 436 435 434 200 201 1107 1108 1128 1125 
20 1 7 26 6 112 113 182 183 114 115 110 111 157 156 161 160 1109 1110 1111 1112 
20 76 80 60 81 862 863 723 722 719 718 864 865 880 881 724 725 1113 1368 1205 1480 
20 90 94 69 95 934 935 817 816 813 812 936 937 950 951 818 819 1114 1115 1258 1352 
20 90 50 70 66 623 622 620 621 823 822 791 790 614 615 785 784 1411 1342 1131 1150 
20 7 2 27 28 119 118 122 123 184 185 186 187 124 125 408 409 1144 1116 1156 1117 
20 29 28 47 45 413 412 422 423 428 429 426 427 420 421 549 548 1118 1119 1120 1123 
20 3 7 8 28 128 129 174 175 130 131 134 135 186 187 198 199 1146 1177 1121 1122 
20 29 28 31 47 413 412 414 415 424 425 428 429 422 423 436 437 1123 1129 1124 1319 
20 47 33 49 8 449 448 450 451 564 565 207 206 203 202 209 208 1125 1126 1158 1127 
20 28 8 31 47 199 198 200 201 414 415 422 423 206 207 436 437 1161 1128 1129 1130 
20 90 70 69 66 823 822 807 806 813 812 791 790 785 784 783 782 1131 1341 1365 1256 
20 71 97 92 96 838 839 947 946 832 833 836 837 955 954 944 945 1132 1133 1134 1350 
20 58 46 64 62 559 558 562 563 680 681 678 679 560 561 737 736 1135 1136 1461 1452 
20 13 9 33 14 211 210 220 221 274 275 266 267 212 213 289 288 1137 1138 1139 1140 
20 39 56 40 51 494 495 499 498 486 487 488 489 627 626 496 497 1207 1141 1234 1142 
20 3 7 28 2 128 129 186 187 134 135 117 116 119 118 125 124 1143 1144 1145 1146 
20 46 57 58 41 556 557 668 669 558 559 503 502 505 504 507 506 1147 1148 1441 1149 
20 90 50 48 70 623 622 575 574 585 584 823 822 620 621 580 581 1150 1449 1151 1427 
20 90 54 70 48 659 658 652 653 823 822 585 584 577 576 581 580 1311 1447 1151 1152 
20 58 43 64 42 525 524 530 531 680 681 515 514 509 508 517 516 1153 1488 1453 1484 
20 28 43 27 7 416 417 411 410 409 408 187 186 189 188 185 184 1154 1155 1156 1157 
20 8 49 47 44 208 209 565 564 206 207 204 205 543 542 541 540 1163 1240 1159 1158 
20 28 8 47 44 199 198 206 207 422 423 418 419 204 205 541 540 1175 1159 1160 1161 
20 43 49 12 44 522 523 255 254 249 248 518 519 543 542 250 251 1248 1162 1168 1347 
20 12 49 13 44 254 255 281 280 244 245 250 251 543 542 278 279 1162 1164 1166 1223 
20 49 8 13 44 209 208 196 197 281 280 543 542 204 205 278 279 1163 1171 1164 1165 
20 12 13 7 44 244 245 181 180 179 178 250 251 278 279 190 191 1166 1172 1169 1167 
20 43 12 7 44 249 248 179 178 189 188 518 519 250 251 190 191 1168 1169 1170 1360 
20 13 8 7 44 197 196 175 174 181 180 278 279 204 205 190 191 1171 1174 1172 1173 
20 7 8 28 44 174 175 198 199 186 187 190 191 204 205 418 419 1174 1175 1176 1177 
20 91 51 49 65 637 636 587 586 605 604 777 776 628 629 592 593 1178 1179 1180 1181 
20 92 87 65 86 921 920 775 774 779 778 919 918 913 912 772 773 1182 1183 1184 1185 
20 63 61 60 82 731 730 711 710 713 712 748 749 734 735 726 727 1186 1187 1197 1242 
20 60 61 77 82 710 711 732 733 720 721 726 727 734 735 868 869 1187 1188 1199 1189 
20 67 51 72 71 631 630 634 635 794 795 792 793 632 633 827 826 1265 1190 1191 1192 
20 91 92 67 65 940 941 799 798 797 796 777 776 779 778 769 768 1193 1194 1195 1196 
20 63 60 81 82 713 712 724 725 746 747 748 749 726 727 888 889 1197 1204 1198 1291 
20 76 60 77 82 719 718 720 721 860 861 866 867 726 727 868 869 1202 1199 1200 1201 
20 60 76 81 82 718 719 864 865 724 725 726 727 866 867 888 889 1202 1203 1204 1205 
20 39 56 51 55 494 495 627 626 488 489 492 493 661 660 624 625 1206 1229 1249 1207 
20 18 35 13 51 342 343 277 276 271 270 346 347 464 465 282 283 1208 1215 1210 1209 
20 55 13 51 18 285 284 282 283 625 624 349 348 270 271 347 346 1227 1210 1250 1211 
20 49 55 12 51 590 591 263 262 255 254 586 587 625 624 258 259 1269 1212 1220 1213 
20 35 33 13 51 447 446 275 274 277 276 464 465 452 453 282 283 1214 1218 1215 1216 
20 33 49 13 51 450 451 281 280 275 274 452 453 586 587 282 283 1217 1222 1218 1219 
20 49 12 13 51 255 254 244 245 281 280 586 587 258 259 282 283 1220 1221 1222 1223 
20 55 13 18 17 285 284 270 271 349 348 337 336 268 269 319 318 1224 1225 1226 1227 
20 71 56 55 51 665 664 661 660 663 662 633 632 627 626 625 624 1228 1229 1267 1230 
20 51 40 39 35 497 496 487 486 489 488 465 464 463 462 461 460 1231 1232 1233 1234 
20 37 36 50 34 467 466 468 469 474 475 457 456 455 454 459 458 1235 1236 1382 1237 
20 47 60 44 65 566 567 545 544 541 540 572 573 714 715 546 547 1468 1244 1239 1419 
20 49 47 44 65 565 564 541 540 543 542 592 593 572 573 546 547 1238 1239 1246 1240 
20 47 61 60 63 568 569 711 710 566 567 570 571 730 731 712 713 1241 1242 1465 1243 
20 43 44 60 65 518 519 544 545 528 529 532 533 546 547 714 715 1247 1244 1286 1245 
20 43 49 44 65 522 523 543 542 518 519 532 533 592 593 546 547 1281 1246 1247 1248 
20 39 51 18 55 488 489 347 346 345 344 492 493 624 625 348 349 1249 1250 1251 1252 
20 54 39 38 17 491 490 483 482 485 484 335 334 331 330 329 328 1458 1253 1254 1255 
20 90 70 95 69 823 822 824 825 936 937 813 812 807 806 819 818 1256 1257 1258 1296 
20 49 12 54 85 255 254 260 261 588 589 598 599 264 265 656 657 1346 1335 1307 1259 
20 71 49 54 70 597 596 588 589 655 654 821 820 594 595 652 653 1260 1261 1262 1300 
20 51 91 71 67 636 637 831 830 632 633 630 631 797 796 793 792 1263 1264 1265 1266 
20 49 55 51 71 590 591 625 624 586 587 596 597 662 663 632 633 1301 1267 1268 1269 
20 6 43 26 42 168 169 405 404 160 161 166 167 509 508 402 403 1459 1270 1271 1272 
20 73 58 78 57 683 682 688 689 846 847 673 672 669 668 675 674 1273 1326 1274 1522 
20 37 22 17 38 375 374 323 322 327 326 472 473 376 377 328 329 1275 1276 1277 1278 
20 43 49 65 86 522 523 592 593 532 533 536 537 600 601 772 773 1279 1280 1285 1281 
20 59 43 60 86 527 526 528 529 698 699 708 709 536 537 728 729 1367 1284 1282 1283 
20 60 43 65 86 529 528 532 533 714 715 728 729 536 537 772 773 1284 1285 1287 1286 
20 63 60 65 86 713 712 714 715 744 745 750 751 728 729 772 773 1289 1287 1288 1466 
20 60 63 81 86 712 713 746 747 724 725 728 729 750 751 890 891 1289 1290 1370 1291 
20 37 17 16 54 327 326 305 304 311 310 480 481 334 335 316 317 1292 1395 1293 1294 
20 71 95 90 70 834 835 937 936 828 829 821 820 825 824 823 822 1295 1296 1297 1305 
20 49 55 71 54 590 591 662 663 596 597 588 589 649 648 655 654 1298 1299 1300 1301 
20 95 71 90 96 835 834 828 829 937 936 952 953 836 837 938 939 1302 1303 1304 1305 
20 88 69 66 89 809 808 783 782 787 786 922 923 810 811 788 789 1325 1364 1338 1316 
20 90 49 54 85 603 602 588 589 659 658 911 910 598 599 656 657 1306 1307 1313 1308 
20 78 64 62 84 755 754 737 736 739 738 874 875 758 759 742 743 1309 1462 1446 1310 
20 90 66 89 64 791 790 788 789 929 928 767 766 753 752 765 764 1412 1336 1413 1363 
20 54 90 85 48 658 659 911 910 656 657 577 576 585 584 583 582 1311 1312 1334 1313 
20 69 68 88 66 801 800 802 803 808 809 783 782 781 780 787 786 1314 1315 1316 1317 
20 9 29 28 31 216 217 413 412 214 215 218 219 424 425 414 415 1318 1319 1320 1321 
20 54 12 50 48 261 260 256 257 611 610 577 576 252 253 575 574 1333 1322 1448 1391 
20 88 69 89 94 809 808 810 811 922 923 926 927 816 817 930 931 1323 1353 1324 1325 
20 78 58 62 57 689 688 678 679 739 738 675 674 669 668 671 670 1326 1327 1328 1516 
20 69 54 50 70 651 650 611 610 619 618 806 807 652 653 620 621 1329 1450 1344 1355 
20 90 86 91 49 915 914 916 917 932 933 603 602 601 600 605 604 1330 1331 1378 1332 
20 12 54 85 48 260 261 656 657 264 265 252 253 577 576 583 582 1333 1334 1430 1335 
20 89 66 88 64 789 788 786 787 923 922 765 764 753 752 763 762 1336 1337 1339 1338 
20 88 84 89 64 903 902 904 905 922 923 763 762 759 758 765 764 1511 1414 1339 1340 
20 69 70 50 66 806 807 621 620 619 618 783 782 785 784 614 615 1341 1342 1343 1344 
20 49 43 12 85 523 522 249 248 255 254 598 599 534 535 264 265 1345 1432 1346 1347 
20 92 72 97 71 841 840 842 843 946 947 833 832 827 826 839 838 1348 1349 1350 1351 
20 90 94 89 69 934 935 931 930 929 928 813 812 817 816 811 810 1352 1353 1362 1354 
20 69 54 53 50 651 650 645 644 647 646 619 618 611 610 609 608 1355 1384 1372 1356 
20 68 69 52 50 800 801 643 642 641 640 617 616 619 618 607 606 1357 1374 1358 1359 
20 48 7 43 12 193 192 188 189 521 520 253 252 178 179 249 248 1407 1360 1429 1361 
20 69 90 66 89 812 813 791 790 783 782 810 811 929 928 788 789 1362 1363 1364 1365 
20 59 43 86 85 527 526 536 537 708 709 706 707 534 535 909 908 1434 1366 1498 1367 
20 60 80 86 81 722 723 886 887 728 729 724 725 880 881 891 890 1368 1369 1370 1371 
20 69 53 52 50 647 646 639 638 643 642 619 618 609 608 607 606 1372 1373 1374 1375 
20 90 71 49 91 829 828 597 596 603 602 932 933 830 831 604 605 1376 1377 1378 1379 
20 50 37 34 16 475 474 457 456 459 458 313 312 311 310 309 308 1380 1381 1403 1382 
20 54 16 53 50 317 316 314 315 645 644 611 610 312 313 609 608 1393 1383 1384 1385 
20 46 32 30 6 441 440 431 430 433 432 171 170 165 164 163 162 1386 1387 1435 1388 
20 32 34 11 50 438 439 239 238 237 236 444 445 458 459 242 243 1389 1402 1424 1390 
20 12 17 54 50 246 247 334 335 260 261 256 257 332 333 611 610 1396 1394 1391 1392 
20 17 16 54 50 305 304 316 317 334 335 332 333 312 313 611 610 1399 1393 1394 1395 
20 11 17 12 50 234 235 247 246 228 229 242 243 332 333 256 257 1400 1396 1397 1398 
20 11 16 17 50 232 233 304 305 234 235 242 243 312 313 332 333 1404 1399 1400 1401 
20 11 34 16 50 238 239 309 308 232 233 242 243 458 459 312 313 1402 1403 1404 1405 
20 11 7 48 12 177 176 192 193 240 241 228 229 178 179 253 252 1406 1407 1408 1409 
20 64 50 90 66 613 612 622 623 766 767 752 753 614 615 791 790 1410 1411 1412 1428 
20 90 89 84 64 929 928 905 904 907 906 767 766 765 764 759 758 1413 1414 1442 1415 
20 85 59 58 80 707 706 677 676 697 696 885 884 704 705 692 693 1496 1501 1416 1472 
20 60 45 47 44 551 550 548 549 567 566 545 544 539 538 541 540 1417 1418 1419 1420 
20 11 32 50 48 236 237 444 445 242 243 240 241 442 443 575 574 1421 1422 1423 1424 
20 50 64 90 48 612 613 766 767 622 623 575 574 579 578 585 584 1425 1426 1427 1428 
20 43 12 85 48 249 248 264 265 534 535 520 521 252 253 583 582 1429 1430 1431 1432 
20 59 43 85 64 527 526 534 535 706 707 700 701 530 531 761 760 1485 1433 1473 1434 
20 30 6 26 46 163 162 160 161 399 398 432 433 170 171 406 407 1435 1436 1437 1438 
20 46 41 58 42 503 502 506 507 558 559 511 510 500 501 515 514 1439 1440 1454 1441 
20 90 84 85 64 907 906 900 901 911 910 767 766 759 758 761 760 1442 1477 1443 1444 
20 84 62 78 79 743 742 738 739 875 874 879 878 740 741 870 871 1506 1518 1445 1446 
20 70 54 50 48 653 652 611 610 621 620 581 580 577 576 575 574 1447 1448 1449 1450 
20 78 74 79 58 851 850 852 853 870 871 689 688 685 684 691 690 1523 1470 1519 1451 
20 58 46 42 64 559 558 511 510 515 514 680 681 562 563 516 517 1452 1493 1453 1454 
20 54 39 17 55 491 490 331 330 335 334 648 649 492 493 336 337 1455 1456 1457 1458 
20 43 6 48 42 169 168 172 173 520 521 509 508 166 167 513 512 1459 1481 1489 1460 
20 84 64 62 58 759 758 737 736 743 742 695 694 681 680 679 678 1476 1461 1507 1462 
20 58 80 75 74 692 693 859 858 686 687 684 685 855 854 849 848 1471 1463 1464 1500 
20 47 60 65 63 566 567 714 715 572 573 570 571 712 713 745 744 1465 1466 1467 1468 
20 58 80 74 79 692 693 855 854 684 685 690 691 877 876 852 853 1514 1469 1470 1471 
20 85 59 64 58 707 706 700 701 761 760 697 696 677 676 681 680 1472 1486 1475 1473 
20 84 85 64 58 900 901 761 760 759 758 695 694 697 696 681 680 1474 1475 1476 1477 
20 60 75 80 76 716 717 858 859 722 723 718 719 856 857 863 862 1478 1479 1480 1502 
20 48 6 46 42 173 172 170 171 555 554 513 512 166 167 511 510 1481 1482 1492 1483 
20 58 43 59 64 525 524 526 527 676 677 680 681 530 531 700 701 1484 1485 1486 1487 
20 64 43 48 42 531 530 520 521 579 578 517 516 509 508 513 512 1488 1489 1491 1490 
20 64 48 46 42 579 578 555 554 563 562 517 516 513 512 511 510 1491 1492 1493 1494 
20 86 59 85 80 709 708 706 707 909 908 887 886 704 705 885 884 1495 1496 1497 1498 
20 59 58 80 75 677 676 692 693 704 705 702 703 686 687 859 858 1499 1500 1503 1501 
20 60 75 59 80 716 717 703 702 699 698 722 723 858 859 704 705 1502 1503 1504 1505 
20 62 84 58 79 742 743 695 694 679 678 740 741 879 878 690 691 1506 1513 1517 1507 
20 88 84 64 83 903 902 759 758 763 762 899 898 897 896 756 757 1508 1509 1510 1511 
20 80 84 79 58 882 883 879 878 877 876 693 692 695 694 691 690 1512 1513 1514 1515 
20 78 58 79 62 689 688 690 691 870 871 739 738 678 679 741 740 1516 1517 1518 1519 
20 78 74 58 73 851 850 685 684 689 688 847 846 845 844 682 683 1520 1521 1522 1523 

CELL_TYPES 236
-1
-1
-1
-1
-1
-1
-1
-1
-1
-1
-1
-1
-1
-1
-1
-1
-1
-1
-1
-1
-1
-1
-1
-1
-1
-1
-1
-1
-1
-1
-1
-1
-1
-1
-1
-1
-1
-1
-1
-1
-1
-1
-1
-1
-1
-1
-1
-1
-1
-1
-1
-1
-1
-1
-1
-1
-1
-1
-1
-1
-1
-1
-1
-1
-1
-1
-1
-1
-1
-1
-1
-1
-1
-1
-1
-1
-1
-1
-1
-1
-1
-1
-1
-1
-1
-1
-1
-1
-1
-1
-1
-1
-1
-1
-1
-1
-1
-1
-1
-1
-1
-1
-1
-1
-1
-1
-1
-1
-1
-1
-1
-1
-1
-1
-1
-1
-1
-1
-1
-1
-1
-1
-1
-1
-1
-1
-1
-1
-1
-1
-1
-1
-1
-1
-1
-1
-1
-1
-1
-1
-1
-1
-1
-1
-1
-1
-1
-1
-1
-1
-1
-1
-1
-1
-1
-1
-1
-1
-1
-1
-1
-1
-1
-1
-1
-1
-1
-1
-1
-1
-1
-1
-1
-1
-1
-1
-1
-1
-1
-1
-1
-1
-1
-1
-1
-1
-1
-1
-1
-1
-1
-1
-1
-1
-1
-1
-1
-1
-1
-1
-1
-1
-1
-1
-1
-1
-1
-1
-1
-1
-1
-1
-1
-1
-1
-1
-1
-1
-1
-1
-1
-1
-1
-1
-1
-1
-1
-1
-1
-1
-1
-1
-1
-1
-1
-1

POINT_DATA 1524
VECTORS displacement float
0 0 0
0 0 0
0 0 0
0 0 0
0 0 0
0 0 0
0 0 0
0 0 0
0 0 0
0 0 0
0 0 0
0 0 0
0 0 0
0 0 0
0 0 0
0 0 0
0 0 0
0 0 0
0 0 0
0 0 0
0 0 0
0 0 0
0 0 0
0 0 0
0 0 0
-0.0127952 -0.00814352 -0.00870045
-0.0104449 -0.00883592 -0.00449508
-0.00965611 -0.00881448 2.60457e-05
-0.0103699 -0.00883913 0.00449387
-0.0127574 -0.00818745 0.00866632
-0.0104302 -0.00440761 -0.00888031
-0.0104547 -0.00442719 0.00891349
-0.00951449 1.16925e-05 -0.00910077
-0.00950821 3.19853e-05 0.00906943
-0.0103867 0.00438532 -0.00880961
-0.0104435 0.00442604 0.00884985
-0.0127139 0.00814386 -0.00865604
-0.0104189 0.00886949 -0.0044992
-0.0096461 0.00884648 6.89053e-06
-0.0103798 0.00888248 0.00446973
-0.0127312 0.00823063 0.00860168
-0.0199416 -0.00949644 -0.00948865
-0.0200023 -0.00984358 -0.00538675
-0.0200581 -0.0106524 -1.46396e-05
-0.0202022 -0.00995521 0.00533685
-0.0199339 -0.00950152 0.00944889
-0.019864 -0.00544293 -0.009726
-0.0198736 -0.00541738 0.00975699
-0.0200415 3.34533e-05 -0.0107894
-0.0199309 -3.44723e-05 0.0107115
-0.0203197 0.00543575 -0.00982954
-0.0202684 0.00530796 0.0097524
-0.0199593 0.00945613 -0.00947112
-0.019978 0.00979053 -0.00541231
-0.0199032 0.0106791 -5.83608e-06
-0.0200739 0.00994136 0.00536919
-0.0199246 0.00944736 0.0095147
-0.0272669 -0.00818135 -0.00866549
-0.0293569 -0.00906148 -0.00445444
-0.0304041 -0.00917046 2.38443e-05
-0.0295547 -0.00896893 0.00453873
-0.0272864 -0.00815708 0.0086632
-0.0292896 -0.00443987 -0.0090665
-0.029347 -0.00441107 0.00896376
-0.0306083 5.90431e-05 -0.00925594
-0.0306262 7.95071e-05 0.00915684
-0.0294805 0.00447284 -0.00887947
-0.0295752 0.00444086 0.00884281
-0.0272067 0.00819884 -0.00865344
-0.0293572 0.00902413 -0.00451725
-0.0304142 0.00902747 3.439e-05
-0.0295307 0.00910136 0.00439559
-0.0272054 0.00821496 0.00862425
-0.04 0 0
-0.04 0 0
-0.04 0 0
-0.04 0 0
-0.04 0 0
-0.04 0 0
-0.04 0 0
-0.04 0 0
-0.04 0 0
-0.04 0 0
-0.04 0 0
-0.04 0 0
-0.04 0 0
-0.04 0 0
-0.04 0 0
-0.04 0 0
-0.04 0 0
-0.04 0 0
-0.04 0 0
-0.04 0 0
-0.04 0 0
-0.04 0 0
-0.04 0 0
-0.04 0 0
-0.04 0 0
0 0 0
0 0 0
0 0 0
0 0 0
-0.0083665 -0.00481446 -0.00612131
-0.0111903 -0.00718989 -0.00725706
-0.00455699 -0.00580645 -0.00424132
-0.00846628 -0.00723999 -0.00492516
0 0 0
0 0 0
0 0 0
0 0 0
0 0 0
0 0 0
0 0 0
0 0 0
-0.00348108 -0.00590196 -0.00205751
-0.00744253 -0.00756464 -0.003454
0 0 0
0 0 0
0 0 0
0 0 0
-0.00333584 -0.00595124 -0.000695641
-0.00708318 -0.00743811 -0.00224029
-0.00284425 -0.00563505 4.9515e-05
-0.00641096 -0.00764887 4.20434e-05
-0.00330987 -0.00590679 0.000785659
-0.00704058 -0.00739176 0.00229297
0 0 0
0 0 0
0 0 0
0 0 0
0 0 0
0 0 0
0 0 0
0 0 0
-0.00343609 -0.00582737 0.00205746
-0.00739606 -0.00750854 0.00347907
0 0 0
0 0 0
-0.00453229 -0.00579631 0.00421315
-0.00842082 -0.00721339 0.00491866
-0.00834476 -0.00482928 0.00608659
-0.0111601 -0.00721009 0.00722584
0 0 0
0 0 0
0 0 0
0 0 0
0 0 0
0 0 0
-0.00518017 -0.00251614 -0.00576713
-0.00948939 -0.0060178 -0.00750629
-0.00263854 -0.00299676 -0.00430637
-0.00638806 -0.00608512 -0.00495954
-0.00352482 -0.001837 -0.00572999
-0.00714174 -0.00330822 -0.00788527
-0.0032046 -0.000823774 -0.00591757
-0.00676623 -0.00102123 -0.00766818
0 0 0
0 0 0
0 0 0
0 0 0
-0.00180261 -0.00307893 -0.00203776
-0.00551135 -0.00619755 -0.00346948
-0.00197357 -0.00208183 -0.00310937
-0.00573818 -0.00344512 -0.00630877
-0.00155944 -0.00127751 -0.0031306
-0.00486448 -0.00109557 -0.00627443
-0.0048176 -0.0047914 -0.00356892
-0.0126915 -0.00834416 -0.00508659
-0.00430679 -0.00488059 -0.00230926
-0.0120702 -0.00849148 -0.00171012
-0.00470528 -0.00354299 -0.00495123
-0.012669 -0.00500144 -0.00841289
-0.00422674 -0.00238241 -0.00493733
-0.0120429 -0.00165281 -0.00848491
0 0 0
0 0 0
0 0 0
0 0 0
0 0 0
0 0 0
0 0 0
0 0 0
-0.0015251 -0.0030654 -0.000580218
-0.00509308 -0.00627666 -0.00228908
-0.00149047 -0.00310321 4.42285e-05
-0.00500156 -0.00619865 3.19694e-05
-0.00147759 -0.00304857 0.000687338
-0.00500965 -0.00627023 0.00237314
-0.00394898 -0.00485967 9.47652e-06
-0.0117969 -0.00854158 4.54294e-05
-0.00402896 -0.00490887 0.00118215
-0.0121607 -0.00841772 0.00337213
-0.0035424 -0.00239097 -0.00237107
-0.0113887 -0.00167985 -0.00686833
0 0 0
0 0 0
0 0 0
0 0 0
-0.00174043 -0.00302396 0.00214271
-0.00538745 -0.00615119 0.00352863
-0.00194398 -0.002072 0.00313528
-0.00573533 -0.00344868 0.0063458
-0.00159677 -0.00129088 0.00314958
-0.00492205 -0.00109155 0.00628865
-0.00448725 -0.00483302 0.00366642
-0.0125483 -0.00828154 0.00501762
-0.0046754 -0.00352967 0.00498406
-0.012712 -0.00503173 0.00843691
-0.00430801 -0.00235416 0.0049536
-0.0120912 -0.00171381 0.00851374
0 0 0
0 0 0
0 0 0
0 0 0
-0.00262711 -0.00300564 0.00433793
-0.00631438 -0.00606775 0.00496704
-0.00518117 -0.00254556 0.00579239
-0.00946386 -0.00604738 0.00750049
-0.00353765 -0.00185682 0.00574565
-0.00715981 -0.00332592 0.00791295
-0.0032317 -0.000829963 0.00593795
-0.00680205 -0.001003 0.0076826
0 0 0
0 0 0
0 0 0
0 0 0
-0.00348834 6.6558e-05 -0.00602784
-0.00705604 -6.33972e-05 -0.00730368
0 0 0
0 0 0
0 0 0
0 0 0
0 0 0
0 0 0
0 0 0
0 0 0
-0.00147024 1.37283e-05 -0.00310642
-0.00473862 1.02504e-07 -0.00634129
-0.00153019 0.000701911 -0.00310091
-0.00512205 0.00229594 -0.00626795
-0.00388341 5.57113e-06 -0.00500324
-0.0117836 -6.54111e-06 -0.00851849
-0.00402244 0.00114429 -0.00500458
-0.012188 0.00330857 -0.00839078
0 0 0
0 0 0
0 0 0
0 0 0
-0.00335034 -0.00229993 -1.43796e-05
-0.0114107 -0.00683715 -2.19476e-05
-0.00348956 -0.00220084 0.00112634
-0.0115865 -0.00683792 0.00336699
-0.00341129 4.80969e-06 -0.00228381
-0.0113306 1.03871e-05 -0.00681581
-0.00313095 -1.65343e-05 0.0023004
-0.0113834 -2.04178e-05 0.0068921
-0.00349144 0.00112825 -0.00224376
-0.0115622 0.00329847 -0.00680448
-0.00337839 0.00109656 0.00229117
-0.0116238 0.00348118 0.00685684
-0.00323069 0.00230097 -7.474e-06
-0.0114027 0.00686371 -4.62831e-05
-0.00342887 0.0022454 0.00107787
-0.0116099 0.00686726 0.00338322
-0.0100646 -6.78364e-07 -2.48383e-05
-0.0298654 1.50835e-05 1.16744e-05
0 0 0
0 0 0
0 0 0
0 0 0
0 0 0
0 0 0
0 0 0
0 0 0
-0.00145144 9.01512e-07 0.00300891
-0.00472905 1.08553e-05 0.00626103
-0.00150443 0.00063515 0.00301465
-0.00512198 0.00224795 0.00624812
-0.00381778 -0.00238151 0.00364979
-0.0119383 -0.00677852 0.00507588
-0.00387839 -3.71626e-05 0.0048957
-0.0117878 7.09712e-06 0.00858168
-0.00400455 0.00112265 0.00489706
-0.0122173 0.00341061 0.00844857
-0.00384108 0.00231457 0.00358782
-0.0119161 0.0067956 0.0050604
0 0 0
0 0 0
-0.00347796 8.22229e-05 0.00601063
-0.00704539 -4.43154e-05 0.00727349
0 0 0
0 0 0
0 0 0
0 0 0
0 0 0
0 0 0
-0.00341239 0.00132781 -0.00587466
-0.00691989 0.0010489 -0.00753464
-0.0031138 0.00183152 -0.00566119
-0.00681514 0.00333104 -0.00781871
-0.0049967 0.00239438 -0.00571491
-0.00941965 0.00602466 -0.00744812
-0.00260403 0.00288888 -0.00431227
-0.00633972 0.00614695 -0.00491834
0 0 0
0 0 0
0 0 0
0 0 0
-0.00176566 0.00212677 -0.00310053
-0.00540145 0.00348953 -0.00623599
-0.00177798 0.00308195 -0.00202629
-0.0054739 0.00623004 -0.00344796
-0.00451127 0.00360043 -0.00488719
-0.0125921 0.00492747 -0.00827798
-0.00465573 0.00487693 -0.00356324
-0.0126293 0.00834423 -0.00505752
-0.00423735 0.00492432 -0.00232498
-0.012068 0.00846222 -0.0017227
0 0 0
0 0 0
0 0 0
0 0 0
0 0 0
0 0 0
0 0 0
0 0 0
-0.00150969 0.00306964 -0.00059085
-0.0050642 0.00631127 -0.00229568
-0.00147374 0.00312091 1.56836e-05
-0.00499544 0.00623353 1.20222e-05
-0.00148714 0.00306908 0.000641662
-0.00503286 0.00631924 0.00234568
-0.00380724 0.00362226 -0.00239226
-0.011922 0.004989 -0.0067568
-0.0039046 0.00490108 -8.14231e-07
-0.0118122 0.00854671 3.09701e-05
-0.00404941 0.00493487 0.0011505
-0.0121935 0.00844639 0.00337913
0 0 0
0 0 0
0 0 0
0 0 0
-0.00178348 0.00205715 0.00310462
-0.00545296 0.00345937 0.00627088
-0.00174719 0.00302408 0.00210113
-0.00541594 0.00618987 0.00349496
-0.0045795 0.00353936 0.0049111
-0.0126747 0.00506084 0.00834848
-0.00443047 0.00489849 0.00360015
-0.0125448 0.00831648 0.0050001
0 0 0
0 0 0
0 0 0
0 0 0
-0.00341559 0.00129923 0.00586797
-0.00692623 0.00104421 0.00749172
-0.00314283 0.00181296 0.00568212
-0.00686561 0.00332532 0.00784519
-0.00259739 0.00286976 0.00432301
-0.00630459 0.00611056 0.00491943
-0.00500433 0.00239223 0.00572513
-0.00942531 0.0060452 0.0074416
0 0 0
0 0 0
-0.00833995 0.00470932 -0.00611985
-0.0111772 0.00718427 -0.00720821
-0.0045233 0.0057327 -0.00425107
-0.0084729 0.00727801 -0.0049068
0 0 0
0 0 0
-0.00349387 0.0058912 -0.0020626
-0.00747179 0.00757784 -0.0034241
0 0 0
0 0 0
-0.00333781 0.00595662 -0.000715225
-0.00707867 0.00745781 -0.00223417
-0.00285733 0.00564728 2.23666e-05
-0.0064162 0.00767892 1.81994e-05
-0.00333226 0.00593186 0.00076154
-0.00707697 0.00743746 0.00226353
0 0 0
0 0 0
-0.00347234 0.00584472 0.00206685
-0.00745725 0.00754131 0.00343893
-0.00451756 0.00572021 0.00423584
-0.00846353 0.00724934 0.00489195
-0.00834675 0.00471142 0.00610186
-0.0111944 0.00720213 0.00717977
-0.0120714 -0.00834109 -0.00737089
-0.0113537 -0.00858828 -0.00589428
-0.0120365 -0.00717801 -0.00855695
-0.0111824 -0.00586042 -0.00865104
-0.015263 -0.00903562 -0.00909961
-0.01757 -0.0094358 -0.00940376
-0.0146029 -0.00788046 -0.0091969
-0.0169327 -0.00690082 -0.00971067
-0.00982254 -0.00891339 -0.00285465
-0.00974382 -0.00887835 -0.00141893
-0.00998937 -0.00733437 -0.00597529
-0.0100186 -0.00586077 -0.00748039
-0.0141553 -0.00933831 -0.00668554
-0.0173133 -0.00947542 -0.00831252
-0.0137402 -0.00961406 -0.00510702
-0.0169145 -0.00997621 -0.00537192
-0.0133341 -0.00975886 -0.00346366
-0.0165845 -0.0103449 -0.00188046
-0.0133486 -0.00813718 -0.00666826
-0.0166638 -0.00688782 -0.00853574
-0.00970726 -0.00887513 0.00145893
-0.00974648 -0.00890224 0.00286971
-0.0129643 -0.00978053 2.16973e-05
-0.0164479 -0.0104035 1.35775e-05
-0.011305 -0.00858678 0.00587481
-0.0120359 -0.00835656 0.00734165
-0.00989289 -0.00733829 0.00596318
-0.0099831 -0.00588185 0.00750836
-0.0131926 -0.00974888 0.00338653
-0.0164664 -0.0103415 0.0018542
-0.013747 -0.00960153 0.00504877
-0.0170548 -0.00996448 0.005272
-0.0141044 -0.00934708 0.00664407
-0.0172765 -0.00947547 0.00825847
-0.0132717 -0.00814112 0.006627
-0.01667 -0.00688302 0.00853157
-0.0120023 -0.00722073 0.0085494
-0.0111724 -0.00589846 0.00867757
-0.0152237 -0.00908319 0.00905562
-0.0175384 -0.00946192 0.00935458
-0.0145721 -0.00792797 0.00918575
-0.016924 -0.00692124 0.00971926
-0.00994825 -0.00291042 -0.00892887
-0.00968849 -0.00143583 -0.00895745
-0.0135267 -0.00505571 -0.00967724
-0.0166895 -0.00537759 -0.00995831
-0.00999296 -0.00291324 0.00895716
-0.0097297 -0.00142436 0.00897061
-0.0135613 -0.00508391 0.00970835
-0.0167245 -0.00539705 0.00998733
-0.00966561 0.00144263 -0.00891759
-0.00993066 0.00289451 -0.00888132
-0.0130332 -0.00165619 -0.00984262
-0.0165567 -0.00360375 -0.0101433
-0.0130095 1.4237e-05 -0.00992628
-0.0165513 4.69996e-05 -0.0104698
-0.0129655 0.00170078 -0.00978996
-0.0165546 0.00363721 -0.0101131
-0.00968188 0.0014658 0.00888977
-0.00995263 0.00290754 0.00887679
-0.0130762 -0.00167248 0.00985895
-0.0166111 -0.00363673 0.0101713
-0.0130053 2.46982e-05 0.00991025
-0.0165066 1.85298e-05 0.0104558
-0.0129899 0.00174683 0.00982495
-0.0165544 0.00368799 0.0101734
-0.0111127 0.00591083 -0.00859112
-0.0119847 0.00722448 -0.00848656
-0.0098941 0.00591747 -0.00740178
-0.00989508 0.0074215 -0.00592711
-0.0136881 0.00496469 -0.00961245
-0.0170075 0.00523867 -0.00997642
-0.00991165 0.00595629 0.00741952
-0.00985952 0.00742193 0.00590193
-0.0111505 0.00596978 0.00860869
-0.012006 0.00729709 0.00847666
-0.0137271 0.00506806 0.0096622
-0.017013 0.00533665 0.00998234
-0.0120032 0.00837935 -0.00734412
-0.0112999 0.00865662 -0.00588725
-0.0145496 0.00787634 -0.00915523
-0.0170281 0.0068361 -0.00968171
-0.0151771 0.00904882 -0.00906879
-0.0175248 0.00940858 -0.0093794
-0.00978436 0.00894584 -0.00286443
-0.00971135 0.00890756 -0.00143426
-0.0132624 0.00815694 -0.00661903
-0.0166957 0.00681905 -0.00849675
-0.0140499 0.00936063 -0.0066602
-0.0172295 0.00944625 -0.00827315
-0.0136616 0.00966216 -0.00511084
-0.0168605 0.00996559 -0.00538176
-0.013261 0.00975743 -0.00345218
-0.0165051 0.0102886 -0.00186581
-0.00971152 0.00891867 0.00144071
-0.00976437 0.00896028 0.00285356
-0.0129478 0.00978366 7.11059e-06
-0.0164023 0.0103861 6.47365e-06
-0.011297 0.00865719 0.0058329
-0.012026 0.00841288 0.00728565
-0.0132433 0.0082 0.00658481
-0.0167343 0.00688796 0.0085076
-0.0131837 0.00978646 0.00337721
-0.016435 0.0103091 0.00183948
-0.0136638 0.00965862 0.00502176
-0.0169087 0.0100034 0.00527006
-0.0140434 0.00939862 0.00659802
-0.0172121 0.00949565 0.00824966
-0.0145717 0.00798761 0.00914819
-0.0170243 0.00691748 0.00970693
-0.0152059 0.00915206 0.00901217
-0.0175149 0.00947407 0.00935545
-0.019991 -0.00955781 -0.00832112
-0.0200018 -0.00967925 -0.00692913
-0.0199392 -0.00831483 -0.00948804
-0.0199084 -0.00697731 -0.00959458
-0.0223812 -0.00945638 -0.00929141
-0.0247723 -0.00904957 -0.0090154
-0.0226937 -0.00945593 -0.00819037
-0.0258499 -0.00930352 -0.0066016
-0.0200535 -0.0101298 -0.00369777
-0.0200997 -0.0104098 -0.00188485
-0.0200529 -0.00846305 -0.00692948
-0.0200002 -0.00691154 -0.00841175
-0.0200777 -0.00706875 -0.00705759
-0.0199981 -0.00362197 -0.0088841
-0.023051 -0.0098406 -0.00529425
-0.0261471 -0.0095464 -0.00502719
-0.023646 -0.00699339 -0.0069825
-0.0274566 -0.00336015 -0.00843192
-0.0200299 -0.0104512 0.00182153
-0.0200146 -0.0102423 0.00363936
-0.0200697 -0.00750127 -0.0037592
-0.0199617 -0.00377567 -0.00745145
-0.0199577 -0.00741722 0.00373231
-0.0200125 -0.00374797 0.00743866
-0.0234081 -0.0101397 -0.00187087
-0.0265268 -0.0096419 -0.0034446
-0.023449 -0.0103556 -5.87797e-06
-0.0269401 -0.00990655 3.63966e-06
-0.0235132 -0.0102986 0.00182139
-0.0267256 -0.00980572 0.00343594
-0.0242123 -0.00733322 -0.00362945
-0.0281981 -0.00340735 -0.00691705
-0.0241143 -0.00725419 0.00359713
-0.0282652 -0.00338305 0.00686189
-0.0285804 -0.00682512 2.87793e-06
-0.0367794 -0.00231221 4.04584e-05
-0.0284956 -0.0068571 0.00170832
-0.0365855 -0.00241302 0.00234309
-0.0200323 -0.00966169 0.00688247
-0.0199725 -0.00952644 0.00827913
-0.0200627 -0.00846005 0.00691229
-0.020003 -0.00687044 0.00842551
-0.0200493 -0.00698578 0.00715182
-0.0200589 -0.0035983 0.00895126
-0.0232127 -0.00980121 0.00529923
-0.0263426 -0.00949459 0.0050885
-0.0236505 -0.00695165 0.00696566
-0.0275124 -0.00331742 0.0083952
-0.0199466 -0.00830675 0.00946247
-0.0199132 -0.00696098 0.00958627
-0.0226968 -0.00941751 0.00819237
-0.0259104 -0.00927911 0.00662744
-0.0223954 -0.00941078 0.00930111
-0.0247899 -0.00900079 0.00903077
-0.0199821 -0.00375736 -0.00999604
-0.0199944 -0.00194052 -0.0103281
-0.0229755 -0.00690427 -0.00962269
-0.0254082 -0.00787641 -0.00911727
-0.0233129 -0.00686118 -0.00840154
-0.0266107 -0.00813185 -0.00657145
-0.023158 -0.00535642 -0.00979592
-0.0262338 -0.00506076 -0.00948801
-0.023277 -0.0036812 -0.00997129
-0.0268845 -0.00180008 -0.00986101
-0.0199958 -0.00373768 0.0100509
-0.0199957 -0.00193167 0.0103631
-0.0233041 -0.00682801 0.00839027
-0.0266291 -0.00809163 0.0065838
-0.0229836 -0.00687152 0.00961761
-0.0254075 -0.00783492 0.00911691
-0.0231828 -0.0053333 0.00980799
-0.0262766 -0.00503918 0.00948227
-0.0233078 -0.00365189 0.0099707
-0.026993 -0.00176379 0.00981421
-0.019994 0.00185867 -0.010557
-0.0200609 0.00369727 -0.0102178
-0.0198326 0.00373983 -0.00745665
-0.0199297 0.00746028 -0.00375455
-0.0235135 4.01461e-06 -0.0104907
-0.0270958 -1.78603e-06 -0.0100183
-0.0240554 0.0036166 -0.00732594
-0.0282255 0.00692513 -0.00343036
-0.0285805 -1.55213e-05 -0.00687159
-0.0367588 8.95849e-06 -0.00228647
-0.0284815 0.00171283 -0.00688602
-0.0365887 0.00236527 -0.00238451
-0.0199658 0.00180845 0.0104519
-0.0200489 0.00363581 0.0101053
-0.0200316 0.0037627 0.00740991
-0.019935 0.00744556 0.00368966
-0.019947 0.00360687 0.00893307
-0.0198938 0.00705375 0.00704267
-0.0235001 1.66884e-06 0.0104166
-0.0271204 1.90918e-05 0.00995016
-0.0242259 0.00362201 0.00726109
-0.0282025 0.00686832 0.00337323
-0.0237936 0.00351382 0.00882859
-0.0272888 0.00669382 0.00664616
-0.028668 -2.96785e-06 0.00679081
-0.036652 -2.60406e-05 0.00226424
-0.0281907 1.11194e-05 0.00848551
-0.0361151 -3.39628e-05 0.00497778
-0.0286471 0.00167571 0.00686576
-0.0365021 0.00228739 0.00233629
-0.0280068 0.00169925 0.00843768
-0.0358701 0.00226887 0.00502178
-0.0200366 0.0069692 -0.00959038
-0.0199475 0.00828341 -0.00947356
-0.0200133 0.00698579 -0.00841417
-0.019951 0.00846217 -0.00688584
-0.0199516 0.00720113 -0.00697378
-0.0199727 0.00899054 -0.00360219
-0.023302 0.00368281 -0.0101496
-0.0268921 0.00173821 -0.00987675
-0.0231916 0.00533482 -0.00994884
-0.0262853 0.00505223 -0.00963843
-0.0229877 0.0068153 -0.00960836
-0.0253657 0.00790437 -0.00913438
-0.0232869 0.00683753 -0.00846749
-0.0265192 0.00816307 -0.00658806
-0.0235785 0.00699761 -0.00701001
-0.0274672 0.00845647 -0.00337236
-0.0278029 0.00509634 -0.00678416
-0.0362333 0.00365289 -0.00234249
-0.0200346 0.006897 0.00841861
-0.0199796 0.00844366 0.00693777
-0.020031 0.00687056 0.00951947
-0.0199512 0.00823582 0.00945378
-0.0233717 0.00367077 0.0100595
-0.0269926 0.0017221 0.00982471
-0.0232808 0.00538598 0.0098582
-0.026433 0.0051033 0.00958516
-0.0232469 0.00681322 0.00845615
-0.0265539 0.00817579 0.00658385
-0.0230264 0.0068455 0.00962575
-0.0253611 0.00791877 0.00913242
-0.0272199 0.00505779 0.00828534
-0.0354193 0.00347446 0.00497559
-0.0199313 0.00949095 -0.00831137
-0.0199317 0.00962271 -0.00693334
-0.0223807 0.00940433 -0.00935589
-0.0247543 0.00907883 -0.00903762
-0.0226651 0.00942117 -0.00824259
-0.025857 0.00930818 -0.00659128
-0.0200317 0.0100689 -0.00372178
-0.01999 0.0103751 -0.00189056
-0.0231512 0.0098482 -0.00534988
-0.0263625 0.00952935 -0.00509738
-0.0200018 0.0103754 0.00180685
-0.0200161 0.0101573 0.00363309
-0.0234815 0.0101876 -0.00187529
-0.0268082 0.00971468 -0.00341215
-0.0234583 0.0103835 8.911e-06
-0.0269933 0.0098794 1.98147e-05
-0.0234544 0.0101521 0.0018529
-0.0267806 0.00966957 0.00341721
-0.0285527 0.00680966 -1.11806e-05
-0.0366383 0.0023132 -4.26366e-06
-0.0280883 0.00848746 -3.42477e-06
-0.0360368 0.00501433 -5.23939e-06
-0.0199726 0.00965091 0.00693502
-0.0199443 0.00951446 0.0083319
-0.023256 0.00981182 0.00533124
-0.0263857 0.00952828 0.00506943
-0.0226905 0.00942736 0.00823997
-0.0258798 0.009347 0.00661927
-0.0224 0.00940012 0.00935128
-0.0247387 0.00907829 0.00902064
-0.0279319 -0.00843849 -0.00735829
-0.0285801 -0.00875331 -0.00587889
-0.0279309 -0.00727649 -0.00852721
-0.028747 -0.00596949 -0.00869821
-0.0287207 -0.00721804 -0.00720574
-0.0315749 -0.00474066 -0.00608316
-0.030466 -0.00606301 -0.00747764
-0.0349213 -0.00237289 -0.00572085
-0.0299746 -0.00921797 -0.0028882
-0.0302722 -0.00920716 -0.00141408
-0.029929 -0.00751472 -0.0059995
-0.0299107 -0.00598533 -0.00755204
-0.0311291 -0.00604757 -0.00610893
-0.0311946 -0.00284105 -0.00773572
-0.0314283 -0.00723563 -0.00489651
-0.0354551 -0.00572728 -0.00421628
-0.0323911 -0.00754534 -0.00339839
-0.0365231 -0.00575625 -0.00202967
-0.0327029 -0.0075051 -0.00224102
-0.0366464 -0.00586185 -0.000721898
-0.0335904 -0.00609976 -0.00490248
-0.0373915 -0.00283594 -0.00429245
-0.0345812 -0.00620652 -0.00343756
-0.0383032 -0.00291323 -0.00205263
-0.0350484 -0.00638689 -0.00232626
-0.0385828 -0.00302232 -0.000646421
-0.0354557 -0.00481783 -0.00357366
-0.0388209 -0.00139962 -0.00206539
-0.0357933 -0.00487916 -0.00226484
-0.0390587 -0.0012714 -0.000637578
-0.030364 -0.00904444 0.00150801
-0.0301806 -0.00904567 0.00299565
-0.0322973 -0.00616886 -0.00296263
-0.0321781 -0.00295799 -0.00615208
-0.0335396 -0.00783197 -1.45507e-05
-0.0371555 -0.00563105 -2.68094e-05
-0.0351571 -0.00648607 -5.56256e-06
-0.038551 -0.00315429 -6.90143e-06
-0.035925 -0.00504678 5.11166e-06
-0.0390476 -0.00136854 -2.63128e-05
-0.0358832 -0.00503456 0.00112485
-0.0389288 -0.00135594 0.0013085
-0.0286625 -0.00868902 0.0059181
-0.0279627 -0.00840074 0.00736731
-0.0299237 -0.00744212 0.00600865
-0.029906 -0.00593762 0.00751743
-0.031064 -0.00601886 0.00607491
-0.0312452 -0.00288649 0.00766573
-0.0327928 -0.00755069 0.00225928
-0.0366417 -0.00592993 0.000679916
-0.0324398 -0.00762939 0.00341547
-0.0365007 -0.00583941 0.0020342
-0.0314369 -0.00729244 0.00490916
-0.0354263 -0.00574651 0.00425482
-0.035 -0.0064579 0.00229833
-0.0385151 -0.00312544 0.000617168
-0.0345131 -0.00631901 0.00344556
-0.0382518 -0.00296563 0.00206974
-0.0335446 -0.00616167 0.00491911
-0.0373622 -0.00284422 0.00428701
-0.0353413 -0.00494671 0.00351831
-0.0387739 -0.0012669 0.00212262
-0.0279285 -0.00724735 0.00851535
-0.0287569 -0.00593891 0.00866286
-0.028732 -0.00721917 0.00721893
-0.0315705 -0.00472268 0.00612987
-0.0304669 -0.00606456 0.00747306
-0.0349239 -0.00236064 0.00571426
-0.0299085 -0.00295225 -0.00922943
-0.0301974 -0.00145217 -0.0092092
-0.0329274 -0.00332529 -0.00793892
-0.036791 -0.0018069 -0.00569602
-0.0344319 -0.00339011 -0.006372
-0.038249 -0.00199978 -0.00301785
-0.0347755 -0.00216065 -0.00635205
-0.0384867 -0.000610729 -0.00297708
-0.0300066 -0.00288957 0.00911195
-0.0303012 -0.00138744 0.00910343
-0.0344186 -0.00340999 0.00637662
-0.0382348 -0.00200479 0.00305549
-0.0329503 -0.00335494 0.00793098
-0.036783 -0.00179742 0.00573133
-0.0347889 -0.00218237 0.00638113
-0.0384499 -0.000623056 0.00307908
-0.0303235 0.00151456 -0.00906203
-0.0299926 0.00300543 -0.00895412
-0.0328458 -0.00100233 -0.00764961
-0.0364949 -0.00125514 -0.00588535
-0.032865 0.000122444 -0.00740115
-0.0364577 1.82551e-06 -0.00606561
-0.0352629 3.14283e-05 -0.00649519
-0.0385609 -4.67316e-06 -0.0030433
-0.0359851 2.16791e-05 -0.00502788
-0.0391087 3.6475e-06 -0.00137204
-0.0331947 0.00105729 -0.00778319
-0.0367892 0.000825435 -0.00589928
-0.0351529 0.0010729 -0.00643189
-0.0384495 0.00126717 -0.00308167
-0.0360161 0.00108591 -0.00506683
-0.0389865 0.00127873 -0.00133398
-0.0304129 0.00149282 0.00900922
-0.0300838 0.00294515 0.00894125
-0.0330225 -0.000960035 0.00763066
-0.0365225 -0.00126975 0.00597021
-0.0351809 3.48234e-05 0.00631314
-0.0385085 -2.79942e-05 0.00309008
-0.0329835 0.000118425 0.00734235
-0.036478 -1.59137e-05 0.00611322
-0.0351128 0.00108157 0.00632087
-0.0384152 0.00126196 0.00316962
-0.0333123 0.00101946 0.00771805
-0.0368098 0.000824827 0.00595651
-0.02877 0.00596844 -0.00864713
-0.0279429 0.00727659 -0.00853426
-0.0298938 0.00594515 -0.00747613
-0.0299129 0.00750176 -0.00598491
-0.0310393 0.00606732 -0.00604099
-0.0312241 0.00775439 -0.00292561
-0.0328723 0.00335263 -0.00792012
-0.0365597 0.00180409 -0.00568236
-0.034429 0.00346725 -0.00636077
-0.0382221 0.00198278 -0.00315556
-0.0352937 0.00348516 -0.00496825
-0.0387908 0.00202074 -0.00130664
-0.0299417 0.005898 0.00743213
-0.0299645 0.00741913 0.00588899
-0.0288014 0.00590868 0.00862433
-0.0279579 0.00723737 0.00850893
-0.0343307 0.0034136 0.00633061
-0.0381556 0.00198295 0.00318687
-0.0328963 0.00332552 0.00788366
-0.0365123 0.00183593 0.00574754
-0.0278916 0.00843585 -0.00736247
-0.0285548 0.00875868 -0.00591992
-0.0304684 0.00605509 -0.00750863
-0.0348402 0.00245623 -0.00574552
-0.028736 0.00721783 -0.00727373
-0.031567 0.00477403 -0.00615872
-0.0300035 0.00920494 -0.00291237
-0.0302551 0.0091762 -0.00140075
-0.0335446 0.00617432 -0.00495271
-0.0373704 0.00294458 -0.0042837
-0.0343417 0.00626169 -0.00346231
-0.0382065 0.00287479 -0.0021047
-0.0348219 0.00641219 -0.00227376
-0.0384507 0.00299838 -0.000616764
-0.0313944 0.00729372 -0.00494292
-0.0353963 0.00579531 -0.00427492
-0.0323263 0.0076333 -0.00345245
-0.0364565 0.00586487 -0.00206104
-0.0326273 0.00756965 -0.00224625
-0.0365555 0.00598468 -0.000708453
-0.030236 0.00916509 0.00143747
-0.0300363 0.0092179 0.002882
-0.035007 0.00629935 1.46687e-05
-0.0384856 0.00315772 4.97966e-06
-0.0335575 0.00774678 3.18456e-05
-0.0371328 0.00571504 6.42076e-06
-0.0286061 0.00867552 0.00581549
-0.0278902 0.0083849 0.00729834
-0.0347545 0.00630137 0.00231599
-0.0384411 0.00290393 0.000643023
-0.0343022 0.00615518 0.00349895
-0.0381709 0.00285096 0.00214873
-0.033601 0.00607371 0.00494762
-0.0373463 0.00294851 0.00433898
-0.0326321 0.00752018 0.00227916
-0.0365382 0.00596994 0.000731943
-0.0324523 0.00758644 0.00347896
-0.0364938 0.00585976 0.00209452
-0.0314923 0.00721824 0.00491229
-0.0354128 0.0057891 0.00426464
-0.0305173 0.00603151 0.00749445
-0.0348284 0.00250181 0.00579266
-0.0287972 0.00719936 0.00723924
-0.0316238 0.00479923 0.00614174
-0.04 0 0
-0.04 0 0
-0.04 0 0
-0.04 0 0
-0.04 0 0
-0.04 0 0
-0.04 0 0
-0.04 0 0
-0.04 0 0
-0.04 0 0
-0.04 0 0
-0.04 0 0
-0.04 0 0
-0.04 0 0
-0.04 0 0
-0.04 0 0
-0.04 0 0
-0.04 0 0
-0.04 0 0
-0.04 0 0
-0.04 0 0
-0.04 0 0
-0.04 0 0
-0.04 0 0
-0.04 0 0
-0.04 0 0
-0.04 0 0
-0.04 0 0
-0.04 0 0
-0.04 0 0
-0.04 0 0
-0.04 0 0
-0.04 0 0
-0.04 0 0
-0.04 0 0
-0.04 0 0
-0.04 0 0
-0.04 0 0
-0.04 0 0
-0.04 0 0
-0.04 0 0
-0.04 0 0
-0.04 0 0
-0.04 0 0
-0.04 0 0
-0.04 0 0
-0.04 0 0
-0.04 0 0
-0.04 0 0
-0.04 0 0
-0.04 0 0
-0.04 0 0
-0.04 0 0
-0.04 0 0
-0.04 0 0
-0.04 0 0
-0.04 0 0
-0.04 0 0
-0.04 0 0
-0.04 0 0
-0.04 0 0
-0.04 0 0
-0.04 0 0
-0.04 0 0
-0.04 0 0
-0.04 0 0
-0.04 0 0
-0.04 0 0
-0.04 0 0
-0.04 0 0
-0.04 0 0
-0.04 0 0
-0.04 0 0
-0.04 0 0
-0.04 0 0
-0.04 0 0
-0.04 0 0
-0.04 0 0
-0.04 0 0
-0.04 0 0
-0.04 0 0
-0.04 0 0
-0.04 0 0
-0.04 0 0
-0.04 0 0
-0.04 0 0
-0.04 0 0
-0.04 0 0
-0.04 0 0
-0.04 0 0
-0.04 0 0
-0.04 0 0
-0.04 0 0
-0.04 0 0
-0.04 0 0
-0.04 0 0
-0.04 0 0
-0.04 0 0
-0.04 0 0
-0.04 0 0
-0.04 0 0
-0.04 0 0
-0.04 0 0
-0.04 0 0
-0.04 0 0
-0.04 0 0
-0.04 0 0
-0.04 0 0
-0.04 0 0
-0.04 0 0
-0.04 0 0
-0.04 0 0
-0.030378 0.00741217 -0.00637649
-0.0335621 0.00381656 -0.00589503
-0.0170365 -0.00969274 0.00691472
-0.035961 0.00591092 -0.00297583
-0.04 0 0
-0.0366046 0.00414669 -0.00426879
0 0 0
-0.04 0 0
0 0 0
-0.0130239 0.0097831 -0.00170558
-0.04 0 0
-0.0364008 -3.74866e-05 0.00359462
-0.0146538 0.00909901 -0.00792947
-0.0172349 0.00823091 -0.00947637
-0.04 0 0
-0.0331288 -0.00206599 0.0078338
-0.0378448 -0.00118599 0.00435303
-0.00951216 -0.0073662 -0.0063474
-0.0064233 -0.00386377 -0.00588402
-0.016515 -0.00179922 -0.0102846
-0.025908 -0.00655879 -0.00928477
-0.0172436 -0.00827314 -0.00950891
-0.0147499 -0.00907485 -0.00795938
-0.00675977 0.00764522 0.00126242
-0.00211543 -0.00297533 -0.00305182
-0.0140876 -0.00657838 -0.00940161
-0.0140252 -0.00795948 -0.0080151
0 0 0
-0.0377713 -0.000649712 0.00438997
-0.04 0 0
-0.036476 -0.000592127 0.00607499
-0.00797646 0.00475705 -0.00774492
0 0 0
-0.00338252 -0.0041828 -0.0042653
-0.00397157 -0.0059117 -0.00294912
-0.00272035 -0.00418192 -0.00300807
-0.0169538 0.00966428 -0.00694128
-0.0169826 0.00826693 -0.00828989
-0.00377759 -0.00243802 -0.00362412
-0.04 0 0
-0.00412366 -0.00486154 -0.00114905
0 0 0
-0.0034625 0.000662482 -0.00597173
0 0 0
-0.0258339 0.0065799 -0.00932003
-0.032749 0.00461314 0.00297973
-0.0165833 -0.0101947 0.00357513
-0.0318482 0.00474357 0.00778534
-0.0252522 0.00909805 0.00788128
-0.0226995 0.00822643 0.00943927
-0.0166782 0.00847531 -0.00690202
-0.006866 -0.00209407 -0.00775222
-0.00248905 -0.00198642 -0.00442478
-0.00800113 0.00476925 0.00775386
0 0 0
-0.0039427 -0.00587747 0.00293495
0 0 0
-0.00269445 -0.00414845 0.00301597
-0.04 0 0
-0.0075358 0.00604443 -0.00644334
-0.0095062 0.00737519 -0.00632096
-0.00632581 0.00374696 -0.0058582
-0.00333597 0.00409049 -0.00425414
-0.00396913 0.00588434 -0.00296652
-0.00270755 0.00414999 -0.00301606
0 0 0
0 0 0
-0.0022336 0.00203946 -0.00427738
-0.0020999 0.00296833 -0.00304474
-0.00629936 0.00477694 -0.00637864
0 0 0
0 0 0
-0.00219313 -0.00121472 -0.00433688
0 0 0
-0.00208567 -0.000524658 -0.00422569
-0.00214786 4.02623e-05 -0.00424543
-0.00339653 -0.000438531 -0.00597506
0 0 0
-0.00345194 0.000648 0.0059438
-0.0170474 -0.00969787 -0.006972
-0.0167352 -0.00852697 -0.0069526
-0.0170174 -0.00830428 -0.00833102
-0.0063275 0.00374526 0.00585245
-0.00752754 0.0060301 0.00643532
-0.00951371 0.00736613 0.00629437
-0.0267781 0.00344459 0.00971728
0 0 0
-0.00242892 0.00426899 -0.00202537
0 0 0
-0.00223918 0.00425582 -0.00122775
-0.00350171 0.00599065 -0.00133713
-0.0385018 0.000604003 0.0031252
0 0 0
-0.00349496 -0.00599229 -0.00132962
-0.0114182 0.00691117 0.0016879
-0.00682047 0.00212345 0.007708
-0.00210765 0.00123318 0.00428358
-0.00213958 0.000650227 0.00426107
-0.00676478 -0.00762922 -0.00121585
-0.00213578 -0.00429886 -0.000614007
-0.00689715 -0.00209352 0.00778241
0 0 0
-0.00212126 0.00427503 0.000671157
-0.00348623 0.00594839 0.00137491
0 0 0
-0.00221713 0.00419599 0.00126493
-0.00156944 0.00306683 0.00135319
-0.00240362 0.00420643 0.00205453
-0.00833271 -0.00755389 -0.00142329
-0.0130726 -0.00978778 -0.00169759
-0.00499052 -0.00620505 -0.00106503
-0.00680666 0.00214922 -0.00772006
-0.00210823 0.00126922 -0.00429076
-0.00215682 0.000689072 -0.00431786
-0.00630144 0.00476122 0.00638591
-0.00224456 0.00200642 0.00429427
-0.00518788 0.00480599 0.00488422
-0.00208149 0.00291956 0.00308415
0 0 0
-0.00332779 0.00407085 0.00425066
-0.00395612 0.00585521 0.00295886
-0.00269388 0.00411095 0.00302159
-0.00208767 -0.00295215 0.00311425
-0.002484 -0.00199177 0.00444905
-0.00336282 -0.00417544 0.00425999
-0.00641249 -0.00388463 0.00587282
-0.00947313 -0.00736197 0.00632305
-0.0375219 0.00415364 0.00207142
-0.04 0 0
-0.00373089 0.00354587 0.00111158
0 0 0
-0.00364784 0.00227344 0.00229006
-0.0335199 0.00472006 0.00645105
-0.0378602 0.00284236 0.0031261
-0.00815971 -0.00472864 -0.00778563
-0.00647568 -0.00472958 -0.00645998
-0.0108958 -0.00719411 -0.00736436
-0.00760366 -0.00602531 -0.00650957
-0.0252875 -0.00903457 0.0078793
-0.0227141 -0.00823654 0.00940933
-0.0326048 -9.41296e-07 -0.00614652
-0.00221931 -0.00122064 0.0043657
-0.00148106 -0.000619628 0.00308901
0 0 0
-0.0364412 -0.000583358 -0.00602322
-0.04 0 0
-0.00826137 -0.00148802 -0.00760345
-0.00394296 -0.00116717 -0.00496551
-0.00146067 -0.000622508 -0.00309578
-0.00895766 0.00754669 -0.00447079
-0.0166576 0.010132 -0.00366886
-0.0132506 -0.00340038 0.00978802
-0.00522101 -0.00225934 0.00632277
0 0 0
-0.00160112 -0.00310388 -0.00128245
-0.00243181 -0.00428355 -0.00202403
-0.00224194 -0.00426582 -0.00122515
-0.04 0 0
-0.04 0 0
-0.0364117 0.00597782 -0.00138939
-0.00673814 -0.00760384 0.00129007
-0.00203286 -0.00434904 4.14974e-05
-0.0147026 -0.00909573 0.00791356
-0.0169988 -0.00829462 0.0082888
-0.0172226 -0.00829698 0.00948537
-0.00238354 -0.00419801 0.00206339
0 0 0
-0.0139873 -0.00798592 0.00799577
-0.0140834 -0.00662219 0.00942606
-0.00864293 -0.0029809 0.00764243
-0.00832861 -0.00148218 0.00763221
-0.016549 -0.00183414 0.0103083
-0.00914099 -0.00443142 0.00765127
-0.0133169 -0.00659026 0.00823909
-0.00527759 -0.00474603 0.00497893
-0.0356272 0.00496647 -0.00234105
-0.0359937 0.0058845 0.00298121
-0.04 0 0
-0.0372589 0.00411619 0.00303971
-0.026644 -0.00654993 -0.00811826
-0.0265292 -0.00344589 -0.00968224
0 0 0
-0.0034147 -0.000411509 0.00599585
-0.00213349 3.53326e-05 0.00419235
-0.00210157 -0.000515067 0.00424351
-0.0172286 0.00830579 0.00947149
-0.0146598 0.00916045 0.00787149
0 0 0
-0.0021064 -0.00425116 0.000698035
-0.00345403 -0.00592019 0.00138767
-0.00219562 -0.00416976 0.00128445
-0.0227025 -0.00827818 -0.00940851
-0.0252686 -0.00906695 -0.00786268
-0.0259582 -0.00795561 -0.0079168
-0.0321083 0.00621954 -0.00299827
-0.032822 0.00470175 -0.00302175
-0.0317571 0.00764129 3.67209e-06
-0.0232759 -0.010021 -0.00363306
-0.00826887 -0.00754647 0.00146771
-0.00824443 -0.00755172 3.14343e-05
-0.0049524 -0.0061829 0.00112999
-0.013003 -0.00980006 0.00170837
-0.0123372 -0.00338491 0.00849131
-0.0124839 -0.00668428 0.00678535
-0.0167215 -0.00850649 0.00688165
-0.00877479 -0.00595396 0.00611602
-0.011272 -0.00350057 0.00515697
-0.0119837 -0.00510587 0.00684441
-0.0117056 -0.00346108 0.00685096
-0.00407943 -0.00120271 0.00491241
-0.00360119 -0.00230729 0.00235987
0 0 0
-0.0113976 -0.00688326 0.00169408
-0.00371633 -0.00353537 0.00114021
-0.0119062 -0.00848264 0.00172881
-0.00406797 -0.00357652 0.0036976
-0.00385276 -0.00358368 0.00236703
0 0 0
-0.00413489 -0.00492823 0.00240452
-0.00884296 -0.00745702 0.00450103
-0.00849312 -0.00757838 0.00297787
-0.00156065 -0.00304051 0.00139352
-0.0314518 0.00295559 0.00761356
-0.0234356 0.001826 0.0102538
-0.0317699 0.00146106 0.00763445
-0.0276899 0.00339348 0.00838427
-0.04 0 0
-0.0378078 -1.10152e-05 0.00429724
-0.037872 0.000534399 0.00429203
-0.0365842 0.000457876 0.0060492
-0.0318852 -0.00479566 0.00779827
-0.0323477 -0.0060605 0.00646215
-0.0336024 -0.00374646 0.00586473
-0.0304006 -0.00739625 0.00633274
-0.025923 0.00799905 0.0079395
-0.0290806 0.00724066 0.00730412
-0.0258583 0.00661576 0.00934171
-0.0377994 0.00119861 0.00438257
-0.0331764 0.0020896 0.00778472
-0.0348573 0.00221076 0.00632689
-0.0375824 0.00193548 0.00447344
-0.0335519 -0.00476785 0.00640284
-0.0377292 -0.00194934 0.00429076
-0.0366241 -0.0040804 0.00424635
-0.04 0 0
-0.035994 -0.00588699 0.00295405
-0.0372606 -0.00411879 0.00298791
-0.04 0 0
-0.0379071 -0.00288489 0.00304431
-0.0375884 -0.00417033 0.00201112
-0.0169558 0.00968761 0.00689112
-0.0169889 0.00832082 0.00827745
-0.00898109 0.00446815 0.00755981
-0.00159602 0.00129684 0.0030715
-0.00425616 0.00233626 0.00489009
-0.0119513 0.00512056 0.00677822
-0.0115574 0.00517557 0.00510373
-0.0113001 0.00347227 0.00519023
-0.0132124 0.00343126 0.00975593
-0.00851736 0.00296013 0.00758372
-0.00495043 0.00108599 0.00616728
-0.0164466 0.00187445 0.0103314
-0.00827539 0.00144969 0.00758227
-0.00812166 4.0919e-06 0.00760811
-0.0114384 0.00174041 0.0069415
-0.00362139 0.0011339 0.00359006
-0.0119042 0.00173918 0.00853042
-0.00351049 -2.64514e-05 0.00359561
-0.0038655 0.00358517 0.00233746
0 0 0
-0.00415405 0.00496231 0.0023561
-0.00406511 0.00357268 0.00363448
-0.0229449 0.00824004 0.00825998
-0.0199724 0.00828477 0.00830438
-0.0229781 0.00958858 0.00688739
-0.0141246 0.00666094 0.00938331
-0.0108216 0.00729072 0.00728561
-0.0133086 0.00664348 0.00818652
-0.0139658 0.00805928 0.00795787
-0.0108197 0.00725618 -0.00730103
-0.0140912 0.00655029 -0.00935255
-0.0139563 0.00796896 -0.00796647
-0.0234525 -0.0018541 0.0101832
-0.0235122 -0.00523163 0.00855854
-0.0200614 -0.00532521 0.00868354
-0.0259068 -0.00653069 0.0092842
-0.0290521 -0.00728308 0.00736163
-0.0259656 -0.00791645 0.00792054
-0.0273757 -0.00666637 0.00667326
-0.0233319 -0.0100144 0.00360669
-0.0237723 -0.00356569 0.00872852
-0.02392 -0.00711974 0.00534017
-0.019927 -0.00722796 0.00551193
-0.016688 0.00851606 0.00686837
-0.0124448 0.006712 0.00672149
-0.0088331 0.0075225 0.00445899
-0.00870295 0.00602395 0.0060262
-0.00496512 0.00623287 0.00110745
-0.00824631 0.00757859 1.45952e-05
-0.0129974 0.0098083 0.00169664
-0.034934 0.00640313 -0.00107317
-0.0331314 0.0077542 -0.00122216
-0.0378114 0.00429501 -0.000655056
-0.0109729 0.00350396 0.00349039
-0.0278713 0.00681775 0.00502121
-0.024109 0.00723157 0.00361832
-0.0268988 0.0097692 0.00172511
-0.0308723 0.00443582 0.00756625
-0.0346445 0.00471788 0.00491777
-0.0265635 0.0066001 0.00813099
-0.0310774 0.00598775 0.00599372
-0.0232292 0.00839967 0.00689919
-0.0235174 0.00525909 0.00863677
-0.0199293 0.00532968 0.00865799
-0.016709 -0.0101742 -0.00366146
-0.00904372 -0.00748598 -0.00449211
-0.00858981 -0.00755856 -0.00297972
-0.0304043 -0.00736698 -0.00632167
-0.0336009 -0.00375505 -0.0058465
-0.00675447 0.0076535 -0.00122859
-0.00203617 0.00436337 1.63445e-05
-0.00496956 0.00623517 -0.00107859
-0.00212927 0.00429947 -0.000630435
-0.0287827 -0.00343361 0.00519892
-0.0318996 8.08978e-06 0.00765022
-0.0241574 -0.00362712 0.00722268
-0.0357277 -0.00505812 0.00227235
-0.0269602 -0.00978739 0.00172044
-0.032172 -0.00612068 0.00299587
-0.0327751 -0.00300711 0.00462529
-0.0278859 -0.00676007 0.00508596
-0.0356345 -0.002279 0.00494632
-0.0349581 -0.00104256 0.00631835
-0.0352987 -0.0035244 0.00492546
-0.0383687 -0.00124183 0.00306422
-0.0347083 -0.00482535 0.00488401
-0.00831139 0.00757756 -0.00144176
-0.00853766 0.0075872 -0.00297771
-0.00158347 0.00310798 -0.0012834
-0.0330866 0.00770571 0.00127064
-0.0379307 0.00439225 1.62597e-07
-0.0348478 0.00633189 0.00111
-0.0199116 0.00725309 0.00542295
-0.0234285 0.00999198 0.00363104
-0.0238596 0.00714898 0.00535587
-0.0235385 0.00700036 0.00699219
-0.0364194 0.00596321 0.00142235
-0.0377403 0.00411467 0.00127508
-0.04 0 0
-0.037784 0.00424786 0.000673196
-0.0365901 0.00112307 0.00229596
-0.0291043 0.00344352 0.00347884
-0.0287523 0.00518719 0.00343798
-0.0378071 -0.00060804 -0.00428753
-0.033025 -0.00207494 -0.00782768
-0.0287545 0.00524253 -0.00346886
-0.0367111 0.00117864 -0.00233607
-0.0363562 0.00364557 -1.20658e-05
-0.0290459 0.00729933 -0.0073616
-0.0318246 0.00477347 -0.00779225
-0.0335041 0.00478221 -0.00643853
-0.0323431 0.00608058 -0.00651006
-0.00815237 -0.00476067 0.00781296
-0.0108447 -0.00720986 0.00735555
-0.00644672 -0.00473651 0.00649362
-0.0075605 -0.00602403 0.00650885
-0.0113472 0.00166035 -0.00684521
-0.0372473 0.00413409 -0.00301116
-0.04 0 0
-0.0378828 0.00286374 -0.0030785
-0.0323776 -0.0060342 -0.00646178
-0.0290621 -0.00732509 -0.00737326
-0.0318787 -0.00478767 -0.00780826
-0.0269458 0.00980957 -0.00171629
-0.0363559 0.00111874 0.00361686
-0.0360542 0.00109697 0.00501332
-0.04 0 0
-0.0108959 0.0034615 -0.00348231
-0.0290967 0.00349023 -0.00349353
-0.0199879 0.00401057 1.71837e-06
-0.0348989 0.00222299 -0.00640228
-0.0331136 0.00213608 -0.00781759
-0.0376565 0.00192402 -0.00438907
-0.0378277 0.00119919 -0.00430527
-0.04 0 0
-0.0308028 0.0076897 -0.00447614
-0.0272622 0.00672048 -0.00667904
-0.026554 0.00658326 -0.00813366
-0.0270721 0.00835627 -0.00500717
-0.0291412 -0.00346568 0.00347252
-0.0200356 -9.73069e-07 0.00397302
-0.0109449 -0.00350245 0.00346855
-0.0323835 0.00601381 0.00649557
-0.0304461 0.00735377 0.0063324
-0.0366019 0.00414731 0.00428838
-0.0335794 0.00384681 0.00590239
-0.0377603 0.00413491 -0.00124684
-0.0375383 0.00415041 -0.00204102
-0.04 0 0
-0.0235018 0.00860661 -0.00528514
-0.023378 0.010036 -0.0036608
-0.0259169 0.00799305 -0.00794691
-0.0226621 0.00821937 -0.00944509
-0.0252762 0.00910038 -0.00788435
-0.00363966 -0.00357096 -1.40939e-05
-0.0112585 -0.00516515 -0.00349823
-0.0383846 0.00289173 -0.00132076
-0.0385665 0.00199522 -0.00215161
-0.0346638 0.00482959 -0.00492647
-0.0352825 0.00489388 -0.00358964
-0.0366975 -0.00236842 0.0011745
-0.0324654 -0.00615366 0.00148542
-0.0384221 -0.003026 0.00129319
-0.04 0 0
-0.0385604 -0.00201416 0.00211788
-0.038727 -0.00211585 0.00132215
-0.0232091 0.00842442 -0.00685489
-0.0199493 0.0083062 -0.00829215
-0.0229236 0.00824038 -0.00824879
-0.022958 0.00962375 -0.00690622
-0.0383652 0.00284851 0.0013588
-0.03186 0.00451999 0.00605245
-0.0362543 0.0022879 0.00365408
-0.032392 0.00460721 0.00448281
-0.00873784 0.00600587 -0.00601802
-0.00520616 0.00485843 -0.00488092
-0.0132763 0.00653263 -0.00816149
-0.0124425 0.00667701 -0.00671461
-0.0200112 0.00871254 -0.00531926
-0.0122589 0.00842879 -0.00340172
-0.00859552 -0.00297417 -0.00761483
-0.00518693 -0.00226258 -0.00629267
-0.0131934 -0.00337971 -0.00976197
-0.0131892 0.00334072 -0.00973791
-0.00495347 0.00110541 -0.0062457
-0.0112226 0.00512058 -0.0035043
-0.00357264 0.00359656 -1.82079e-05
-0.0119301 0.00675392 -0.00512973
-0.0116472 0.00679542 -0.00347487
-0.00406762 0.00490144 -0.00116817
-0.00359908 0.00234115 -0.0023427
-0.00371551 0.00112089 -0.00360289
0 0 0
-0.0040589 0.00364801 -0.00360462
-0.00384973 0.00233015 -0.00363065
0 0 0
-0.00849327 0.00291752 -0.00760232
-0.00890558 0.00442705 -0.00749024
-0.00415704 0.00236462 -0.00497323
-0.00159187 0.0013789 -0.00309399
0 0 0
-0.00342417 -0.00116393 -0.00233831
-0.0036341 2.53042e-06 -0.00363124
-0.00364601 -0.00119168 -0.00362451
-0.0266605 0.00345688 -0.00974429
-0.0317193 0.00451004 -0.0060732
-0.0357691 0.00222877 -0.00504011
-0.0387728 0.00130027 -0.00210872
-0.0385316 0.000635783 -0.00303098
-0.04 0 0
-0.0388661 -0.00208191 -0.000657558
-0.022997 -0.00958817 0.0068626
-0.020007 -0.00830101 0.00828379
-0.0233301 -0.00839969 0.0068559
-0.0229904 -0.00822979 0.00821079
-0.00811483 3.71716e-06 -0.00764595
-0.0164619 0.00184543 -0.010272
-0.0118935 0.00167513 -0.00844017
-0.00826092 0.00141739 -0.00760708
-0.0233718 0.00184472 -0.010334
-0.0325235 0.00147033 -0.00616497
-0.0282389 0.00342065 -0.0068657
-0.0322393 0.00297397 -0.00613965
-0.0108841 -0.00346454 -0.00351221
-0.0199396 -2.38579e-06 -0.00397266
-0.0290782 -0.00351067 -0.00348637
-0.0200603 -0.00399929 -3.84895e-05
-0.0331066 -0.00299394 -0.00302468
-0.0325619 -0.00614589 2.35681e-05
-0.00912412 -0.00441475 -0.00761696
-0.0088856 -0.0059466 -0.00607978
-0.013338 -0.00656285 -0.00822159
-0.00534696 -0.00476413 -0.0049303
-0.0200054 -0.00833865 -0.00830956
-0.022953 -0.00961328 -0.00685794
-0.0229775 -0.0082706 -0.00821312
-0.0388282 0.00066527 -0.00209382
-0.0390139 0.000625439 -0.00131914
-0.04 0 0
-0.04 0 0
-0.0378624 -0.00118343 -0.00426562
-0.0240841 0.00726319 -0.00366386
-0.0198276 0.00552325 -0.0072454
-0.0238222 0.0053762 -0.00718383
-0.0237257 0.00876542 -0.00359197
-0.04 0 0
-0.0270943 -0.00499275 -0.00828216
-0.0273698 -0.00670133 -0.00668193
-0.0233236 -0.00844099 -0.00686477
-0.0165577 0.0101871 0.00357308
-0.00851118 0.00762759 0.00295555
-0.0119459 0.0084953 0.00173327
-0.00829727 0.00758655 0.00146025
-0.0123036 -0.0084474 -0.00341471
-0.0114969 -0.00515379 -0.00521666
-0.0307973 -0.00445424 -0.00772347
-0.0349395 -0.00101724 -0.00633552
-0.04 0 0
-0.0364874 -0.00588401 -0.00136915
-0.0266386 -0.00651747 0.00811138
-0.0308074 -0.00443936 0.00765076
-0.026635 -0.0034198 0.00966579
-0.0271477 -0.00496926 0.00826508
-0.04 0 0
-0.0376268 -0.00407986 -0.00200371
-0.0378353 -0.00407943 -0.00122859
-0.03592 -0.004954 -0.00110159
-0.0365626 -0.00228435 -0.00236827
-0.0389939 -0.00135656 -0.00129505
-0.0362904 -0.00233141 -0.00364353
-0.0357204 -0.00230618 -0.00493657
-0.0388507 2.00202e-05 -0.00212554
-0.0364743 -0.00596193 0.00135032
-0.04 0 0
-0.0377961 -0.00419075 0.00122601
-0.0119575 -0.00510516 -0.00686629
-0.0125426 -0.00670385 -0.00679155
-0.0122716 -0.00334485 -0.00846794
-0.0279518 -0.00684859 -0.00504099
-0.0283294 -0.00687401 -0.0033764
-0.0318927 -0.00615098 -0.00452304
-0.0267827 -0.00976425 -0.00173176
-0.0239472 -0.00717696 -0.00537319
-0.0200671 -0.00728702 -0.00548142
-0.0240576 -0.00367904 -0.00728453
-0.023718 -0.00360663 -0.00876312
-0.0200403 -0.00536288 -0.00861616
-0.0235063 -0.00527967 -0.00857078
-0.0234117 -0.00187882 -0.0102141
-0.0388055 -0.00214199 0.000643918
-0.0388081 -0.00213072 9.35049e-07
-0.04 0 0
-0.0390088 -0.00135387 0.000619687
-0.0332059 -0.00770868 -0.00126565
-0.0379039 -0.00419348 -0.000649866
-0.0351414 -0.00639038 -0.00111512
-0.0378674 -0.00430588 0.000624698
-0.0380148 -0.00433481 -1.9119e-05
-0.0351001 -0.00645335 0.00109002
-0.0332456 -0.00776049 0.00126138
-0.038397 -0.00124239 -0.002993
-0.0353915 -0.00348892 -0.00493814
-0.04 0 0
-0.0378399 1.0367e-05 -0.00422614
-0.0365716 0.000476145 -0.00599131
-0.0379171 0.000529888 -0.00419119
-0.038772 -0.00204556 -0.00129758
-0.0386233 -0.00205906 -0.00210413
-0.0384822 -0.00293213 -0.00128773
-0.04 0 0
-0.0335835 -0.00474252 -0.00641455
-0.0347898 -0.00476833 -0.00491361
-0.0377348 -0.00195663 -0.00425077
-0.0379515 -0.00285489 -0.0030319
-0.04 0 0
-0.0360197 -0.0058301 -0.00293495
-0.0366533 -0.00405476 -0.00422984
-0.0372918 -0.00404666 -0.00298487

CELL_DATA 236
TENSORS stress float
-8575.77 393.372 -649.505
393.372 -2530.57 9.93696
-649.505 9.93696 -619.258

-7389.7 177.155 -99.4599
177.155 369.758 350.435
-99.4599 350.435 897.212

-9775.61 -1236.36 1486.04
-1236.36 -3511.36 -1761.55
1486.04 -1761.55 -4910.03

-8989.84 55.5684 -162.632
55.5684 -1740.75 7.15102
-162.632 7.15102 -1635.25

-9144.63 -1628.12 -1576.15
-1628.12 -4134.16 961.361
-1576.15 961.361 -4845.23

-9101.77 789.016 -1777.23
789.016 -6034.78 -420.654
-1777.23 -420.654 -3967.52

-8758.77 -546.723 -781.409
-546.723 -4029.76 128.913
-781.409 128.913 -3747.78

-8075.04 -262.635 -76.2067
-262.635 -361.22 16.6233
-76.2067 16.6233 54.8749

-8875.03 55.7123 172.81
55.7123 -1726.82 -115.906
172.81 -115.906 -1498.04

-8053.82 -305.461 -529.397
-305.461 -3656.74 76.0274
-529.397 76.0274 -3284.27

-7135.46 -212.942 177.564
-212.942 359.623 256.724
177.564 256.724 364.283

-8800.74 -617.052 -1895.97
-617.052 -6082.85 384.47
-1895.97 384.47 -3797.96

-8572.75 404.453 -305.463
404.453 -3319.44 -134.134
-305.463 -134.134 -1281.93

-8574.99 402.859 656.157
402.859 -2502.78 -24.3239
656.157 -24.3239 -593.83

-8180.13 -8.42216 267.554
-8.42216 668.068 -54.268
267.554 -54.268 -313.724

-7408.55 -287.109 -375.595
-287.109 692.351 -371.05
-375.595 -371.05 196.202

-7102.09 243.583 159.169
243.583 345.908 -257.302
159.169 -257.302 378.873

-8662.76 293.459 70.5082
293.459 -1716.87 113.87
70.5082 113.87 -3416.64

-8706.7 -4.28757 -19.5189
-4.28757 -149.463 -266.297
-19.5189 -266.297 100.61

-9147.73 -496.021 -522.494
-496.021 -3080.98 268.972
-522.494 268.972 -2180.85

-7462.14 256.054 323.95
256.054 629.486 -330.857
323.95 -330.857 166.788

-9058.54 855.594 -1779.68
855.594 -5995.5 -429.191
-1779.68 -429.191 -4092.01

-9124.32 228.288 -1706.43
228.288 -6724.36 -327.851
-1706.43 -327.851 -2452.05

-7654.51 -217.968 484.788
-217.968 -67.9609 -18.5641
484.788 -18.5641 433.704

-8821.35 -38.9533 -41.1018
-38.9533 -546.511 -120.134
-41.1018 -120.134 -469.377

-9713.63 -1272.46 -1491.18
-1272.46 -3474.27 1741.97
-1491.18 1741.97 -4864.09

-7416.91 -115.146 146.1
-115.146 224.592 339.786
146.1 339.786 737.728

-8959.67 659.048 -386.153
659.048 -3054.34 -82.3016
-386.153 -82.3016 -3826.63

-8754.97 -269.638 -176.413
-269.638 -1208.43 -26.1761
-176.413 -26.1761 -1333.61

-9075.97 -1601.46 -1652.42
-1601.46 -4008.43 979.958
-1652.42 979.958 -4779.58

-8878.45 -310.386 -229.221
-310.386 -1884.38 -8.79106
-229.221 -8.79106 -2127.08

-8129.05 163.202 108.361
163.202 -21.0151 -339.551
108.361 -339.551 233.741

-9141.46 271.039 -1684.56
271.039 -6683.9 -351.568
-1684.56 -351.568 -2623.27

-8697.21 -8.2346 -36.5393
-8.2346 -579.379 -100.956
-36.5393 -100.956 -1008.63

-9099.54 -1617.62 1599.75
-1617.62 -4148.61 -964.891
1599.75 -964.891 -4851.6

-7480.24 264.579 -323.829
264.579 597.967 375.366
-323.829 375.366 108.362

-8672.35 111.912 99.1763
111.912 -253.355 -138.236
99.1763 -138.236 -310.275

-8075.24 277.458 -24.1578
277.458 -305.965 165.564
-24.1578 165.564 698.04

-7697.36 134.98 517.588
134.98 -20.993 14.3048
517.588 14.3048 398.234

-7100.63 268.018 155.528
268.018 332.647 -246.627
155.528 -246.627 390.203

-8204.21 -214.103 131.646
-214.103 -123.748 298.977
131.646 298.977 58.6267

-8762.73 -529.044 -262.475
-529.044 -3073.14 145.122
-262.475 145.122 -1613.92

-7663.98 -183.456 -507.634
-183.456 -48.4803 30.747
-507.634 30.747 432.71

-8736.42 1.53596 -186.551
1.53596 -1474.3 77.1732
-186.551 77.1732 -1390.47

-9090.53 1623.68 -1585.37
1623.68 -4114.25 -946.317
-1585.37 -946.317 -4760.42

-9704.27 -1275.93 1494.29
-1275.93 -3475.17 -1738.78
1494.29 -1738.78 -4883.01

-8251.58 777.408 599.398
777.408 -5270.94 122.783
599.398 122.783 -5549.73

-8559.98 -381.755 647.847
-381.755 -2438.52 27.0706
647.847 27.0706 -626.98

-9711.86 1245.87 -1498.71
1245.87 -3522.4 -1667.28
-1498.71 -1667.28 -4845.93

-9153.31 802.582 1756.06
802.582 -6111.48 469.473
1756.06 469.473 -4196.19

-8251.03 -68.1961 -215.816
-68.1961 -253.109 -171.624
-215.816 -171.624 -469.863

-8979.82 466.169 -620.887
466.169 -3025.83 -292.322
-620.887 -292.322 -2019.08

-9083.76 1602.75 1601.26
1602.75 -4137.65 928.787
1601.26 928.787 -4803.67

-8905.37 -609.574 -1847.54
-609.574 -6139.96 361.995
-1847.54 361.995 -3983.74

-9224.24 -252.873 -1663.56
-252.873 -6940.79 158.31
-1663.56 158.31 -2593.52

-9146.84 257.998 1655.03
257.998 -6741.99 351.161
1655.03 351.161 -2604.02

-7358.13 164.128 136.533
164.128 356.628 -344.806
136.533 -344.806 857.473

-8571.8 -383.524 -667.048
-383.524 -2445.56 -17.1082
-667.048 -17.1082 -665.223

-8117.9 -67.1836 266.442
-67.1836 -16.7283 -20.805
266.442 -20.805 -406.133

-9176.65 1701.36 -781.748
1701.36 -4328.31 -502.013
-781.748 -502.013 -6176.35

-9104.42 1745.48 -425.263
1745.48 -2425.62 -470.922
-425.263 -470.922 -6559.87

-8539.76 -146.325 -277.034
-146.325 -2141.81 78.0879
-277.034 78.0879 -1650.65

-9107.26 -1749.52 -424.169
-1749.52 -2421.6 468.66
-424.169 468.66 -6531.37

-8764.72 197.215 -42.6221
197.215 -1489.83 -27.471
-42.6221 -27.471 -1439.31

-8604.19 432.251 256.555
432.251 -3379.44 166.17
256.555 166.17 -1415.89

-8693.24 -281.685 -61.2113
-281.685 -1725.47 134.056
-61.2113 134.056 -3427.09

-8761.2 -545.819 269.328
-545.819 -3058.01 -158.944
269.328 -158.944 -1617.8

-8765.45 211.926 319.428
211.926 -1944.89 -48.661
319.428 -48.661 -2154.21

-9083.39 1738.71 448.238
1738.71 -2419.45 457.574
448.238 457.574 -6533.58

-9025.85 1698.34 829.395
1698.34 -4182.15 473.392
829.395 473.392 -5969.92

-8088.75 260.607 -59.0707
260.607 -363.012 -5.45342
-59.0707 -5.45342 65.4021

-8572.42 440.954 -273.825
440.954 -3335.17 -101.435
-273.825 -101.435 -1425.33

-8969.88 488.951 601.381
488.951 -2953.43 331.494
601.381 331.494 -2015.16

-9729.01 1233.91 1490.78
1233.91 -3538.09 1657.65
1490.78 1657.65 -4893.64

-9133.66 -511.692 505.965
-511.692 -3080.17 -306.368
505.965 -306.368 -2231.63

-8567.49 399.586 -663.852
399.586 -2505.34 15.4714
-663.852 15.4714 -612.094

-8342.97 115.966 165.155
115.966 201.003 -209.325
165.155 -209.325 -268.483

-8858.32 -1658.29 -821.157
-1658.29 -3762.24 478.643
-821.157 478.643 -5657.86

-7865.85 510.341 409.385
510.341 -3102.57 125.418
409.385 125.418 -3266.06

-9174.4 -470.633 -505.511
-470.633 -3077.56 316.642
-505.511 316.642 -2233.96

-7679.64 163.241 503.89
163.241 -17.5397 11.2446
503.89 11.2446 388.793

-7147.93 -224.639 199.41
-224.639 292.841 211.562
199.41 211.562 359

-8664.65 -94.9173 306.256
-94.9173 -2109.23 32.4385
306.256 32.4385 -1614.34

-8864.09 -209.139 265.068
-209.139 -2715.76 -26.1043
265.068 -26.1043 -2395.99

-9021.39 -597.05 1835.55
-597.05 -6237.17 -386.524
1835.55 -386.524 -4062.25

-9173.59 211.003 1634.63
211.003 -6750.13 292.421
1634.63 292.421 -2565.21

-8650.53 -139.855 -263.367
-139.855 -2215.86 -47.117
-263.367 -47.117 -1832.59

-8013.27 -266.089 -18.9525
-266.089 -81.33 57.5337
-18.9525 57.5337 924.072

-8131.29 -86.4184 -252.989
-86.4184 2.85564 11.6015
-252.989 11.6015 -415.507

-9266.9 -1696.43 -771.455
-1696.43 -4393.21 502.112
-771.455 502.112 -6258.74

-9056.82 1696.92 -789.718
1696.92 -4096.91 -445.271
-789.718 -445.271 -5934.03

-9292.79 -1658.53 438.051
-1658.53 -2503.18 -419.691
438.051 -419.691 -6745.58

-8524.45 -11.4364 -14.5961
-11.4364 -519.77 194.128
-14.5961 194.128 -871.534

-8671.04 -287.333 80.1514
-287.333 -1714.36 -106.826
80.1514 -106.826 -3412.81

-7121.04 254.344 -176.082
254.344 327.608 255.384
-176.082 255.384 398.964

-9005.67 -1703.2 854.591
-1703.2 -4166.93 -480.918
854.591 -480.918 -5946.07

-7481.76 239.958 -348.336
239.958 608.394 348.633
-348.336 348.633 161.06

-8063.23 -23.2109 -237.285
-23.2109 874.142 57.9072
-237.285 57.9072 -133.565

-8211.06 16.9098 -211.707
16.9098 -280.645 194.987
-211.707 194.987 -447.928

-8726.6 -161.662 145.017
-161.662 -1155.76 73.0667
145.017 73.0667 -1661.61

-9734.09 -1255.32 -1492.55
-1255.32 -3460.98 1762.28
-1492.55 1762.28 -4901.76

-7601.64 -161.608 -598.292
-161.608 1494.12 -164.116
-598.292 -164.116 570.872

-9229.39 -235.15 1653.9
-235.15 -6962.3 -194.391
1653.9 -194.391 -2560.2

-7113.2 -241.801 -179.614
-241.801 340.584 -266.332
-179.614 -266.332 410.907

-9079.2 -1735.94 468.207
-1735.94 -2433.08 -460.853
468.207 -460.853 -6525.27

-7123.24 -242.121 -182.551
-242.121 318.522 -224.898
-182.551 -224.898 404.509

-8688.38 43.0899 -57.6281
43.0899 -161.322 242.06
-57.6281 242.06 -542.643

-8707.32 110.8 -70.2011
110.8 -287.667 80.1765
-70.2011 80.1765 -268.435

-8018.27 -290.553 -185.327
-290.553 286.497 -328.478
-185.327 -328.478 1282.31

-8077.64 275.744 102.538
275.744 -358.102 23.3293
102.538 23.3293 -28.0412

-8139.84 58.8703 -173.26
58.8703 769.991 296.196
-173.26 296.196 237.952

-8140.01 221.787 -225.941
221.787 3.29617 347.15
-225.941 347.15 256.7

-8750.65 20.1652 -13.2727
20.1652 -222.855 242.646
-13.2727 242.646 14.2104

-8951.4 -20.8629 169.052
-20.8629 -1743.87 51.2676
169.052 51.2676 -1562.31

-8599.09 -156.63 226.734
-156.63 -1301.49 94.6496
226.734 94.6496 -920.921

-7927.39 -501.429 446.175
-501.429 -3214.16 -117.865
446.175 -117.865 -3303.08

-8766.36 -211.692 0.409904
-211.692 -1452.22 29.3934
0.409904 29.3934 -1410.78

-8928.76 -749.692 651.63
-749.692 -3957.3 -176.373
651.63 -176.373 -3980.87

-8693.84 -214.051 304.141
-214.051 -1871.7 77.3875
304.141 77.3875 -2002.35

-8201.83 18.1939 274.207
18.1939 684.568 -54.5642
274.207 -54.5642 -287.91

-9161.37 -262.61 -1707.63
-262.61 -6945.54 193.016
-1707.63 193.016 -2416.48

-7702.87 -159.915 433.116
-159.915 -71.6666 -6.64922
433.116 -6.64922 428.147

-8571.14 -362.392 652.585
-362.392 -2467.18 18.9968
652.585 18.9968 -638.609

-7496.58 260.224 300.424
260.224 579.234 -331.414
300.424 -331.414 196.787

-8744.71 -556.015 -282.723
-556.015 -3150.86 188.689
-282.723 188.689 -1648.23

-9169.42 450.554 -547.748
450.554 -3068.3 -292.393
-547.748 -292.393 -2161.32

-9769.76 1227.93 -1475.83
1227.93 -3526.65 -1680.72
-1475.83 -1680.72 -4866.16

-9007.87 1594 -1585.88
1594 -4015.15 -934.54
-1585.88 -934.54 -4698.85

-7371.71 -149.732 -108.838
-149.732 351.172 -360.779
-108.838 -360.779 885.319

-8702.71 256.377 273.137
256.377 -2013.37 20.5227
273.137 20.5227 -1754.56

-8612.94 130.416 159.275
130.416 -1424.31 -103.483
159.275 -103.483 -1191.2

-8545.28 -70.1357 -22.1023
-70.1357 399.33 -260.881
-22.1023 -260.881 -101.714

-8060.94 20.4645 -255.234
20.4645 -29.8327 -25.4013
-255.234 -25.4013 -411.414

-8047.44 -32.5512 -284.447
-32.5512 796.181 -124.875
-284.447 -124.875 -187.427

-8901.52 -24.3303 211.149
-24.3303 -1658.73 -87.0076
211.149 -87.0076 -1803.2

-8859.56 756.924 664.506
756.924 -3792.44 161.58
664.506 161.58 -3957.61

-7366.71 144.769 140.432
144.769 345.169 -320.48
140.432 -320.48 744.515

-7508.88 -226.485 -359.599
-226.485 661.332 -344.922
-359.599 -344.922 164.454

-7497.85 -259.64 351.04
-259.64 711.181 323.745
351.04 323.745 163.755

-8006.58 -204.062 331.722
-204.062 662.516 364.459
331.722 364.459 325.676

-7984.75 -84.5872 207.025
-84.5872 1409.43 313.213
207.025 313.213 -242.239

-7420.01 -276.124 367.842
-276.124 651.473 329.97
367.842 329.97 162.807

-7990.16 -221.425 162.772
-221.425 441.883 331.735
162.772 331.735 1319.33

-8278.2 -65.187 69.2065
-65.187 904.114 465.402
69.2065 465.402 762.443

-8129.75 -238.754 -217.514
-238.754 62.0955 -313.123
-217.514 -313.123 201.165

-8073 -268.516 92.683
-268.516 -364.958 -23.5085
92.683 -23.5085 -11.5903

-8714.89 -338.909 -1.25346
-338.909 -1805.42 -106.759
-1.25346 -106.759 -3504.91

-9090.27 -4.31562 -11.264
-4.31562 -298.543 -158.274
-11.264 -158.274 -305.218

-8182.15 308.533 72.5901
308.533 432.643 -197.939
72.5901 -197.939 1186.93

-8299.14 81.6745 190.169
81.6745 -322.996 -193.101
190.169 -193.101 -433.121

-7871.17 120.512 111.429
120.512 946.849 -537.976
111.429 -537.976 593.484

-8058.17 251.282 4.0365
251.282 -156.2 -118.277
4.0365 -118.277 890.083

-8586.87 -368.717 -658.349
-368.717 -2487.07 6.80868
-658.349 6.80868 -643.325

-8671.01 290.06 -70.0983
290.06 -1714.55 -124.542
-70.0983 -124.542 -3439.5

-8649.35 -116.957 99.0787
-116.957 -252.983 156.021
99.0787 156.021 -208.004

-8430.93 -144.074 -133.24
-144.074 -715.446 24.4081
-133.24 24.4081 -343.13

-8779.88 2.55885 -84.6795
2.55885 -1152.47 126.957
-84.6795 126.957 -778.498

-8818.41 141.371 -123.101
141.371 -1910.95 40.1239
-123.101 40.1239 -1433.96

-8889.77 551.707 -707.128
551.707 -3198.19 -157.006
-707.128 -157.006 -2760.22

-8827 289.395 -252.733
289.395 -1885.93 11.9652
-252.733 11.9652 -2124.95

-8755.72 -347.566 9.61292
-347.566 -1763.28 64.916
9.61292 64.916 -3519.24

-8004.03 116.225 108.98
116.225 442.182 -410.03
108.98 -410.03 1397.06

-9205.18 -1663.99 -461.631
-1663.99 -2348.97 443.342
-461.631 443.342 -6613.07

-9210.45 -450.525 501.986
-450.525 -3139.65 -283.062
501.986 -283.062 -2315.13

-8960.87 -170.232 -68.5257
-170.232 -1595.73 -48.8893
-68.5257 -48.8893 -1726.98

-8541.28 408.967 275.337
408.967 -3245.37 136.913
275.337 136.913 -1210.9

-8816.38 -582.962 574.944
-582.962 -3566.9 -182.232
574.944 -182.232 -2974.2

-8929.58 -167.651 87.5416
-167.651 -1511.25 -2.59176
87.5416 -2.59176 -1644.63

-7650.17 142.894 -486.536
142.894 63.265 -6.3181
-486.536 -6.3181 479.221

-7665.18 145.589 -527.128
145.589 -6.21299 -8.19062
-527.128 -8.19062 386.656

-8727.75 0.876005 19.8645
0.876005 1.02732 261.814
19.8645 261.814 -194.613

-9018.29 -1588.68 1621.21
-1588.68 -3935.29 -990.321
1621.21 -990.321 -4693.61

-7740.19 -127.815 -441.677
-127.815 -113.509 3.42218
-441.677 3.42218 400.943

-7849.98 297.659 -84.9352
297.659 168.18 232.934
-84.9352 232.934 1549.15

-8762.61 -542.557 -794.757
-542.557 -4196.72 164.168
-794.757 164.168 -3708.49

-9103.55 1.44903 0.623553
1.44903 -348.869 140.652
0.623553 140.652 -336.687

-8703.72 -592.453 272.565
-592.453 -3097.44 -205.156
272.565 -205.156 -1632.72

-8873.94 -609.402 1846.42
-609.402 -6107.14 -362.686
1846.42 -362.686 -3915.61

-7897.9 429.724 -274.055
429.724 638.048 356.335
-274.055 356.335 782.986

-9111.94 11.1277 7.47929
11.1277 -353.162 142.436
7.47929 142.436 -323.776

-8582.59 398.921 667.477
398.921 -2518.04 -13.0991
667.477 -13.0991 -634.197

-9087.51 -1641.76 793.458
-1641.76 -4032.56 -461.757
793.458 -461.757 -5910.89

-7858.29 149.312 -125.098
149.312 -193.221 317.264
-125.098 317.264 1287.68

-7102.19 252.267 -171.12
252.267 329.791 264.008
-171.12 264.008 408.559

-8973.09 -160.519 -55.6492
-160.519 -1678 -31.5292
-55.6492 -31.5292 -1709.26

-8882.02 -745.78 496.365
-745.78 -2911.25 -145.978
496.365 -145.978 -3167.91

-8639.75 239.074 -206.297
239.074 -2192.05 -20.2998
-206.297 -20.2998 -2458.8

-8781.19 1067.08 -955.436
1067.08 -5342.39 -167.712
-955.436 -167.712 -5711.67

-7327.97 140.01 -132.442
140.01 357.623 293.711
-132.442 293.711 876.731

-8799.22 -438.063 -288.12
-438.063 -1905.88 -37.1506
-288.12 -37.1506 -2145

-8285.83 -140.116 201.292
-140.116 -276.302 147.796
201.292 147.796 -471.35

-8140.15 -149.116 86.0189
-149.116 208.195 309.641
86.0189 309.641 797.512

-8102.96 -59.0944 251.699
-59.0944 17.5653 -24.2532
251.699 -24.2532 -390.762

-8102.1 3.45408 280.032
3.45408 -151.272 38.4321
280.032 38.4321 -489.915

-8961.26 183.667 -36.7549
183.667 -1637.71 78.7917
-36.7549 78.7917 -1754.18

-8635.54 241.294 -156.297
241.294 -1058.82 136.443
-156.297 136.443 -1312.65

-8038.07 442.506 -509.355
442.506 -3413.03 -90.3516
-509.355 -90.3516 -3254.52

-8879.19 644.024 -746.155
644.024 -3953.7 -159.499
-746.155 -159.499 -3874.53

-8574.53 282.534 -229.958
282.534 -1913.94 60.4645
-229.958 60.4645 -1746.17

-8207.87 -324.715 -547.793
-324.715 -3676.48 80.3736
-547.793 80.3736 -3409.95

-8505.26 -78.4965 -182.258
-78.4965 -518.41 99.9201
-182.258 99.9201 -890.82

-8852.66 -700.551 1108.53
-700.551 -6134.18 -179.678
1108.53 -179.678 -5371.32

-9093.63 612.226 160.924
612.226 -3060.94 -6.60108
160.924 -6.60108 -4105.1

-7380.79 -146.8 169.208
-146.8 318.33 304.184
169.208 304.184 729.236

-7968.85 -13.7942 326.212
-13.7942 841.925 138.909
326.212 138.909 100.593

-8347.01 -22.9901 -126.817
-22.9901 461.333 125.488
-126.817 125.488 -359.639

-9093.53 10.0393 -8.74018
10.0393 -311.3 -122.107
-8.74018 -122.107 -338.093

-8962.75 54.7372 55.8456
54.7372 -1350.02 -47.6314
55.8456 -47.6314 -1309.54

-8226.8 49.4963 152.462
49.4963 -272.04 -201.581
152.462 -201.581 -427.054

-7374.8 -178.159 -117.823
-178.159 291.275 -302.251
-117.823 -302.251 738.299

-7885.57 -355.039 786.36
-355.039 -5263.03 -59.6753
786.36 -59.6753 -4749.04

-8953.06 797.513 1763.66
797.513 -5866.96 450.224
1763.66 450.224 -3881.82

-8219.81 63.848 -77.0051
63.848 903.809 474.232
-77.0051 474.232 1032.99

-8997.61 1568.13 1580.24
1568.13 -4076.76 949.237
1580.24 949.237 -4683.22

-7970.14 -212.641 -336.484
-212.641 698.7 -403.803
-336.484 -403.803 342.702

-8104.78 -253.484 -3.40159
-253.484 -321.127 -163.959
-3.40159 -163.959 630.197

-8438.56 82.4671 39.0019
82.4671 178.724 -329.198
39.0019 -329.198 501.23

-8787.53 183.67 121.888
183.67 -1990.08 -103.34
121.888 -103.34 -1435.74

-9097.43 1656.44 447.927
1656.44 -2443.85 420.303
447.927 420.303 -6545.97

-7687.51 -184.235 550.722
-184.235 1278.64 173.602
550.722 173.602 403.028

-8932.71 1653.68 798.968
1653.68 -4029.66 444.005
798.968 444.005 -5818.02

-8941 208.988 205.036
208.988 -1955.21 -16.9632
205.036 -16.9632 -2082.25

-9178.36 286.081 613.372
286.081 -4149.58 27.5268
613.372 27.5268 -3677.82

-9122.14 1714.56 -435.532
1714.56 -2462 -421.659
-435.532 -421.659 -6567.93

-8178.03 85.2103 180.156
85.2103 740.301 -315.288
180.156 -315.288 111.565

-8202.24 -406.388 -100.946
-406.388 235.197 -107.822
-100.946 -107.822 963.372

-8265.78 -43.5508 -105.734
-43.5508 844.331 -523.631
-105.734 -523.631 630.766

-7771.13 -84.8457 -236.703
-84.8457 1836.66 -341.921
-236.703 -341.921 115.019

-8076.8 783.487 -367.136
783.487 -4973.27 -71.5206
-367.136 -71.5206 -5475.96

-8554.57 339.943 39.0304
339.943 -1702.17 30.3697
39.0304 30.3697 -3352.66

-8612.26 334.73 -57.0537
334.73 -1857.07 -129.752
-57.0537 -129.752 -3415.39

-8968.93 557.333 689.664
557.333 -3381.58 143.797
689.664 143.797 -2943.31

-9226.79 -262.901 1634.97
-262.901 -7001.24 -187.279
1634.97 -187.279 -2567.1

-9052.52 1056.14 919.941
1056.14 -5642.17 231.818
919.941 231.818 -5974.48

-9131.81 453.771 553.715
453.771 -3041.12 326.729
553.715 326.729 -2133.58

-9786.53 1217.49 1471.62
1217.49 -3526.93 1689.01
1471.62 1689.01 -4912.09

