# vtk DataFile Version 3.0
vtk output at time 0.7
ASCII
DATASET UNSTRUCTURED_GRID
POINTS 1524 float
0 0 0 0 0 0.05 0 0 0.1 
0 0 0.15 0 0 0.2 0 0.05 0 
0 0.05 0.05 0 0.05 0.1 0 0.05 0.15 
0 0.05 0.2 0 0.1 0 0 0.1 0.05 
0 0.1 0.1 0 0.1 0.15 0 0.1 0.2 
0 0.15 0 0 0.15 0.05 0 0.15 0.1 
0 0.15 0.15 0 0.15 0.2 0 0.2 0 
0 0.2 0.05 0 0.2 0.1 0 0.2 0.15 
0 0.2 0.2 0.0389889 -0.0073357 -0.00780515 0.0409794 -0.00794274 0.046002 
0.0415969 -0.00794083 0.100019 0.0410256 -0.00795015 0.153997 0.0390217 -0.0073698 0.207777 
0.0409799 0.0460646 -0.00798266 0.0409614 0.0460521 0.208012 0.041696 0.100011 -0.00819752 
0.0417147 0.100029 0.208159 0.0410015 0.153915 -0.00792435 0.0409638 0.153944 0.207961 
0.0390489 0.20733 -0.00777211 0.0409902 0.207974 0.0459931 0.0416059 0.207964 0.100004 
0.0410158 0.207984 0.15398 0.0390363 0.207398 0.207727 0.0825532 -0.0085072 -0.00850813 
0.0825077 -0.00882289 0.0451944 0.0824516 -0.00953367 0.0999877 0.0823408 -0.00891672 0.154752 
0.0825567 -0.00851925 0.208458 0.0826154 0.0451532 -0.00871432 0.082608 0.0451676 0.208737 
0.0824581 0.100031 -0.00965192 0.0825587 0.0999656 0.209582 0.0822361 0.154824 -0.00879956 
0.0822632 0.154723 0.208726 0.0825328 0.208456 -0.00849964 0.0825132 0.208768 0.0451654 
0.0825752 0.209563 0.0999937 0.0824395 0.208905 0.154788 0.0825621 0.208465 0.208523 
0.125962 -0.00735987 -0.00777646 0.124187 -0.00814427 0.0460363 0.12336 -0.0082566 0.100014 
0.124022 -0.00806457 0.154032 0.125946 -0.00734338 0.207772 0.124259 0.046046 -0.00814486 
0.124214 0.0460671 0.208062 0.123188 0.100051 -0.0083272 0.123172 0.100072 0.208244 
0.124088 0.153981 -0.00797885 0.124018 0.15396 0.207945 0.126011 0.207374 -0.00776778 
0.124194 0.208113 0.0459776 0.123338 0.208125 0.100033 0.124045 0.208192 0.153906 
0.126014 0.207393 0.207737 0.165 0 0 0.165 0 0.05 
0.165 0 0.1 0.165 0 0.15 0.165 0 0.2 
0.165 0.05 0 0.165 0.05 0.05 0.165 0.05 0.1 
0.165 0.05 0.15 0.165 0.05 0.2 0.165 0.1 0 
0.165 0.1 0.05 0.165 0.1 0.1 0.165 0.1 0.15 
0.165 0.1 0.2 0.165 0.15 0 0.165 0.15 0.05 
0.165 0.15 0.1 0.165 0.15 0.15 0.165 0.15 0.2 
0.165 0.2 0 0.165 0.2 0.05 0.165 0.2 0.1 
0.165 0.2 0.15 0.165 0.2 0.2 0 0 0.0166667 
0 0 0.0333333 0 0.0166667 0 0 0.0333333 0 
0.00981655 -0.00432481 -0.00555495 0.0238614 -0.00646355 -0.00652644 0.0128991 -0.00515208 0.0129003 
0.0260978 -0.00649173 0.0289418 0 0 0.0666667 0 0 0.0833333 
0 0.0166667 0.0333333 0 0.0333333 0.0166667 0 0.0166667 0.05 
0 0.0333333 0.05 0 0.0166667 0.0666667 0 0.0333333 0.0833333 
0.013753 -0.00526464 0.0481652 0.0269523 -0.00679452 0.046929 0 0 0.116667 
0 0 0.133333 0 0.0166667 0.1 0 0.0333333 0.1 
0.0138436 -0.0053469 0.0826965 0.027224 -0.00670216 0.0646721 0.0142083 -0.00507377 0.100042 
0.0277699 -0.00689962 0.100035 0.0138606 -0.00530909 0.117381 0.0272478 -0.00666714 0.135373 
0 0 0.166667 0 0 0.183333 0 0.0166667 0.133333 
0 0.0333333 0.116667 0 0.0166667 0.15 0 0.0333333 0.15 
0 0.0166667 0.166667 0 0.0333333 0.183333 0.0137848 -0.00519861 0.151838 
0.02698 -0.00674681 0.153098 0 0.0166667 0.2 0 0.0333333 0.2 
0.012917 -0.00514001 0.187081 0.0261287 -0.00646665 0.171059 0.00983133 -0.00433215 0.205529 
0.0238847 -0.00647463 0.206505 0 0.05 0.0166667 0 0.05 0.0333333 
0 0.0666667 0 0 0.0833333 0 0 0.0666667 0.0166667 
0 0.0833333 0.0333333 0.0123446 0.0310992 -0.00515864 0.025282 0.0112803 -0.00673215 
0.0144742 0.0306803 0.0128556 0.0278982 0.0112214 0.0289371 0.0137141 0.0483678 -0.00511765 
0.027226 0.0470491 -0.00708111 0.0139557 0.0659206 -0.00530341 0.027474 0.0824185 -0.00691213 
0 0.05 0.0666667 0 0.05 0.0833333 0 0.0666667 0.05 
0 0.0833333 0.05 0.0151287 0.0305806 0.0481948 0.0286012 0.0111113 0.0469245 
0.0149893 0.0481438 0.0305604 0.0284208 0.0469295 0.0110109 0.0153232 0.0655249 0.0305282 
0.0291077 0.0823537 0.0110246 0.0291618 0.0290456 0.0468229 0.0556334 0.00918947 0.0454686 
0.0295786 0.0289605 0.0646099 0.0561229 0.00905072 0.0818124 0.0292659 0.046837 0.0289082 
0.0556373 0.0455432 0.00913304 0.0296415 0.0645357 0.0289137 0.0561277 0.0818626 0.00905552 
0 0.05 0.116667 0 0.05 0.133333 0 0.0666667 0.0833333 
0 0.0833333 0.0666667 0 0.0666667 0.1 0 0.0833333 0.1 
0 0.0666667 0.116667 0 0.0833333 0.133333 0.0153469 0.0305738 0.0828174 
0.0289336 0.0110319 0.0646342 0.0153678 0.0305355 0.100041 0.0289844 0.0110779 0.100028 
0.0153878 0.0305875 0.117282 0.0289979 0.0110303 0.135443 0.0298568 0.0289661 0.10001 
0.0563448 0.00900349 0.100039 0.0298032 0.0289212 0.11772 0.0560387 0.00912202 0.136328 
0.030211 0.0645224 0.0645424 0.0566738 0.0818325 0.027183 0 0.05 0.166667 
0 0.05 0.183333 0 0.0666667 0.15 0 0.0833333 0.15 
0.0151829 0.0306331 0.151904 0.028702 0.0111535 0.153133 0.015016 0.0481587 0.169463 
0.0284255 0.0469335 0.189022 0.0152941 0.0655179 0.169484 0.0290654 0.0823606 0.18898 
0.0294406 0.0290144 0.153266 0.0557363 0.009246 0.154465 0.0292934 0.0468579 0.171123 
0.0556018 0.0455155 0.190888 0.0295854 0.0645694 0.1711 0.0561071 0.0818098 0.190968 
0 0.0666667 0.183333 0 0.0833333 0.166667 0 0.0666667 0.2 
0 0.0833333 0.2 0.0144852 0.0306765 0.187174 0.0279563 0.0112401 0.171074 
0.0123441 0.0310787 0.205183 0.0253031 0.0112604 0.206731 0.013704 0.0483559 0.205131 
0.0272124 0.0470406 0.207105 0.0139372 0.0659209 0.205318 0.0274518 0.0824399 0.206918 
0 0.1 0.0166667 0 0.1 0.0333333 0 0.116667 0 
0 0.133333 0 0.0137034 0.100052 -0.00541586 0.0271941 0.0999385 -0.00659907 
0 0.1 0.0666667 0 0.1 0.0833333 0 0.116667 0.0333333 
0 0.133333 0.0166667 0 0.116667 0.05 0 0.133333 0.05 
0 0.116667 0.0666667 0 0.133333 0.0833333 0.0153913 0.100008 0.0305353 
0.0292099 0.0999953 0.0109537 0.015343 0.11729 0.0305476 0.0289004 0.135378 0.0110377 
0.0299198 0.100002 0.0288377 0.0563325 0.0999924 0.00902487 0.0298078 0.117683 0.0288378 
0.0560053 0.136278 0.00914161 0 0.1 0.116667 0 0.1 0.133333 
0 0.116667 0.1 0 0.133333 0.1 0.0303504 0.0645899 0.0999872 
0.0566604 0.027208 0.0999781 0.030253 0.0646795 0.117676 0.056523 0.0272128 0.136327 
0.0303042 0.100003 0.064607 0.0567108 0.100005 0.0272273 0.0305375 0.0999836 0.135406 
0.0566865 0.0999797 0.172837 0.0302499 0.117677 0.0646466 0.0565328 0.136272 0.0272387 
0.0303467 0.11765 0.135396 0.0564997 0.136432 0.172809 0.0304562 0.135405 0.0999939 
0.0566694 0.172817 0.099956 0.0303068 0.135354 0.117636 0.0565015 0.17281 0.136346 
0.0577286 0.0999949 0.0999781 0.107331 0.100017 0.100008 0 0.1 0.166667 
0 0.1 0.183333 0 0.116667 0.133333 0 0.133333 0.116667 
0 0.116667 0.15 0 0.133333 0.15 0 0.116667 0.166667 
0 0.133333 0.183333 0.0154079 0.0999973 0.169376 0.0292246 0.100004 0.188966 
0.0153654 0.117229 0.169374 0.0289065 0.135329 0.188942 0.0299936 0.0645348 0.153265 
0.0562419 0.0272704 0.154524 0.0299259 0.0999631 0.171059 0.0563608 0.100004 0.191031 
0.0298264 0.117662 0.171061 0.0560035 0.136366 0.190912 0.0299719 0.135399 0.153213 
0.056257 0.172741 0.154517 0 0.116667 0.2 0 0.133333 0.2 
0.0137161 0.100066 0.205396 0.0272129 0.099956 0.206565 0 0.15 0.0166667 
0 0.15 0.0333333 0 0.166667 0 0 0.183333 0 
0 0.166667 0.0166667 0 0.183333 0.0333333 0.0137811 0.134512 -0.00526291 
0.0273301 0.117597 -0.00679795 0.0140429 0.151624 -0.00505764 0.0274806 0.152969 -0.00702037 
0.0124815 0.168798 -0.0051076 0.0253264 0.188726 -0.00668392 0.0145017 0.16923 0.0128538 
0.0279337 0.188838 0.0289716 0 0.15 0.0666667 0 0.15 0.0833333 
0 0.166667 0.05 0 0.183333 0.05 0.0151589 0.151891 0.0305693 
0.0286863 0.153107 0.0110804 0.0151496 0.169422 0.0482059 0.0286291 0.188918 0.046942 
0.0294126 0.153213 0.0289699 0.0556828 0.15439 0.00924612 0.0293003 0.17103 0.0468299 
0.0556735 0.190811 0.0454883 0.0296399 0.171074 0.0645983 0.0561246 0.190925 0.0817997 
0 0.15 0.116667 0 0.15 0.133333 0 0.166667 0.0833333 
0 0.183333 0.0666667 0 0.166667 0.1 0 0.183333 0.1 
0 0.166667 0.116667 0 0.183333 0.133333 0.0153621 0.169424 0.0828093 
0.0289577 0.188996 0.0646293 0.0153851 0.169472 0.100016 0.0289933 0.188944 0.100011 
0.015381 0.169426 0.117242 0.0289802 0.189008 0.135419 0.0299966 0.153241 0.0645296 
0.0562416 0.154453 0.0272875 0.0299022 0.171062 0.100001 0.0563369 0.191002 0.100026 
0.0297884 0.171095 0.117693 0.0560114 0.190901 0.13634 0 0.15 0.166667 
0 0.15 0.183333 0 0.166667 0.15 0 0.183333 0.15 
0.0151461 0.151823 0.169433 0.0286496 0.153073 0.188951 0.0151776 0.169364 0.151867 
0.0286791 0.188877 0.153105 0.0293689 0.153148 0.171057 0.0556288 0.154507 0.190819 
0.0294905 0.171038 0.153207 0.0557367 0.190781 0.154456 0 0.166667 0.183333 
0 0.183333 0.166667 0 0.166667 0.2 0 0.183333 0.2 
0.0137809 0.134484 0.205255 0.0273333 0.117589 0.206754 0.0140209 0.151603 0.205075 
0.0274446 0.152957 0.207043 0.0145087 0.169208 0.187156 0.0279634 0.188798 0.171032 
0.0124773 0.168791 0.205116 0.0253245 0.188736 0.20668 0 0.2 0.0166667 
0 0.2 0.0333333 0.00982896 0.20424 -0.00555113 0.0238617 0.206459 -0.00649032 
0.01292 0.205095 0.0128952 0.0260856 0.206531 0.0289532 0 0.2 0.0666667 
0 0.2 0.0833333 0.0137417 0.205257 0.0481667 0.0269239 0.206811 0.0469551 
0 0.2 0.116667 0 0.2 0.133333 0.0138444 0.205347 0.0826829 
0.0272267 0.206718 0.0646797 0.0142011 0.205079 0.10002 0.0277683 0.20692 0.100015 
0.013846 0.205326 0.117359 0.0272209 0.206703 0.135348 0 0.2 0.166667 
0 0.2 0.183333 0.013758 0.205213 0.151841 0.0269322 0.206775 0.153063 
0.0129255 0.205079 0.187095 0.0260923 0.2065 0.171038 0.00982546 0.204235 0.205538 
0.0238495 0.206466 0.20647 0.0396146 -0.00749811 0.0100615 0.0402144 -0.00772056 0.0280728 
0.0396491 0.0102287 -0.00767857 0.0403558 0.0280883 -0.00776628 0.053447 -0.00811449 -0.0081604 
0.068029 -0.00846228 -0.00842978 0.054013 0.00960825 -0.00825148 0.0685661 0.0271731 -0.0087079 
0.0414624 -0.00800574 0.0641214 0.0415211 -0.00798554 0.0820632 0.0414024 0.0100966 0.0280017 
0.0413676 0.0280982 0.00996581 0.0543883 -0.00838142 0.0273631 0.0682482 -0.00849477 0.00922783 
0.0547343 -0.00863097 0.045448 0.068588 -0.00894858 0.0452088 0.0550584 -0.00876554 0.0635788 
0.0688431 -0.00928243 0.0816573 0.0550864 0.00937843 0.0273813 0.0687998 0.0271853 0.00902606 
0.0415461 -0.00798848 0.117966 0.0415144 -0.00800369 0.135888 0.055354 -0.00879007 0.100016 
0.0689591 -0.00933105 0.10001 0.0402456 -0.00771916 0.171912 0.0396394 -0.00750887 0.189915 
0.0414769 0.0100951 0.171988 0.0413971 0.0280834 0.19006 0.0551642 -0.00875527 0.136345 
0.0689419 -0.00927302 0.118314 0.0547115 -0.00862246 0.154496 0.06846 -0.00893795 0.154696 
0.0544223 -0.00838835 0.172595 0.0682759 -0.00849623 0.190711 0.0551423 0.00937478 0.172576 
0.068793 0.0271853 0.190964 0.0396793 0.0101948 0.207673 0.0403661 0.0280586 0.207791 
0.0534806 -0.00815781 0.208115 0.0680549 -0.00849113 0.208372 0.0540416 0.00956492 0.208237 
0.0685754 0.0271485 0.20871 0.0413561 0.064069 -0.00802786 0.0415477 0.0820519 -0.00805655 
0.0549007 0.0454894 -0.00868526 0.068762 0.0452078 -0.0089273 0.0413242 0.0640721 0.20805 
0.0415233 0.0820667 0.208063 0.0548736 0.0454638 0.208713 0.0687341 0.0451843 0.208952 
0.0415555 0.117946 -0.00802686 0.0413533 0.135912 -0.00798984 0.0552836 0.0818594 -0.00884211 
0.0688713 0.063462 -0.00909616 0.0552961 0.100012 -0.00892654 0.0688545 0.100043 -0.00939458 
0.0553325 0.118182 -0.00879769 0.0688599 0.136569 -0.00906795 0.0415538 0.117961 0.207994 
0.0413467 0.135917 0.207981 0.0552599 0.0818455 0.208854 0.0688295 0.0634266 0.209121 
0.055317 0.100022 0.208905 0.0689088 0.100016 0.20938 0.0553271 0.118218 0.208824 
0.068869 0.136613 0.209123 0.0404013 0.171951 -0.00771784 0.039682 0.189806 -0.00762211 
0.0414592 0.17195 0.0100312 0.0414717 0.189981 0.0280399 0.054752 0.154425 -0.00863951 
0.0684867 0.154658 -0.00895234 0.0414502 0.171976 0.189986 0.0414996 0.189974 0.171938 
0.0403766 0.171997 0.207734 0.0396682 0.189862 0.207614 0.0547286 0.154515 0.208685 
0.0684833 0.154751 0.208957 0.0396671 0.207528 0.0100773 0.0402544 0.20778 0.0280708 
0.0540507 0.19038 -0.00822104 0.0684818 0.172756 -0.00868488 0.0535165 0.208115 -0.00814219 
0.0680661 0.208422 -0.00841814 0.0414892 0.208033 0.0641124 0.0415468 0.208008 0.0820514 
0.0551485 0.190638 0.0274172 0.0687637 0.172745 0.00905464 0.0544709 0.208398 0.0273761 
0.0683158 0.208457 0.00925307 0.0547866 0.208674 0.0454372 0.0686185 0.208938 0.0451908 
0.0551098 0.208765 0.0635846 0.0689021 0.209235 0.0816656 0.0415434 0.208021 0.117951 
0.0414995 0.208049 0.135875 0.0553669 0.208792 0.100005 0.0689948 0.20932 0.100005 
0.0402522 0.207776 0.171882 0.0396458 0.207551 0.189873 0.0551616 0.190672 0.172547 
0.0687359 0.172814 0.19095 0.0551684 0.208785 0.136342 0.0689643 0.209246 0.118307 
0.0547761 0.208668 0.154478 0.0685742 0.20897 0.154702 0.054469 0.208427 0.172562 
0.0683251 0.208507 0.190713 0.0540376 0.190478 0.208211 0.06849 0.172839 0.208704 
0.0534904 0.208207 0.208087 0.0680712 0.208491 0.208384 0.0825137 -0.00856386 0.00921585 
0.0825067 -0.00867515 0.0271394 0.0825526 0.00923391 -0.00850947 0.0825775 0.027108 -0.00860198 
0.0970185 -0.00847266 -0.00833651 0.11153 -0.00811854 -0.00809302 0.0967544 -0.00847152 0.0093314 
0.110612 -0.00834472 0.0274324 0.0824604 -0.00907435 0.0633772 0.0824154 -0.00932059 0.081662 
0.0824588 0.00909863 0.0271402 0.0825005 0.0271674 0.00913687 0.0824344 0.0270284 0.027031 
0.0825006 0.0634521 0.00872596 0.0964546 -0.00881722 0.0452767 0.110367 -0.00856536 0.0455147 
0.095941 0.0270933 0.0270944 0.109272 0.0636791 0.00910477 0.0824699 -0.00934936 0.118286 
0.0824839 -0.00916312 0.136572 0.0824449 0.0266451 0.0633218 0.0825303 0.0633151 0.0266842 
0.0825348 0.026714 0.136651 0.0824895 0.0633302 0.173304 0.0961684 -0.00909053 0.0816697 
0.110065 -0.00865641 0.063596 0.0961418 -0.00929276 0.0999992 0.10974 -0.00890673 0.100004 
0.096077 -0.00923162 0.118289 0.109892 -0.00880471 0.136391 0.0954861 0.0267794 0.0634353 
0.108657 0.0636312 0.0271392 0.0955663 0.0268468 0.136533 0.108597 0.0636496 0.172814 
0.10836 0.0272213 0.100001 0.134533 0.064589 0.100035 0.10842 0.0271915 0.118186 
0.13468 0.064507 0.135434 0.0824794 -0.00865819 0.172806 0.0825269 -0.00853893 0.190732 
0.082452 0.00910152 0.172831 0.0824989 0.0271991 0.190864 0.0824578 0.0270991 0.173045 
0.0824498 0.0634652 0.191334 0.0963238 -0.0087859 0.154722 0.110207 -0.00852253 0.154534 
0.0959424 0.0271279 0.172888 0.109227 0.063714 0.190866 0.0825446 0.00923361 0.208475 
0.0825733 0.0271145 0.208586 0.0967504 -0.00844258 0.19066 0.110563 -0.00832724 0.172585 
0.0970021 -0.00844089 0.208334 0.111511 -0.00808311 0.2081 0.0825154 0.0633287 -0.00895055 
0.0825039 0.0816118 -0.00924195 0.0965097 0.0271754 -0.00863127 0.110982 0.00961958 -0.00818545 
0.096223 0.0272124 0.00914575 0.109956 0.00938928 0.027463 0.0963635 0.0452309 -0.00878505 
0.110302 0.0454908 -0.0085198 0.0962732 0.0633962 -0.00893918 0.109777 0.0817345 -0.00885536 
0.0825039 0.063338 0.209 0.0825047 0.0816143 0.209277 0.0962319 0.027237 0.19084 
0.109944 0.00942006 0.172543 0.0965017 0.0271968 0.208622 0.110979 0.00964822 0.208181 
0.0963438 0.0452447 0.208794 0.110268 0.0455036 0.208514 0.0962472 0.063415 0.208939 
0.109686 0.0817648 0.208817 0.0824959 0.118307 -0.00944526 0.0824418 0.136607 -0.00914185 
0.0826274 0.136652 0.0266753 0.0825464 0.17332 0.0633177 0.0960823 0.100012 -0.00940692 
0.109607 0.100004 -0.00899886 0.0956083 0.136548 0.0267876 0.108618 0.172866 0.0636104 
0.108353 0.0999888 0.0271809 0.134549 0.100011 0.0646036 0.108426 0.118192 0.0271692 
0.134677 0.135453 0.0645295 0.082524 0.118266 0.209352 0.0824485 0.13656 0.209041 
0.082472 0.13668 0.173282 0.082543 0.173308 0.13662 0.0825438 0.136539 0.191318 
0.0825842 0.172961 0.172951 0.0960937 0.100006 0.209345 0.109584 0.100021 0.208944 
0.095473 0.136558 0.173156 0.108643 0.172817 0.136334 0.0958273 0.136453 0.191239 
0.109383 0.172649 0.172605 0.108282 0.0999972 0.17275 0.134638 0.0999766 0.135376 
0.108675 0.100013 0.190947 0.135075 0.0999651 0.171138 0.108289 0.11816 0.172816 
0.134748 0.135384 0.135427 0.108823 0.118182 0.190901 0.13527 0.135353 0.17116 
0.0824714 0.172867 -0.00859162 0.0825438 0.19072 -0.00849635 0.0824874 0.172881 0.00913928 
0.08254 0.190888 0.0271796 0.0825353 0.17308 0.0271062 0.0825151 0.191367 0.063457 
0.0962479 0.136605 -0.00909745 0.109775 0.118213 -0.00886679 0.0963399 0.154743 -0.0089203 
0.110252 0.154496 -0.00865281 0.0965013 0.17274 -0.00861769 0.111014 0.190402 -0.00820043 
0.0962463 0.172762 0.00908852 0.110031 0.190644 0.0274467 0.0960013 0.172908 0.0270714 
0.109255 0.190916 0.0636635 0.108964 0.154543 0.0272643 0.134966 0.153269 0.0645762 
0.0824727 0.17282 0.190857 0.0825195 0.190884 0.172857 0.0824754 0.172796 0.208523 
0.0825422 0.190697 0.20847 0.0961827 0.136602 0.209021 0.109691 0.118202 0.208826 
0.0962553 0.154801 0.208837 0.110131 0.154552 0.208602 0.0962809 0.172748 0.190899 
0.110003 0.190658 0.172546 0.0964663 0.172777 0.208629 0.11102 0.190421 0.208194 
0.109456 0.154508 0.190753 0.135627 0.153093 0.171109 0.0825572 0.208492 0.00921918 
0.082557 0.208615 0.0271306 0.0970103 0.20842 -0.00839437 0.111538 0.208141 -0.00811325 
0.0967687 0.208436 0.00928408 0.110602 0.208351 0.0274394 0.0824645 0.209019 0.0633479 
0.0824973 0.209293 0.0816505 0.0963593 0.208823 0.0452241 0.110181 0.208551 0.0454509 
0.0824879 0.209287 0.118276 0.0824763 0.209092 0.136572 0.0960901 0.209135 0.0816623 
0.109818 0.208718 0.0636242 0.0961143 0.209313 0.100008 0.109676 0.208876 0.100018 
0.0961145 0.209098 0.118316 0.109844 0.208678 0.136375 0.108362 0.172765 0.0999877 
0.134659 0.135418 0.099994 0.108741 0.190944 0.0999952 0.135146 0.171168 0.0999932 
0.082523 0.208647 0.172859 0.0825458 0.208525 0.190785 0.0962808 0.208794 0.154753 
0.110167 0.208552 0.154518 0.0967519 0.208451 0.190705 0.110586 0.208389 0.17258 
0.0969974 0.208429 0.208381 0.111555 0.208147 0.208092 0.125384 -0.00757246 0.0100705 
0.124839 -0.00785794 0.0280839 0.125381 0.0101549 -0.00765329 0.124705 0.028005 -0.0078051 
0.141214 -0.00648542 -0.00649185 0.155233 -0.00426193 -0.00553214 0.13976 0.0112432 -0.00671055 
0.152582 0.0312211 -0.00511475 0.123699 -0.00828177 0.0640914 0.123466 -0.00828021 0.0820678 
0.123675 0.00994292 0.0279817 0.123692 0.027998 0.00990525 0.122685 0.0279344 0.0278783 
0.122658 0.0641411 0.00972142 0.138995 -0.00649501 0.0289583 0.152101 -0.00508989 0.0129169 
0.138195 -0.00679014 0.0469685 0.151256 -0.00514636 0.0481861 0.137963 -0.00677969 0.0646664 
0.151181 -0.00527936 0.0826724 0.137133 0.0112046 0.0289824 0.150507 0.0308181 0.0128696 
0.136343 0.0111031 0.046948 0.149791 0.0307348 0.0481769 0.135967 0.0109263 0.0646007 
0.14957 0.0306154 0.0827583 0.135613 0.0290192 0.0468183 0.149364 0.0654173 0.0481494 
0.135342 0.0289508 0.0646491 0.149173 0.0655184 0.0827652 0.12339 -0.00813217 0.118004 
0.123529 -0.00812638 0.135996 0.121741 0.0278051 0.0640232 0.121837 0.0640271 0.0278166 
0.137279 -0.00706734 0.0999846 0.150796 -0.00507439 0.0999766 0.135887 0.0108275 0.0999927 
0.149598 0.0304936 0.0999935 0.13524 0.0287951 0.100004 0.149182 0.0654243 0.0999821 
0.135269 0.0288105 0.117666 0.149276 0.0654429 0.134505 0.124774 -0.00780598 0.171947 
0.125361 -0.00754491 0.189935 0.123679 0.0100027 0.172026 0.123696 0.0280338 0.190068 
0.122736 0.0279527 0.17209 0.12261 0.0640958 0.190221 0.137885 -0.00681359 0.135346 
0.15118 -0.00533488 0.117291 0.138149 -0.0068595 0.153043 0.151268 -0.00521501 0.151816 
0.138986 -0.00654117 0.17105 0.152121 -0.00510418 0.187113 0.136001 0.0108673 0.135371 
0.149624 0.0305255 0.117216 0.136394 0.011007 0.153057 0.14983 0.0306933 0.151838 
0.137166 0.0111537 0.17103 0.150529 0.0308142 0.187122 0.135699 0.0289063 0.153132 
0.149399 0.0655349 0.151898 0.125382 0.0101742 0.207643 0.124697 0.0280256 0.207777 
0.141206 -0.00648456 0.206502 0.155236 -0.00424544 0.205569 0.139759 0.0112438 0.206705 
0.152577 0.031235 0.205104 0.123765 0.0640419 -0.00829358 0.123535 0.0820441 -0.00828512 
0.137729 0.0470338 -0.00713124 0.151036 0.0483965 -0.00509078 0.136455 0.0469797 0.0109579 
0.149827 0.0482234 0.0306428 0.136187 0.0647414 0.0109609 0.149645 0.0827856 0.0306576 
0.123682 0.064096 0.208199 0.123447 0.0821035 0.2082 0.136459 0.0469625 0.189039 
0.149835 0.0482222 0.169385 0.137708 0.0470082 0.207116 0.151039 0.0484063 0.205116 
0.136168 0.0647212 0.189057 0.149672 0.082774 0.169427 0.123432 0.118012 -0.00814672 
0.123688 0.136007 -0.00804777 0.137859 0.0824385 -0.00690595 0.151299 0.0655477 -0.00527822 
0.137869 0.100107 -0.00669217 0.151342 0.100002 -0.00545362 0.135795 0.100027 0.0108153 
0.149587 0.0999942 0.0305929 0.135189 0.100017 0.0288108 0.14913 0.100007 0.0654183 
0.137561 0.11761 -0.00702395 0.151053 0.13408 -0.00528873 0.135884 0.117621 0.0108777 
0.149674 0.134465 0.0305777 0.135158 0.117632 0.02878 0.149228 0.134481 0.0654587 
0.123362 0.117999 0.208101 0.123618 0.13596 0.208035 0.137703 0.0824784 0.206877 
0.151265 0.0655383 0.205345 0.135857 0.100028 0.189015 0.149628 0.0999698 0.169446 
0.137763 0.100104 0.206626 0.151318 0.0999859 0.205487 0.135908 0.117626 0.189014 
0.149697 0.134454 0.169505 0.137453 0.117573 0.206951 0.151028 0.134075 0.205334 
0.124683 0.171994 -0.00776052 0.125368 0.189845 -0.00765948 0.123706 0.171966 0.00996948 
0.123682 0.190048 0.0279935 0.122751 0.172082 0.0279375 0.122619 0.190292 0.0640688 
0.137769 0.152987 -0.00711464 0.151226 0.151607 -0.00507658 0.136452 0.153083 0.0109683 
0.149846 0.151765 0.03053 0.135732 0.153104 0.0288911 0.149385 0.151813 0.0654994 
0.123668 0.17193 0.189989 0.123639 0.189977 0.171916 0.124661 0.171949 0.207741 
0.125359 0.189818 0.207634 0.136523 0.153037 0.189004 0.149898 0.151762 0.169507 
0.137748 0.152963 0.207074 0.151261 0.151632 0.205129 0.125416 0.207573 0.0100646 
0.124864 0.207868 0.0280453 0.139753 0.188747 -0.00673123 0.152643 0.168855 -0.00513656 
0.141196 0.206484 -0.00653963 0.155232 0.204294 -0.00558464 0.123674 0.208271 0.0640705 
0.123472 0.208252 0.0820855 0.137158 0.188852 0.0289485 0.150519 0.169277 0.0128806 
0.136521 0.188936 0.0469353 0.14986 0.169228 0.0481352 0.136132 0.189087 0.0646533 
0.149672 0.169365 0.0827814 0.139017 0.206537 0.0289281 0.152137 0.205144 0.0128782 
0.13824 0.206853 0.0469319 0.151298 0.205226 0.0481688 0.138013 0.206821 0.0646684 
0.151243 0.205376 0.0826845 0.123485 0.208243 0.117947 0.123642 0.208288 0.135898 
0.13601 0.188998 0.100013 0.149659 0.169503 0.100004 0.137252 0.206981 0.100028 
0.15081 0.205139 0.100006 0.124825 0.207797 0.171855 0.125422 0.207531 0.189873 
0.136199 0.18899 0.135381 0.149682 0.169269 0.117238 0.13656 0.188845 0.153094 
0.149892 0.169205 0.1519 0.137109 0.188762 0.171043 0.150537 0.169278 0.187167 
0.138015 0.206779 0.135354 0.151261 0.205362 0.117334 0.138137 0.206811 0.153087 
0.151268 0.205223 0.151859 0.138937 0.206467 0.171038 0.152123 0.205136 0.187111 
0.139714 0.188731 0.206715 0.15265 0.168893 0.205177 0.141147 0.206472 0.206502 
0.155187 0.204316 0.205563 0.165 0 0.0166667 0.165 0 0.0333333 
0.165 0.0166667 0 0.165 0.0333333 0 0.165 0 0.0666667 
0.165 0 0.0833333 0.165 0.0166667 0.0333333 0.165 0.0333333 0.0166667 
0.165 0.0166667 0.05 0.165 0.0333333 0.05 0.165 0.0166667 0.0666667 
0.165 0.0333333 0.0833333 0.165 0 0.116667 0.165 0 0.133333 
0.165 0.0166667 0.1 0.165 0.0333333 0.1 0.165 0 0.166667 
0.165 0 0.183333 0.165 0.0166667 0.133333 0.165 0.0333333 0.116667 
0.165 0.0166667 0.15 0.165 0.0333333 0.15 0.165 0.0166667 0.166667 
0.165 0.0333333 0.183333 0.165 0.0166667 0.2 0.165 0.0333333 0.2 
0.165 0.05 0.0166667 0.165 0.05 0.0333333 0.165 0.0666667 0 
0.165 0.0833333 0 0.165 0.0666667 0.0166667 0.165 0.0833333 0.0333333 
0.165 0.05 0.0666667 0.165 0.05 0.0833333 0.165 0.0666667 0.05 
0.165 0.0833333 0.05 0.165 0.05 0.116667 0.165 0.05 0.133333 
0.165 0.0666667 0.0833333 0.165 0.0833333 0.0666667 0.165 0.0666667 0.1 
0.165 0.0833333 0.1 0.165 0.0666667 0.116667 0.165 0.0833333 0.133333 
0.165 0.05 0.166667 0.165 0.05 0.183333 0.165 0.0666667 0.15 
0.165 0.0833333 0.15 0.165 0.0666667 0.183333 0.165 0.0833333 0.166667 
0.165 0.0666667 0.2 0.165 0.0833333 0.2 0.165 0.1 0.0166667 
0.165 0.1 0.0333333 0.165 0.116667 0 0.165 0.133333 0 
0.165 0.1 0.0666667 0.165 0.1 0.0833333 0.165 0.116667 0.0333333 
0.165 0.133333 0.0166667 0.165 0.116667 0.05 0.165 0.133333 0.05 
0.165 0.116667 0.0666667 0.165 0.133333 0.0833333 0.165 0.1 0.116667 
0.165 0.1 0.133333 0.165 0.116667 0.1 0.165 0.133333 0.1 
0.165 0.1 0.166667 0.165 0.1 0.183333 0.165 0.116667 0.133333 
0.165 0.133333 0.116667 0.165 0.116667 0.15 0.165 0.133333 0.15 
0.165 0.116667 0.166667 0.165 0.133333 0.183333 0.165 0.116667 0.2 
0.165 0.133333 0.2 0.165 0.15 0.0166667 0.165 0.15 0.0333333 
0.165 0.166667 0 0.165 0.183333 0 0.165 0.166667 0.0166667 
0.165 0.183333 0.0333333 0.165 0.15 0.0666667 0.165 0.15 0.0833333 
0.165 0.166667 0.05 0.165 0.183333 0.05 0.165 0.15 0.116667 
0.165 0.15 0.133333 0.165 0.166667 0.0833333 0.165 0.183333 0.0666667 
0.165 0.166667 0.1 0.165 0.183333 0.1 0.165 0.166667 0.116667 
0.165 0.183333 0.133333 0.165 0.15 0.166667 0.165 0.15 0.183333 
0.165 0.166667 0.15 0.165 0.183333 0.15 0.165 0.166667 0.183333 
0.165 0.183333 0.166667 0.165 0.166667 0.2 0.165 0.183333 0.2 
0.165 0.2 0.0166667 0.165 0.2 0.0333333 0.165 0.2 0.0666667 
0.165 0.2 0.0833333 0.165 0.2 0.116667 0.165 0.2 0.133333 
0.165 0.2 0.166667 0.165 0.2 0.183333 0.139777 0.206657 0.0110068 
0.15364 0.186738 -0.0052812 0.0684816 -0.00869001 0.172834 0.151684 0.20526 0.0306996 
0.165 0.183333 0.0166667 0.151138 0.186994 0.0128954 0 0.0333333 0.0333333 
0.165 0.0666667 0.166667 0 0.0666667 0.0666667 0.055301 0.208787 0.0818086 
0.165 0.116667 0.116667 0.134841 0.0999631 0.153232 0.05396 0.208156 0.00955967 
0.0683097 0.190683 -0.00850259 0.165 0.133333 0.166667 0.137582 0.0648201 0.207048 
0.150165 0.0656074 0.18722 0.0253083 -0.00661872 0.0110293 0.0113709 0.0132257 -0.00527713 
0.0688932 0.0817347 -0.00922383 0.110563 0.0274799 -0.00833587 0.0683057 0.00926453 -0.00852599 
0.0538821 -0.0081414 0.00954338 0.0274878 0.206896 0.117787 0.0148871 0.0306916 0.0306279 
0.0544413 0.0274554 -0.00843634 0.054508 0.00953889 0.00949399 0 0.133333 0.0333333 
0.150235 0.0827512 0.187261 0.165 0.0833333 0.183333 0.151312 0.0828003 0.205457 
0.0265146 0.170907 -0.00695451 0 0.0166667 0.0166667 0.013873 0.0129767 0.0128915 
0.0133696 -0.005261 0.0307157 0.0143902 0.0129634 0.0306718 0.0685513 0.20866 0.0271211 
0.0685246 0.19072 0.00924153 0.0300163 0.0644818 0.0467566 0.165 0.166667 0.166667 
0.0297215 0.0289705 0.0823114 0 0.116667 0.0166667 0.0137313 0.117257 -0.00536945 
0 0.0333333 0.166667 0.110626 0.172536 -0.0083673 0.121356 0.154132 0.135989 
0.0688446 -0.00913895 0.136513 0.13862 0.170893 0.206985 0.111121 0.20816 0.190389 
0.0967427 0.190693 0.208461 0.0687841 0.190915 0.027161 0.0274227 0.064796 -0.00697768 
0.0145791 0.0482346 0.0127266 0.026498 0.170909 0.206963 0 0.166667 0.0333333 
0.0133897 -0.00522958 0.169277 0 0.0166667 0.183333 0.01441 0.0129949 0.169338 
0.165 0.0833333 0.0833333 0.0269586 0.188738 0.0109293 0.0253075 0.206631 0.0110475 
0.0114387 0.186678 -0.00524884 0.0139066 0.18695 0.0129052 0.013368 0.205243 0.0307051 
0.0143989 0.187014 0.0306675 0 0.183333 0.0166667 0 0.133333 0.166667 
0.0147794 0.151808 0.0128576 0.014899 0.169306 0.0306361 0.0279612 0.170924 0.0109686 
0 0.166667 0.166667 0 0.0666667 0.0333333 0.0147965 0.065575 0.0127876 
0 0.0833333 0.0166667 0.014879 0.0828563 0.0128786 0.0148224 0.100031 0.012861 
0.0137878 0.0829283 -0.00537206 0 0.116667 0.183333 0.0137434 0.117242 0.205341 
0.0684777 -0.0086958 0.027104 0.0687435 0.00903424 0.0271239 0.0685007 0.00923626 0.00921161 
0.0114388 0.18667 0.205245 0.0269672 0.188717 0.189066 0.0253022 0.206617 0.188933 
0.109856 0.136403 0.208724 0 0.166667 0.0666667 0.0146137 0.187134 0.0482117 
0 0.183333 0.0833333 0.0147614 0.187138 0.0655867 0.0137174 0.205375 0.0654668 
0.149628 0.117199 0.169472 0 0.0166667 0.0833333 0.0137218 -0.00537815 0.0654686 
0.0566595 0.172854 0.118166 0.0274581 0.135222 0.206938 0.0148736 0.134428 0.187162 
0.0148373 0.117243 0.187149 0.0274867 -0.00688358 0.0822505 0.0148435 0.0128113 0.0827925 
0.0274018 0.0648035 0.207001 0 0.183333 0.116667 0.0148554 0.187164 0.117259 
0.0137276 0.205337 0.13457 0 0.166667 0.133333 0.0147784 0.187084 0.13445 
0.0153205 0.169413 0.134536 0.014635 0.187074 0.151818 0.0427328 0.00988486 0.0820676 
0.0552641 -0.00879167 0.0818165 0.029004 0.0110862 0.0823888 0.0274614 0.135251 -0.00695228 
0.0148713 0.134463 0.0128311 0.0148215 0.117279 0.0127993 0.0279631 0.170902 0.18904 
0.0147729 0.151774 0.187156 0.0288829 0.17095 0.171022 0.0149165 0.169256 0.169402 
0 0.183333 0.183333 0.0139144 0.186927 0.187093 0.0133784 0.205213 0.169292 
0.0144103 0.186974 0.169339 0.0149115 0.0307162 0.169431 0.0145849 0.0482353 0.187295 
0.0138887 0.0129868 0.187107 0.0113779 0.0132129 0.20527 0.0253366 -0.00661071 0.188956 
0.150429 0.187023 0.151824 0.165 0.166667 0.133333 0.0300565 0.153185 0.117663 
0 0.116667 0.116667 0.0301306 0.135374 0.135387 0.13718 0.170871 0.189088 
0.150132 0.169187 0.16943 0.0263771 0.029118 -0.00698905 0.027825 0.0291153 0.0108992 
0.0406418 0.0102233 0.0100733 0.0269123 0.0112807 0.0108746 0.111092 -0.00810563 0.190386 
0.0967297 0.00929477 0.208433 0.121494 0.0999981 0.0278187 0.0147779 0.0655743 0.187234 
0.0153867 0.0827801 0.169439 0 0.0666667 0.166667 0.151349 0.082807 -0.00541853 
0.165 0.0833333 0.0166667 0.0427827 0.0820058 0.00983845 0.0298818 0.0822887 0.0288773 
0.015403 0.0827756 0.0305521 0.0422384 0.190099 0.0460196 0.0687807 0.209091 0.0633922 
0.0551229 0.0636381 0.208786 0.028831 0.0646598 0.189008 0 0.0333333 0.0666667 
0.0152925 0.0305487 0.0655319 0.0146118 0.012854 0.0482104 0.0147581 0.0128501 0.0655867 
0.165 0.0333333 0.133333 0.165 0.183333 0.0833333 0.151353 0.20536 0.0654186 
0.0275023 -0.00686552 0.117811 0.0149179 0.0127448 0.100036 0.0539171 -0.00815936 0.19041 
0.0685142 0.00924231 0.19074 0.0683247 0.0092375 0.208495 0.0146501 0.0129319 0.151828 
0 0.0333333 0.133333 0.0545372 0.00951534 0.190484 0.0544472 0.027415 0.208456 
0.0424865 0.064015 0.190186 0.0427412 0.0820136 0.190182 0.068875 0.0817014 0.209246 
0.0420889 0.0460532 0.190191 0.0551043 0.0274473 0.190707 0.0288129 0.0290986 0.171106 
0.135463 0.171116 0.0645862 0.151658 0.205234 0.169303 0.165 0.183333 0.183333 
0.150626 0.186974 0.169347 0.109927 0.0274885 0.00939403 0.110069 0.0636006 -0.00869593 
0 0.0833333 0.183333 0.0137771 0.0829553 0.205387 0.0148366 0.100027 0.187088 
0.0148685 0.082867 0.187134 0.0683193 0.190761 0.208491 0.0539493 0.208208 0.190382 
0 0.0166667 0.116667 0.0148651 0.0128522 0.117283 0.0137507 -0.00531468 0.134584 
0.0147943 0.0129363 0.134468 0.0967423 0.00926624 -0.00844034 0.111107 -0.00812855 0.00962235 
0.110511 0.00954805 0.00957531 0.121879 0.17224 0.0639957 0.12129 0.154209 0.0639704 
0.122193 0.190196 0.100002 0.0962714 -0.00898036 0.0634323 0.0427802 0.00988486 0.117969 
0.042796 0.00987678 0.100027 0.0290303 0.0111001 0.117668 0.0553192 -0.00880525 0.118187 
0.0559083 0.0636547 0.190943 0.0558025 0.0273609 0.172725 0.0687494 0.00905089 0.172803 
0.0424059 0.0280163 0.172128 0.0567913 0.0635432 0.154607 0.0562132 0.0454457 0.172785 
0.0564368 0.0635816 0.172797 0.0297677 0.0822606 0.171069 0.0301707 0.0645913 0.135446 
0 0.0833333 0.116667 0.0566766 0.0271695 0.118169 0.0300664 0.0468177 0.117687 
0.056255 0.00905845 0.1182 0.029787 0.046804 0.153301 0.0299632 0.0467849 0.135448 
0 0.0666667 0.133333 0.0297319 0.028915 0.135476 0.0423321 0.00998261 0.154003 
0.0426011 0.00986238 0.13598 0.0153267 0.0306071 0.134572 0.122439 0.135964 0.190161 
0.096143 0.118292 0.209199 0.122185 0.117968 0.190187 0.109074 0.136355 0.190849 
0.165 0.116667 0.183333 0.150213 0.099989 0.187181 0.150155 0.117147 0.187177 
0.151223 0.117083 0.205434 0.138591 0.0290619 0.206999 0.138135 0.0112521 0.189086 
0.153612 0.0133279 0.205257 0.139766 -0.00664648 0.188964 0.11054 0.190494 0.19044 
0.12438 0.189812 0.18987 0.110605 0.172575 0.208382 0.150208 0.134406 0.18725 
0.137543 0.135196 0.207003 0.136108 0.135297 0.189011 0.150362 0.151719 0.187314 
0.137158 0.0290854 0.189051 0.15025 0.0482736 0.18715 0.151128 0.0130629 0.18709 
0.165 0.0166667 0.183333 0.151664 -0.00524508 0.16929 0.150631 0.0130148 0.169309 
0.165 0.0333333 0.166667 0.150098 0.0307744 0.169363 0.150378 0.012953 0.151779 
0.0685436 0.208682 0.172823 0.0685204 0.190775 0.190739 0.0422186 0.153977 0.190114 
0.015297 0.134483 0.169415 0.029628 0.135409 0.171048 0.0562334 0.154566 0.172734 
0.0565537 0.15462 0.154563 0.0567643 0.136427 0.154642 0.0551448 0.136383 0.208763 
0.0425881 0.135964 0.190141 0.0290386 0.117628 0.18888 0.0689576 0.118331 0.209265 
0.0427783 0.11795 0.190142 0.042909 0.1 0.190166 0.056649 0.118212 0.172884 
0.0301457 0.117677 0.153223 0.0562599 0.11821 0.190982 0.0302261 0.0999734 0.153229 
0.0299521 0.153211 0.135423 0 0.133333 0.133333 0.0297162 0.171109 0.135433 
0.02979 0.153187 0.153247 0.0965344 0.190707 0.190723 0.0825243 0.19074 0.190759 
0.0965072 0.208596 0.172817 0.0544081 0.172612 0.208426 0.0406952 0.189851 0.189864 
0.0551065 0.172594 0.19067 0.0545517 0.190541 0.190459 0.0406957 0.189828 0.0101231 
0.0544281 0.172513 -0.00839904 0.0545582 0.190464 0.00952915 0.0961289 0.0816863 0.209134 
0.0960623 0.0453382 0.190994 0.0824469 0.0452537 0.191094 0.110562 0.0274976 0.208333 
0.124406 0.0101506 0.189925 0.110505 0.00957636 0.190424 0.109321 0.0273749 0.172629 
0.0962205 -0.00897573 0.136543 0.0958487 0.0634956 0.19115 0.0957194 0.0269731 0.154761 
0.0825565 0.0268846 0.154907 0.068774 0.190955 0.1728 0.0558295 0.17266 0.172677 
0.0423391 0.19007 0.153969 0.0424609 0.172041 0.172052 0.0290233 0.188936 0.117648 
0.0427988 0.190142 0.100012 0.0553227 0.20881 0.118179 0.136056 0.18909 0.0823847 
0.137596 0.206995 0.0822498 0.150199 0.187184 0.0827547 0.0570306 0.136457 0.13645 
0.10891 0.172766 0.154478 0.0955611 0.17313 0.136553 0.109752 0.208771 0.118202 
0.122903 0.153952 0.190112 0.136253 0.170874 0.171043 0.109999 0.172559 0.190613 
0.122717 0.172014 0.172015 0.096295 0.190848 0.172826 0.0960536 0.154683 0.191062 
0.0825571 0.154746 0.191071 0.0687502 -0.00912708 0.0634071 0.042174 0.00995587 0.0460039 
0.0425349 0.00988611 0.0640165 0.139761 -0.0066237 0.011045 0.153615 0.0133174 -0.0052441 
0.0274964 0.2069 0.0822422 0.0149181 0.18726 0.100015 0.0290238 0.188934 0.0823786 
0.0148509 0.187183 0.0827799 0.10817 0.0635998 0.15465 0.12208 0.100007 0.190209 
0.0955301 0.0634368 0.173127 0.135391 0.0287961 0.135354 0.109715 -0.00879053 0.118198 
0.121841 0.0278443 0.136 0.121335 0.063978 0.154143 0.108903 0.0272858 0.154535 
0.135458 0.0646345 0.171101 0.136038 0.0824013 0.189016 0.135726 0.046856 0.171069 
0.149732 0.065561 0.169404 0.136209 0.0290282 0.171017 0.0427523 0.190133 0.0820519 
0.0425758 0.190138 0.0640176 0.0153085 0.169452 0.0655322 0.137636 0.206952 0.117791 
0.150115 0.187287 0.0999997 0.136135 0.189025 0.117647 0.0825642 0.173138 0.154835 
0.0961315 0.208953 0.136566 0.0957632 0.173053 0.154772 0.0960316 0.172918 0.172908 
0.151349 0.205347 0.134608 0.150257 0.187005 0.134451 0.165 0.183333 0.116667 
0.150225 0.187138 0.117259 0.134677 0.117675 0.135401 0.107907 0.136409 0.136437 
0.108192 0.154638 0.136395 0.150211 0.0827891 0.012823 0.137676 0.0648112 -0.00705217 
0.108185 0.154686 0.0635738 0.134575 0.117726 0.0645636 0.134888 0.153274 0.0999869 
0.124406 0.189859 0.010075 0.138639 0.170917 -0.00699195 0.137195 0.170925 0.010921 
0.138131 0.188762 0.0108782 0.0263844 0.0290962 0.207016 0.0406823 0.0102124 0.18992 
0.0278502 0.0291152 0.189134 0.0269465 0.011287 0.189129 0.0567087 0.118143 0.0272002 
0.150637 0.186994 0.0306767 0.165 0.166667 0.0333333 0.150114 0.169209 0.0306088 
0.138112 0.0112732 0.0109128 0.124398 0.01012 0.0100662 0.138597 0.0290673 -0.0070108 
0.10971 0.208809 0.0818047 0.134868 0.117663 0.153248 0.135117 0.11764 0.171164 
0.165 0.133333 0.133333 0.0570883 0.13642 0.0635562 0.107907 0.136449 0.0635478 
0.0825036 0.136908 0.1 0.136082 0.13531 0.0109169 0.137602 0.135239 -0.0070394 
0.150306 0.15171 0.0127604 0.150189 0.134408 0.0128164 0.165 0.133333 0.0333333 
0.122956 0.190223 0.0460171 0.109412 0.172668 0.027362 0.110004 0.172541 0.00938145 
0.109576 0.19082 0.0455322 0.10788 0.0635704 0.136433 0.0824751 0.0999984 0.136876 
0.0570573 0.0635404 0.136426 0.138098 0.188704 0.189105 0.139725 0.206605 0.188948 
0.151138 0.186991 0.18712 0.153626 0.186763 0.205286 0.150238 0.187027 0.0655699 
0.150413 0.187021 0.0482007 0.165 0.166667 0.0666667 0.0960615 0.191031 0.0452865 
0.0961707 0.208994 0.0634032 0.110542 0.190485 0.00954876 0.0967732 0.190675 -0.00847246 
0.111094 0.208157 0.00960194 0.0301097 0.0467874 0.0999887 0.0567975 0.0453792 0.0635478 
0.14972 0.169257 0.0654949 0.149566 0.151783 0.0480853 0.136239 0.170973 0.02895 
0.135736 0.171039 0.046808 0.13459 0.0645418 0.11772 0.121605 0.0278155 0.117986 
0.149697 0.0306233 0.134483 0.165 0.0666667 0.133333 0.149575 0.0482038 0.151885 
0.149443 0.0481008 0.134512 0.0963075 0.190864 0.0272084 0.0825415 0.190744 0.00924325 
0.0965495 0.190697 0.00928229 0.0965194 0.20862 0.0271584 0.149739 0.169212 0.134536 
0.122077 0.154032 0.172076 0.134952 0.135376 0.15327 0.121645 0.154121 0.154 
0.0424278 0.172035 0.0279577 0.0288651 0.171007 0.0289851 0.0551273 0.172496 0.00935126 
0.0558298 0.172635 0.0273294 0.0824851 0.191116 0.0452542 0.0559738 0.190891 0.0636355 
0.0425201 0.0640154 0.00983642 0.0288545 0.0646502 0.011016 0.0551656 0.0636564 -0.00876447 
0.0551502 0.136306 -0.00874876 0.0290308 0.117648 0.0110448 0.0568233 0.154578 0.0635369 
0.0301736 0.153229 0.0999851 0.0562513 0.17271 0.0454204 0.0564786 0.172751 0.0635661 
0.0297741 0.171059 0.0822954 0.0301677 0.135428 0.0645638 0.0300636 0.117666 0.046762 
0 0.116667 0.0833333 0.0297885 0.15326 0.0467832 0.0299609 0.135414 0.0467455 
0 0.133333 0.0666667 0.0425942 0.135932 0.00984105 0.0422692 0.153947 0.00995028 
0.0297086 0.135442 0.0288786 0.0152999 0.134559 0.0305648 0 0.0833333 0.0833333 
0.0303072 0.082288 0.0645624 0.0301255 0.100001 0.0467329 0.0301261 0.0822651 0.0467449 
0.109957 0.136405 -0.00874683 0.122195 0.154019 0.0278999 0.135352 0.135319 0.028812 
0.149405 0.134498 0.0481064 0.149609 0.117233 0.0306095 0.165 0.133333 0.0666667 
0.149333 0.0481257 0.0827496 0.0964973 -0.00859469 0.172793 0.0824962 0.00924176 0.190738 
0.0962117 0.00915307 0.172785 0.0964981 0.00930294 0.190677 0.0428992 0.100001 0.00979175 
0.0689291 0.118305 -0.00921301 0.0562551 0.118157 0.00909253 0.0427799 0.117925 0.00982854 
0.0961955 0.118308 -0.00926383 0.121556 0.117975 0.0278058 0.108612 0.136379 0.0271892 
0.121779 0.13598 0.0278331 0.0570991 0.0635718 0.0635327 0.0825452 0.099995 0.0631228 
0.107942 0.0635335 0.0635517 0.0824555 0.0631005 0.0999633 0.121077 0.063988 0.0639565 
0.121532 0.0278197 0.100017 0.0421014 0.0460633 0.0098402 0.0423141 0.028018 0.0279055 
0.055088 0.0274722 0.00930615 0.0287547 0.0290762 0.0289406 0.0824982 0.00921117 0.00922663 
0.0965338 -0.00861333 0.027203 0.0965085 0.00927211 0.00931332 0.149362 0.11726 0.0481077 
0.149207 0.117231 0.0654654 0.165 0.116667 0.0833333 0.165 0.0666667 0.0333333 
0.150155 0.0656096 0.0128498 0.0955781 0.173157 0.0634022 0.0826319 0.154909 0.0268642 
0.0957957 0.154787 0.0269164 0.0958797 0.191178 0.0634678 0.165 0.0333333 0.0333333 
0.10956 0.045553 0.00924228 0.109323 0.0273487 0.0273606 0.0962142 0.00911979 0.0272008 
0.0688608 0.209132 0.136518 0.042586 0.190175 0.135962 0.056223 0.190951 0.118207 
0.0427597 0.190144 0.117963 0.0559445 0.00909265 0.0636282 0.0566114 0.0453937 0.0453436 
0.122973 0.0460387 0.00974626 0.136063 0.0824256 0.0109621 0.165 0.0166667 0.0833333 
0.151304 -0.00529282 0.065431 0.109932 0.0275116 0.190599 0.122961 0.0460453 0.190195 
0.109984 0.06362 0.208683 0.109518 0.0455695 0.190743 0.165 0.0333333 0.0666667 
0.15035 0.0130278 0.0482261 0.150187 0.0130081 0.065581 0.135244 0.0288797 0.0823509 
0.134705 0.0646177 0.064544 0.149223 0.065451 0.0655059 0.134927 0.0645833 0.0467366 
0.135396 0.0646092 0.0289059 0.149345 0.100017 0.0480767 0.15131 -0.00535684 0.134552 
0.165 0.0166667 0.116667 0.150215 0.0129145 0.134416 0.0562389 0.0454445 0.027194 
0.0557586 0.0273422 0.0272667 0.0559567 0.0636896 0.00907769 0.108847 0.0272091 0.0455009 
0.108549 0.0271791 0.0636553 0.122065 0.0278302 0.0459645 0.109863 -0.00877085 0.0817896 
0.0956957 0.0269253 0.0452079 0.0824446 0.0268348 0.0451163 0.0956133 0.0633961 0.0268195 
0.0958922 0.0634638 0.00882126 0.0824653 0.0452273 0.00896053 0.0960644 0.0453006 0.00899343 
0.0961645 0.0816703 -0.00915741 0.149381 0.0480684 0.117241 0.149382 0.0480726 0.100002 
0.165 0.0833333 0.116667 0.149212 0.0654391 0.117225 0.137547 -0.00696499 0.0822067 
0.150133 0.0128955 0.0827586 0.1359 0.0109168 0.0823419 0.150159 0.0128007 0.117218 
0.150044 0.0127568 0.0999827 0.13593 0.010863 0.117632 0.137511 -0.00700619 0.117786 
0.149712 0.0655591 0.0306521 0.135656 0.0468859 0.0289155 0.165 0.116667 0.0166667 
0.150191 0.100009 0.0128747 0.151241 0.1171 -0.00539111 0.150123 0.117145 0.0129052 
0.149408 0.0481666 0.0655107 0.149526 0.0481628 0.0481256 0.149649 0.0307053 0.0655234 
0.165 0.0666667 0.0666667 0.137135 0.0291063 0.0109349 0.136148 0.0290764 0.0289531 
0.150249 0.0482651 0.012879 0.150065 0.0307965 0.0306447 0.165 0.0166667 0.0166667 
0.151648 -0.00519974 0.0307237 0.151107 0.0130817 0.0129218 0.150609 0.0130726 0.0306913 

CELLS 236 4956
20 69 93 88 68 814 815 925 924 808 809 801 800 805 804 803 802 956 957 1317 961 
20 28 47 45 44 422 423 549 548 420 421 418 419 541 540 539 538 1160 1418 958 1119 
20 93 69 88 94 815 814 808 809 925 924 948 949 816 817 926 927 959 1323 960 961 
20 43 49 86 85 522 523 600 601 536 537 534 535 598 599 909 908 1345 967 1366 1279 
20 5 1 26 6 109 108 114 115 150 151 142 143 110 111 161 160 962 1111 980 991 
20 82 86 81 63 892 893 891 890 889 888 749 748 751 750 747 746 972 1290 1198 963 
20 7 11 48 6 176 177 240 241 192 193 157 156 159 158 173 172 964 1103 994 1409 
20 37 17 54 38 327 326 334 335 480 481 472 473 328 329 485 484 1277 1254 965 1292 
20 55 13 12 51 285 284 245 244 263 262 625 624 282 283 258 259 1211 1221 1212 1087 
20 90 86 49 85 915 914 601 600 603 602 911 910 909 908 598 599 966 967 1306 1330 
20 37 52 50 36 476 477 607 606 474 475 467 466 471 470 469 468 968 969 1237 993 
20 91 92 65 86 940 941 779 778 777 776 917 916 919 918 772 773 970 1184 1047 1193 
20 82 65 86 63 771 770 772 773 892 893 749 748 745 744 751 750 971 1288 972 984 
20 25 5 0 26 149 148 101 100 103 102 388 389 150 151 104 105 1093 989 973 974 
20 46 32 6 48 441 440 165 164 171 170 554 555 442 443 172 173 975 1102 1483 1386 
20 57 46 58 62 557 556 558 559 668 669 670 671 560 561 678 679 976 1135 1327 1149 
20 26 41 25 46 400 401 393 392 389 388 406 407 502 503 394 395 1037 977 982 978 
20 22 38 39 17 376 377 482 483 378 379 323 322 329 328 331 330 1276 1253 1058 979 
20 55 49 12 54 591 590 255 254 263 262 649 648 588 589 260 261 1298 1259 1050 1213 
20 26 5 6 30 151 150 142 143 161 160 398 399 152 153 162 163 1091 1008 1438 980 
20 25 30 26 46 390 391 399 398 388 389 394 395 432 433 406 407 981 1437 982 1092 
20 11 15 16 34 230 231 290 291 232 233 238 239 298 299 308 309 1068 1023 1405 983 
20 82 65 87 86 771 770 774 775 894 895 892 893 772 773 913 912 984 1183 985 986 
20 15 34 36 37 298 299 454 455 300 301 302 303 456 457 466 467 1025 1235 1015 987 
20 43 85 64 48 534 535 761 760 530 531 520 521 583 582 579 578 1431 1096 1490 1433 
20 1 5 26 0 108 109 150 151 114 115 99 98 101 100 105 104 988 989 990 991 
20 52 37 50 53 477 476 474 475 607 606 638 639 478 479 608 609 992 1006 1373 993 
20 60 80 59 86 722 723 705 704 699 698 728 729 886 887 708 709 1371 1495 1282 1504 
20 48 7 6 43 193 192 157 156 173 172 521 520 188 189 168 169 1361 996 1460 994 
20 92 71 96 91 833 832 836 837 944 945 941 940 830 831 943 942 1089 1083 995 1134 
20 26 7 43 6 183 182 188 189 404 405 161 160 157 156 169 168 1110 996 1272 1064 
20 6 26 46 42 160 161 406 407 170 171 166 167 402 403 511 510 1271 1036 1482 1436 
20 32 15 10 11 297 296 225 224 227 226 237 236 231 230 222 223 1069 997 1031 998 
20 90 71 70 49 829 828 821 820 823 822 603 602 597 596 595 594 1379 1260 1001 1297 
20 28 9 8 3 215 214 195 194 199 198 135 134 133 132 131 130 1013 999 1121 1078 
20 68 69 50 66 800 801 619 618 617 616 781 780 783 782 614 615 1314 1343 1000 1357 
20 49 90 54 70 602 603 659 658 588 589 594 595 823 822 652 653 1001 1152 1261 1308 
20 28 43 7 44 416 417 189 188 187 186 418 419 518 519 190 191 1002 1170 1176 1154 
20 92 72 71 67 841 840 827 826 833 832 799 798 795 794 793 792 1003 1191 1088 1348 
20 71 56 51 72 665 664 627 626 633 632 826 827 666 667 634 635 1004 1005 1190 1228 
20 50 37 16 53 475 474 311 310 313 312 608 609 478 479 314 315 1006 1105 1383 1380 
20 5 6 30 32 142 143 162 163 152 153 154 155 164 165 430 431 1028 1387 1007 1008 
20 39 19 35 40 359 358 356 357 461 460 486 487 360 361 462 463 1039 1009 1232 1070 
20 12 11 50 48 229 228 242 243 256 257 252 253 240 241 575 574 1408 1423 1322 1397 
20 21 15 37 16 295 294 302 303 370 371 307 306 290 291 311 310 1010 1024 1043 1020 
20 28 4 9 3 139 138 136 137 215 214 135 134 127 126 133 132 1011 1012 1013 1080 
20 80 84 58 85 882 883 695 694 693 692 884 885 900 901 696 697 1014 1474 1416 1512 
20 15 36 20 37 300 301 365 364 292 293 302 303 466 467 366 367 1015 1016 1018 1017 
20 15 20 21 37 292 293 362 363 294 295 302 303 366 367 370 371 1018 1019 1020 1021 
20 19 18 35 13 339 338 342 343 356 357 273 272 271 270 277 276 1022 1209 1052 1071 
20 39 51 35 18 488 489 465 464 461 460 345 344 347 346 343 342 1252 1208 1072 1233 
20 15 34 37 16 298 299 456 457 302 303 290 291 309 308 311 310 1023 1381 1024 1025 
20 19 23 39 18 350 351 382 383 358 359 339 338 341 340 345 344 1026 1063 1073 1077 
20 5 6 32 11 142 143 164 165 154 155 146 147 158 159 237 236 1027 1104 1030 1028 
20 10 5 32 11 145 144 154 155 226 227 222 223 146 147 237 236 1029 1030 1031 1032 
20 19 33 14 13 354 355 289 288 287 286 273 272 275 274 267 266 1053 1139 1033 1034 
20 26 41 46 42 400 401 502 503 406 407 402 403 500 501 511 510 1035 1439 1036 1037 
20 24 19 39 40 353 352 358 359 384 385 386 387 360 361 486 487 1038 1039 1040 1075 
20 51 91 67 65 636 637 797 796 630 631 628 629 777 776 769 768 1178 1195 1041 1263 
20 17 21 37 16 320 321 370 371 326 327 305 304 307 306 311 310 1042 1043 1294 1045 
20 37 22 21 17 375 374 369 368 371 370 327 326 323 322 321 320 1278 1044 1045 1046 
20 49 91 65 86 604 605 777 776 592 593 600 601 917 916 772 773 1331 1047 1280 1180 
20 7 1 26 2 113 112 114 115 182 183 119 118 106 107 121 120 1048 1049 1055 1112 
20 17 55 12 54 336 337 263 262 247 246 334 335 649 648 260 261 1457 1050 1392 1085 
20 19 33 13 35 354 355 275 274 273 272 356 357 446 447 276 277 1051 1216 1052 1053 
20 7 2 26 27 119 118 120 121 182 183 184 185 122 123 396 397 1117 1054 1066 1055 
20 33 9 8 31 221 220 195 194 203 202 435 434 218 219 200 201 1056 1079 1108 1097 
20 55 18 39 17 349 348 344 345 493 492 337 336 319 318 331 330 1226 1062 1456 1251 
20 23 22 39 17 373 372 378 379 382 383 325 324 323 322 331 330 1057 1058 1061 1059 
20 18 23 39 17 340 341 382 383 344 345 319 318 325 324 331 330 1060 1061 1062 1063 
20 26 7 27 43 183 182 184 185 396 397 404 405 188 189 410 411 1064 1155 1065 1066 
20 32 15 11 34 297 296 231 230 237 236 438 439 298 299 238 239 1067 1068 1390 1069 
20 39 19 18 35 359 358 339 338 345 344 461 460 356 357 342 343 1070 1071 1072 1073 
20 23 19 39 24 351 350 358 359 382 383 380 381 352 353 385 384 1074 1075 1076 1077 
20 28 9 31 8 215 214 218 219 414 415 199 198 195 194 201 200 1078 1079 1130 1320 
20 28 4 29 9 139 138 140 141 412 413 215 214 136 137 217 216 1080 1081 1321 1082 
20 51 91 49 71 636 637 605 604 587 586 632 633 831 830 596 597 1266 1377 1268 1181 
20 96 71 90 91 837 836 828 829 939 938 943 942 830 831 932 933 1083 1376 1084 1303 
20 13 55 12 17 284 285 263 262 245 244 268 269 337 336 246 247 1224 1085 1086 1087 
20 92 71 91 67 833 832 830 831 941 940 799 798 793 792 797 796 1088 1264 1196 1089 
20 25 5 26 30 149 148 150 151 388 389 390 391 152 153 398 399 1090 1091 1092 1093 
20 47 61 45 60 568 569 553 552 549 548 566 567 711 710 550 551 1243 1094 1420 1095 
20 33 49 8 13 450 451 209 208 203 202 275 274 281 280 196 197 1219 1165 1098 1126 
20 85 90 64 48 910 911 767 766 761 760 583 582 585 584 579 578 1312 1426 1096 1443 
20 13 9 8 33 211 210 195 194 197 196 274 275 220 221 202 203 1140 1097 1098 1099 
20 78 64 84 83 755 754 758 759 874 875 872 873 756 757 897 896 1100 1509 1101 1309 
20 6 32 11 48 164 165 237 236 158 159 172 173 442 443 240 241 1102 1421 1103 1104 
20 16 37 54 53 310 311 480 481 316 317 314 315 478 479 645 644 1105 1106 1385 1293 
20 47 33 8 31 449 448 203 202 207 206 437 436 435 434 200 201 1107 1108 1128 1125 
20 1 7 26 6 112 113 182 183 114 115 110 111 157 156 161 160 1109 1110 1111 1112 
20 76 80 60 81 862 863 723 722 719 718 864 865 880 881 724 725 1113 1368 1205 1480 
20 90 94 69 95 934 935 817 816 813 812 936 937 950 951 818 819 1114 1115 1258 1352 
20 90 50 70 66 623 622 620 621 823 822 791 790 614 615 785 784 1411 1342 1131 1150 
20 7 2 27 28 119 118 122 123 184 185 186 187 124 125 408 409 1144 1116 1156 1117 
20 29 28 47 45 413 412 422 423 428 429 426 427 420 421 549 548 1118 1119 1120 1123 
20 3 7 8 28 128 129 174 175 130 131 134 135 186 187 198 199 1146 1177 1121 1122 
20 29 28 31 47 413 412 414 415 424 425 428 429 422 423 436 437 1123 1129 1124 1319 
20 47 33 49 8 449 448 450 451 564 565 207 206 203 202 209 208 1125 1126 1158 1127 
20 28 8 31 47 199 198 200 201 414 415 422 423 206 207 436 437 1161 1128 1129 1130 
20 90 70 69 66 823 822 807 806 813 812 791 790 785 784 783 782 1131 1341 1365 1256 
20 71 97 92 96 838 839 947 946 832 833 836 837 955 954 944 945 1132 1133 1134 1350 
20 58 46 64 62 559 558 562 563 680 681 678 679 560 561 737 736 1135 1136 1461 1452 
20 13 9 33 14 211 210 220 221 274 275 266 267 212 213 289 288 1137 1138 1139 1140 
20 39 56 40 51 494 495 499 498 486 487 488 489 627 626 496 497 1207 1141 1234 1142 
20 3 7 28 2 128 129 186 187 134 135 117 116 119 118 125 124 1143 1144 1145 1146 
20 46 57 58 41 556 557 668 669 558 559 503 502 505 504 507 506 1147 1148 1441 1149 
20 90 50 48 70 623 622 575 574 585 584 823 822 620 621 580 581 1150 1449 1151 1427 
20 90 54 70 48 659 658 652 653 823 822 585 584 577 576 581 580 1311 1447 1151 1152 
20 58 43 64 42 525 524 530 531 680 681 515 514 509 508 517 516 1153 1488 1453 1484 
20 28 43 27 7 416 417 411 410 409 408 187 186 189 188 185 184 1154 1155 1156 1157 
20 8 49 47 44 208 209 565 564 206 207 204 205 543 542 541 540 1163 1240 1159 1158 
20 28 8 47 44 199 198 206 207 422 423 418 419 204 205 541 540 1175 1159 1160 1161 
20 43 49 12 44 522 523 255 254 249 248 518 519 543 542 250 251 1248 1162 1168 1347 
20 12 49 13 44 254 255 281 280 244 245 250 251 543 542 278 279 1162 1164 1166 1223 
20 49 8 13 44 209 208 196 197 281 280 543 542 204 205 278 279 1163 1171 1164 1165 
20 12 13 7 44 244 245 181 180 179 178 250 251 278 279 190 191 1166 1172 1169 1167 
20 43 12 7 44 249 248 179 178 189 188 518 519 250 251 190 191 1168 1169 1170 1360 
20 13 8 7 44 197 196 175 174 181 180 278 279 204 205 190 191 1171 1174 1172 1173 
20 7 8 28 44 174 175 198 199 186 187 190 191 204 205 418 419 1174 1175 1176 1177 
20 91 51 49 65 637 636 587 586 605 604 777 776 628 629 592 593 1178 1179 1180 1181 
20 92 87 65 86 921 920 775 774 779 778 919 918 913 912 772 773 1182 1183 1184 1185 
20 63 61 60 82 731 730 711 710 713 712 748 749 734 735 726 727 1186 1187 1197 1242 
20 60 61 77 82 710 711 732 733 720 721 726 727 734 735 868 869 1187 1188 1199 1189 
20 67 51 72 71 631 630 634 635 794 795 792 793 632 633 827 826 1265 1190 1191 1192 
20 91 92 67 65 940 941 799 798 797 796 777 776 779 778 769 768 1193 1194 1195 1196 
20 63 60 81 82 713 712 724 725 746 747 748 749 726 727 888 889 1197 1204 1198 1291 
20 76 60 77 82 719 718 720 721 860 861 866 867 726 727 868 869 1202 1199 1200 1201 
20 60 76 81 82 718 719 864 865 724 725 726 727 866 867 888 889 1202 1203 1204 1205 
20 39 56 51 55 494 495 627 626 488 489 492 493 661 660 624 625 1206 1229 1249 1207 
20 18 35 13 51 342 343 277 276 271 270 346 347 464 465 282 283 1208 1215 1210 1209 
20 55 13 51 18 285 284 282 283 625 624 349 348 270 271 347 346 1227 1210 1250 1211 
20 49 55 12 51 590 591 263 262 255 254 586 587 625 624 258 259 1269 1212 1220 1213 
20 35 33 13 51 447 446 275 274 277 276 464 465 452 453 282 283 1214 1218 1215 1216 
20 33 49 13 51 450 451 281 280 275 274 452 453 586 587 282 283 1217 1222 1218 1219 
20 49 12 13 51 255 254 244 245 281 280 586 587 258 259 282 283 1220 1221 1222 1223 
20 55 13 18 17 285 284 270 271 349 348 337 336 268 269 319 318 1224 1225 1226 1227 
20 71 56 55 51 665 664 661 660 663 662 633 632 627 626 625 624 1228 1229 1267 1230 
20 51 40 39 35 497 496 487 486 489 488 465 464 463 462 461 460 1231 1232 1233 1234 
20 37 36 50 34 467 466 468 469 474 475 457 456 455 454 459 458 1235 1236 1382 1237 
20 47 60 44 65 566 567 545 544 541 540 572 573 714 715 546 547 1468 1244 1239 1419 
20 49 47 44 65 565 564 541 540 543 542 592 593 572 573 546 547 1238 1239 1246 1240 
20 47 61 60 63 568 569 711 710 566 567 570 571 730 731 712 713 1241 1242 1465 1243 
20 43 44 60 65 518 519 544 545 528 529 532 533 546 547 714 715 1247 1244 1286 1245 
20 43 49 44 65 522 523 543 542 518 519 532 533 592 593 546 547 1281 1246 1247 1248 
20 39 51 18 55 488 489 347 346 345 344 492 493 624 625 348 349 1249 1250 1251 1252 
20 54 39 38 17 491 490 483 482 485 484 335 334 331 330 329 328 1458 1253 1254 1255 
20 90 70 95 69 823 822 824 825 936 937 813 812 807 806 819 818 1256 1257 1258 1296 
20 49 12 54 85 255 254 260 261 588 589 598 599 264 265 656 657 1346 1335 1307 1259 
20 71 49 54 70 597 596 588 589 655 654 821 820 594 595 652 653 1260 1261 1262 1300 
20 51 91 71 67 636 637 831 830 632 633 630 631 797 796 793 792 1263 1264 1265 1266 
20 49 55 51 71 590 591 625 624 586 587 596 597 662 663 632 633 1301 1267 1268 1269 
20 6 43 26 42 168 169 405 404 160 161 166 167 509 508 402 403 1459 1270 1271 1272 
20 73 58 78 57 683 682 688 689 846 847 673 672 669 668 675 674 1273 1326 1274 1522 
20 37 22 17 38 375 374 323 322 327 326 472 473 376 377 328 329 1275 1276 1277 1278 
20 43 49 65 86 522 523 592 593 532 533 536 537 600 601 772 773 1279 1280 1285 1281 
20 59 43 60 86 527 526 528 529 698 699 708 709 536 537 728 729 1367 1284 1282 1283 
20 60 43 65 86 529 528 532 533 714 715 728 729 536 537 772 773 1284 1285 1287 1286 
20 63 60 65 86 713 712 714 715 744 745 750 751 728 729 772 773 1289 1287 1288 1466 
20 60 63 81 86 712 713 746 747 724 725 728 729 750 751 890 891 1289 1290 1370 1291 
20 37 17 16 54 327 326 305 304 311 310 480 481 334 335 316 317 1292 1395 1293 1294 
20 71 95 90 70 834 835 937 936 828 829 821 820 825 824 823 822 1295 1296 1297 1305 
20 49 55 71 54 590 591 662 663 596 597 588 589 649 648 655 654 1298 1299 1300 1301 
20 95 71 90 96 835 834 828 829 937 936 952 953 836 837 938 939 1302 1303 1304 1305 
20 88 69 66 89 809 808 783 782 787 786 922 923 810 811 788 789 1325 1364 1338 1316 
20 90 49 54 85 603 602 588 589 659 658 911 910 598 599 656 657 1306 1307 1313 1308 
20 78 64 62 84 755 754 737 736 739 738 874 875 758 759 742 743 1309 1462 1446 1310 
20 90 66 89 64 791 790 788 789 929 928 767 766 753 752 765 764 1412 1336 1413 1363 
20 54 90 85 48 658 659 911 910 656 657 577 576 585 584 583 582 1311 1312 1334 1313 
20 69 68 88 66 801 800 802 803 808 809 783 782 781 780 787 786 1314 1315 1316 1317 
20 9 29 28 31 216 217 413 412 214 215 218 219 424 425 414 415 1318 1319 1320 1321 
20 54 12 50 48 261 260 256 257 611 610 577 576 252 253 575 574 1333 1322 1448 1391 
20 88 69 89 94 809 808 810 811 922 923 926 927 816 817 930 931 1323 1353 1324 1325 
20 78 58 62 57 689 688 678 679 739 738 675 674 669 668 671 670 1326 1327 1328 1516 
20 69 54 50 70 651 650 611 610 619 618 806 807 652 653 620 621 1329 1450 1344 1355 
20 90 86 91 49 915 914 916 917 932 933 603 602 601 600 605 604 1330 1331 1378 1332 
20 12 54 85 48 260 261 656 657 264 265 252 253 577 576 583 582 1333 1334 1430 1335 
20 89 66 88 64 789 788 786 787 923 922 765 764 753 752 763 762 1336 1337 1339 1338 
20 88 84 89 64 903 902 904 905 922 923 763 762 759 758 765 764 1511 1414 1339 1340 
20 69 70 50 66 806 807 621 620 619 618 783 782 785 784 614 615 1341 1342 1343 1344 
20 49 43 12 85 523 522 249 248 255 254 598 599 534 535 264 265 1345 1432 1346 1347 
20 92 72 97 71 841 840 842 843 946 947 833 832 827 826 839 838 1348 1349 1350 1351 
20 90 94 89 69 934 935 931 930 929 928 813 812 817 816 811 810 1352 1353 1362 1354 
20 69 54 53 50 651 650 645 644 647 646 619 618 611 610 609 608 1355 1384 1372 1356 
20 68 69 52 50 800 801 643 642 641 640 617 616 619 618 607 606 1357 1374 1358 1359 
20 48 7 43 12 193 192 188 189 521 520 253 252 178 179 249 248 1407 1360 1429 1361 
20 69 90 66 89 812 813 791 790 783 782 810 811 929 928 788 789 1362 1363 1364 1365 
20 59 43 86 85 527 526 536 537 708 709 706 707 534 535 909 908 1434 1366 1498 1367 
20 60 80 86 81 722 723 886 887 728 729 724 725 880 881 891 890 1368 1369 1370 1371 
20 69 53 52 50 647 646 639 638 643 642 619 618 609 608 607 606 1372 1373 1374 1375 
20 90 71 49 91 829 828 597 596 603 602 932 933 830 831 604 605 1376 1377 1378 1379 
20 50 37 34 16 475 474 457 456 459 458 313 312 311 310 309 308 1380 1381 1403 1382 
20 54 16 53 50 317 316 314 315 645 644 611 610 312 313 609 608 1393 1383 1384 1385 
20 46 32 30 6 441 440 431 430 433 432 171 170 165 164 163 162 1386 1387 1435 1388 
20 32 34 11 50 438 439 239 238 237 236 444 445 458 459 242 243 1389 1402 1424 1390 
20 12 17 54 50 246 247 334 335 260 261 256 257 332 333 611 610 1396 1394 1391 1392 
20 17 16 54 50 305 304 316 317 334 335 332 333 312 313 611 610 1399 1393 1394 1395 
20 11 17 12 50 234 235 247 246 228 229 242 243 332 333 256 257 1400 1396 1397 1398 
20 11 16 17 50 232 233 304 305 234 235 242 243 312 313 332 333 1404 1399 1400 1401 
20 11 34 16 50 238 239 309 308 232 233 242 243 458 459 312 313 1402 1403 1404 1405 
20 11 7 48 12 177 176 192 193 240 241 228 229 178 179 253 252 1406 1407 1408 1409 
20 64 50 90 66 613 612 622 623 766 767 752 753 614 615 791 790 1410 1411 1412 1428 
20 90 89 84 64 929 928 905 904 907 906 767 766 765 764 759 758 1413 1414 1442 1415 
20 85 59 58 80 707 706 677 676 697 696 885 884 704 705 692 693 1496 1501 1416 1472 
20 60 45 47 44 551 550 548 549 567 566 545 544 539 538 541 540 1417 1418 1419 1420 
20 11 32 50 48 236 237 444 445 242 243 240 241 442 443 575 574 1421 1422 1423 1424 
20 50 64 90 48 612 613 766 767 622 623 575 574 579 578 585 584 1425 1426 1427 1428 
20 43 12 85 48 249 248 264 265 534 535 520 521 252 253 583 582 1429 1430 1431 1432 
20 59 43 85 64 527 526 534 535 706 707 700 701 530 531 761 760 1485 1433 1473 1434 
20 30 6 26 46 163 162 160 161 399 398 432 433 170 171 406 407 1435 1436 1437 1438 
20 46 41 58 42 503 502 506 507 558 559 511 510 500 501 515 514 1439 1440 1454 1441 
20 90 84 85 64 907 906 900 901 911 910 767 766 759 758 761 760 1442 1477 1443 1444 
20 84 62 78 79 743 742 738 739 875 874 879 878 740 741 870 871 1506 1518 1445 1446 
20 70 54 50 48 653 652 611 610 621 620 581 580 577 576 575 574 1447 1448 1449 1450 
20 78 74 79 58 851 850 852 853 870 871 689 688 685 684 691 690 1523 1470 1519 1451 
20 58 46 42 64 559 558 511 510 515 514 680 681 562 563 516 517 1452 1493 1453 1454 
20 54 39 17 55 491 490 331 330 335 334 648 649 492 493 336 337 1455 1456 1457 1458 
20 43 6 48 42 169 168 172 173 520 521 509 508 166 167 513 512 1459 1481 1489 1460 
20 84 64 62 58 759 758 737 736 743 742 695 694 681 680 679 678 1476 1461 1507 1462 
20 58 80 75 74 692 693 859 858 686 687 684 685 855 854 849 848 1471 1463 1464 1500 
20 47 60 65 63 566 567 714 715 572 573 570 571 712 713 745 744 1465 1466 1467 1468 
20 58 80 74 79 692 693 855 854 684 685 690 691 877 876 852 853 1514 1469 1470 1471 
20 85 59 64 58 707 706 700 701 761 760 697 696 677 676 681 680 1472 1486 1475 1473 
20 84 85 64 58 900 901 761 760 759 758 695 694 697 696 681 680 1474 1475 1476 1477 
20 60 75 80 76 716 717 858 859 722 723 718 719 856 857 863 862 1478 1479 1480 1502 
20 48 6 46 42 173 172 170 171 555 554 513 512 166 167 511 510 1481 1482 1492 1483 
20 58 43 59 64 525 524 526 527 676 677 680 681 530 531 700 701 1484 1485 1486 1487 
20 64 43 48 42 531 530 520 521 579 578 517 516 509 508 513 512 1488 1489 1491 1490 
20 64 48 46 42 579 578 555 554 563 562 517 516 513 512 511 510 1491 1492 1493 1494 
20 86 59 85 80 709 708 706 707 909 908 887 886 704 705 885 884 1495 1496 1497 1498 
20 59 58 80 75 677 676 692 693 704 705 702 703 686 687 859 858 1499 1500 1503 1501 
20 60 75 59 80 716 717 703 702 699 698 722 723 858 859 704 705 1502 1503 1504 1505 
20 62 84 58 79 742 743 695 694 679 678 740 741 879 878 690 691 1506 1513 1517 1507 
20 88 84 64 83 903 902 759 758 763 762 899 898 897 896 756 757 1508 1509 1510 1511 
20 80 84 79 58 882 883 879 878 877 876 693 692 695 694 691 690 1512 1513 1514 1515 
20 78 58 79 62 689 688 690 691 870 871 739 738 678 679 741 740 1516 1517 1518 1519 
20 78 74 58 73 851 850 685 684 689 688 847 846 845 844 682 683 1520 1521 1522 1523 

CELL_TYPES 236
-1
-1
-1
-1
-1
-1
-1
-1
-1
-1
-1
-1
-1
-1
-1
-1
-1
-1
-1
-1
-1
-1
-1
-1
-1
-1
-1
-1
-1
-1
-1
-1
-1
-1
-1
-1
-1
-1
-1
-1
-1
-1
-1
-1
-1
-1
-1
-1
-1
-1
-1
-1
-1
-1
-1
-1
-1
-1
-1
-1
-1
-1
-1
-1
-1
-1
-1
-1
-1
-1
-1
-1
-1
-1
-1
-1
-1
-1
-1
-1
-1
-1
-1
-1
-1
-1
-1
-1
-1
-1
-1
-1
-1
-1
-1
-1
-1
-1
-1
-1
-1
-1
-1
-1
-1
-1
-1
-1
-1
-1
-1
-1
-1
-1
-1
-1
-1
-1
-1
-1
-1
-1
-1
-1
-1
-1
-1
-1
-1
-1
-1
-1
-1
-1
-1
-1
-1
-1
-1
-1
-1
-1
-1
-1
-1
-1
-1
-1
-1
-1
-1
-1
-1
-1
-1
-1
-1
-1
-1
-1
-1
-1
-1
-1
-1
-1
-1
-1
-1
-1
-1
-1
-1
-1
-1
-1
-1
-1
-1
-1
-1
-1
-1
-1
-1
-1
-1
-1
-1
-1
-1
-1
-1
-1
-1
-1
-1
-1
-1
-1
-1
-1
-1
-1
-1
-1
-1
-1
-1
-1
-1
-1
-1
-1
-1
-1
-1
-1
-1
-1
-1
-1
-1
-1
-1
-1
-1
-1
-1
-1
-1
-1
-1
-1
-1
-1

POINT_DATA 1524
VECTORS displacement float
0 0 0
0 0 0
0 0 0
0 0 0
0 0 0
0 0 0
0 0 0
0 0 0
0 0 0
0 0 0
0 0 0
0 0 0
0 0 0
0 0 0
0 0 0
0 0 0
0 0 0
0 0 0
0 0 0
0 0 0
0 0 0
0 0 0
0 0 0
0 0 0
0 0 0
-0.0110111 -0.0073357 -0.00780515
-0.00902057 -0.00794274 -0.003998
-0.00840308 -0.00794083 1.94748e-05
-0.00897436 -0.00795015 0.00399711
-0.0109783 -0.0073698 0.00777719
-0.00902015 -0.00393542 -0.00798266
-0.00903859 -0.00394787 0.00801211
-0.00830395 1.08497e-05 -0.00819752
-0.00828532 2.88358e-05 0.00815898
-0.00899848 0.00391504 -0.00792435
-0.0090362 0.00394442 0.00796063
-0.0109511 0.00732968 -0.00777211
-0.00900978 0.00797412 -0.00400687
-0.00839407 0.00796376 4.34313e-06
-0.00898415 0.00798437 0.00398023
-0.0109637 0.00739805 0.00772724
-0.0174468 -0.0085072 -0.00850813
-0.0174923 -0.00882289 -0.00480558
-0.0175484 -0.00953367 -1.22691e-05
-0.0176592 -0.00891672 0.00475242
-0.0174434 -0.00851925 0.00845848
-0.0173846 -0.0048468 -0.00871432
-0.017392 -0.00483237 0.00873737
-0.0175419 3.06962e-05 -0.00965192
-0.0174413 -3.44545e-05 0.0095817
-0.0177639 0.00482381 -0.00879956
-0.0177368 0.00472347 0.00872579
-0.0174672 0.00845595 -0.00849964
-0.0174868 0.00876755 -0.00483463
-0.0174248 0.00956264 -6.27624e-06
-0.0175605 0.0089053 0.00478779
-0.0174379 0.00846535 0.00852304
-0.0240377 -0.00735987 -0.00777646
-0.0258132 -0.00814427 -0.00396367
-0.02664 -0.0082566 1.37862e-05
-0.0259782 -0.00806457 0.00403183
-0.0240538 -0.00734338 0.00777225
-0.0257412 -0.00395402 -0.00814486
-0.0257862 -0.00393288 0.00806181
-0.0268117 5.08871e-05 -0.0083272
-0.0268284 7.17826e-05 0.00824365
-0.0259116 0.0039806 -0.00797885
-0.0259823 0.00396008 0.00794513
-0.0239889 0.00737422 -0.00776778
-0.0258059 0.00811253 -0.00402236
-0.0266618 0.00812467 3.31231e-05
-0.0259551 0.00819207 0.00390637
-0.0239859 0.00739291 0.00773717
-0.035 0 0
-0.035 0 0
-0.035 0 0
-0.035 0 0
-0.035 0 0
-0.035 0 0
-0.035 0 0
-0.035 0 0
-0.035 0 0
-0.035 0 0
-0.035 0 0
-0.035 0 0
-0.035 0 0
-0.035 0 0
-0.035 0 0
-0.035 0 0
-0.035 0 0
-0.035 0 0
-0.035 0 0
-0.035 0 0
-0.035 0 0
-0.035 0 0
-0.035 0 0
-0.035 0 0
-0.035 0 0
0 0 0
0 0 0
0 0 0
0 0 0
-0.00685012 -0.00432481 -0.00555495
-0.00947195 -0.00646355 -0.00652644
-0.00376761 -0.00515208 -0.00376635
-0.00723548 -0.00649173 -0.00439156
0 0 0
0 0 0
0 0 0
0 0 0
0 0 0
0 0 0
0 0 0
0 0 0
-0.0029137 -0.00526464 -0.00183477
-0.00638101 -0.00679452 -0.00307104
0 0 0
0 0 0
0 0 0
0 0 0
-0.00282306 -0.0053469 -0.000636814
-0.00610931 -0.00670216 -0.00199462
-0.00245834 -0.00507377 4.22834e-05
-0.00556344 -0.00689962 3.46418e-05
-0.00280604 -0.00530909 0.000714318
-0.00608557 -0.00666714 0.00204003
0 0 0
0 0 0
0 0 0
0 0 0
0 0 0
0 0 0
0 0 0
0 0 0
-0.00288187 -0.00519861 0.00183814
-0.00635332 -0.00674681 0.00309764
0 0 0
0 0 0
-0.00374965 -0.00514001 0.00374727
-0.00720467 -0.00646665 0.00439208
-0.00683534 -0.00433215 0.00552907
-0.00944865 -0.00647463 0.00650533
0 0 0
0 0 0
0 0 0
0 0 0
0 0 0
0 0 0
-0.00432209 -0.00223411 -0.00515864
-0.00805131 -0.00538635 -0.00673215
-0.0021925 -0.00265304 -0.00381109
-0.00543508 -0.00544524 -0.0043962
-0.00295257 -0.0016322 -0.00511765
-0.00610734 -0.00295093 -0.00708111
-0.00271096 -0.000746061 -0.00530341
-0.00585936 -0.000914878 -0.00691213
0 0 0
0 0 0
0 0 0
0 0 0
-0.00153801 -0.00275278 -0.00180524
-0.00473215 -0.00555535 -0.00307552
-0.00167738 -0.00185623 -0.00277289
-0.00491254 -0.00307046 -0.00565574
-0.00134343 -0.00114179 -0.00280511
-0.00422565 -0.000979645 -0.00564205
-0.00417149 -0.00428778 -0.00317707
-0.0110332 -0.0074772 -0.00453136
-0.00375474 -0.00437281 -0.00205681
-0.0105437 -0.00761594 -0.00152089
-0.00406742 -0.00316295 -0.0044251
-0.0110293 -0.00445679 -0.00753363
-0.00369181 -0.00213093 -0.00441968
-0.010539 -0.0014707 -0.00761115
0 0 0
0 0 0
0 0 0
0 0 0
0 0 0
0 0 0
0 0 0
0 0 0
-0.00131975 -0.00275956 -0.0005159
-0.00439972 -0.00563478 -0.00203246
-0.0012989 -0.00279779 4.0697e-05
-0.00434896 -0.00558878 2.75152e-05
-0.00127887 -0.00274582 0.000615654
-0.00433544 -0.00563639 0.00211017
-0.00347648 -0.0043672 9.99642e-06
-0.0103219 -0.00766318 3.9421e-05
-0.00353016 -0.00441218 0.00105374
-0.010628 -0.00754465 0.00299491
-0.00312236 -0.00214424 -0.00212429
-0.00999282 -0.0015008 -0.00615033
0 0 0
0 0 0
0 0 0
0 0 0
-0.00148379 -0.00270019 0.00190433
-0.00463137 -0.00551318 0.00313303
-0.00165066 -0.00184128 0.00279611
-0.00490784 -0.00306653 0.00568907
-0.00137259 -0.00114874 0.00281739
-0.00426788 -0.000972726 0.00564692
-0.00389276 -0.00431897 0.00326628
-0.0109304 -0.00742067 0.00446486
-0.00403992 -0.00314207 0.00445606
-0.0110649 -0.00448455 0.00755462
-0.00374794 -0.00209724 0.00443333
-0.0105596 -0.00152354 0.00763443
0 0 0
0 0 0
0 0 0
0 0 0
-0.00218149 -0.0026568 0.00384074
-0.00537707 -0.00542661 0.00440705
-0.00432255 -0.00225459 0.0051825
-0.00803027 -0.00540627 0.00673096
-0.00296265 -0.00164407 0.0051311
-0.00612093 -0.00295943 0.00710543
-0.0027295 -0.000745821 0.00531776
-0.0058815 -0.00089345 0.00691839
0 0 0
0 0 0
0 0 0
0 0 0
-0.00296329 5.24172e-05 -0.00541586
-0.0061392 -6.14717e-05 -0.00659907
0 0 0
0 0 0
0 0 0
0 0 0
0 0 0
0 0 0
0 0 0
0 0 0
-0.0012754 8.23431e-06 -0.00279803
-0.0041234 -4.67515e-06 -0.00571296
-0.00132372 0.000623752 -0.00278572
-0.00443291 0.00204421 -0.00562901
-0.00341356 2.36532e-06 -0.00449559
-0.0103341 -7.64371e-06 -0.0076418
-0.00352557 0.00101635 -0.00449553
-0.0106614 0.0029442 -0.00752505
0 0 0
0 0 0
0 0 0
0 0 0
-0.00298289 -0.00207675 -1.28349e-05
-0.0100062 -0.00612532 -2.19177e-05
-0.0030803 -0.00198715 0.00100939
-0.0101437 -0.00612057 0.00299317
-0.00302918 3.35827e-06 -0.00205969
-0.00995582 5.07578e-06 -0.00610602
-0.00279585 -1.63908e-05 0.00207223
-0.00998017 -2.03156e-05 0.00617041
-0.00308344 0.0010103 -0.00202009
-0.0101338 0.00293885 -0.00609465
-0.00298661 0.000983312 0.00206221
-0.010167 0.00309837 0.00614202
-0.00287714 0.00207182 -6.10386e-06
-0.0099973 0.00614999 -4.40264e-05
-0.00302657 0.00202076 0.000969355
-0.0101652 0.00614316 0.00301291
-0.00893806 -5.11143e-06 -2.18673e-05
-0.0260019 1.65406e-05 7.88457e-06
0 0 0
0 0 0
0 0 0
0 0 0
0 0 0
0 0 0
0 0 0
0 0 0
-0.00125873 -2.67885e-06 0.00270902
-0.00410872 4.26375e-06 0.00563298
-0.00130123 0.00056253 0.00270764
-0.00442684 0.0019957 0.00560898
-0.00333977 -0.00213192 0.00326503
-0.0104247 -0.00606293 0.00452387
-0.00340743 -3.69162e-05 0.0043926
-0.0103058 4.47376e-06 0.00769721
-0.00350696 0.000995164 0.00439438
-0.0106631 0.00303248 0.00757846
-0.00336143 0.00206609 0.00321336
-0.0104096 0.00607391 0.00451709
0 0 0
0 0 0
-0.00295054 6.64946e-05 0.00539622
-0.00612041 -4.39692e-05 0.00656473
0 0 0
0 0 0
0 0 0
0 0 0
0 0 0
0 0 0
-0.00288553 0.00117831 -0.00526291
-0.00600321 0.00093047 -0.00679795
-0.00262381 0.00162421 -0.00505764
-0.00585272 0.00296935 -0.00702037
-0.0041852 0.0021315 -0.0051076
-0.00800696 0.00539286 -0.00668392
-0.00216495 0.00256327 -0.00381284
-0.00539962 0.00550441 -0.00436172
0 0 0
0 0 0
0 0 0
0 0 0
-0.00150772 0.00189133 -0.00276403
-0.00464704 0.00310735 -0.00558626
-0.00151704 0.00275484 -0.00179411
-0.0047042 0.00558506 -0.00305802
-0.00392073 0.00321268 -0.00436346
-0.0109839 0.00438984 -0.00742055
-0.00403307 0.00436288 -0.00317009
-0.0109932 0.00747806 -0.00451172
-0.00369339 0.00440777 -0.0020684
-0.0105421 0.00759151 -0.00153366
0 0 0
0 0 0
0 0 0
0 0 0
0 0 0
0 0 0
0 0 0
0 0 0
-0.00130459 0.00275718 -0.000524076
-0.0043756 0.0056625 -0.00203741
-0.00128158 0.00280491 1.59375e-05
-0.00434007 0.00561076 1.07455e-05
-0.00128565 0.00275945 0.000575145
-0.0043531 0.00567474 0.00208615
-0.00333669 0.00324079 -0.00213707
-0.010425 0.00445277 -0.00604579
-0.00343114 0.00439531 7.67039e-07
-0.0103298 0.00766903 2.6393e-05
-0.00354494 0.00442784 0.00102657
-0.0106553 0.00756754 0.00300641
0 0 0
0 0 0
0 0 0
0 0 0
-0.00152059 0.00182338 0.00276674
-0.00468377 0.00307288 0.00561723
-0.00148908 0.00269768 0.00186708
-0.00465423 0.00554394 0.0031046
-0.00396448 0.00314771 0.00439067
-0.0110378 0.0045065 0.00748575
-0.00384282 0.00437174 0.00320687
-0.0109299 0.00744799 0.00445554
0 0 0
0 0 0
0 0 0
0 0 0
-0.00288581 0.00115059 0.00525549
-0.00600002 0.000922808 0.00675437
-0.00264573 0.00160306 0.00507482
-0.00588869 0.00295708 0.00704271
-0.00215792 0.00254092 0.0038229
-0.00536989 0.00546433 0.00436553
-0.00418938 0.0021239 0.00511647
-0.00800881 0.00540232 0.0066803
0 0 0
0 0 0
-0.00683771 0.00423961 -0.00555113
-0.00947161 0.00645878 -0.00649032
-0.00374666 0.00509528 -0.0037715
-0.0072477 0.00653131 -0.00438008
0 0 0
0 0 0
-0.00292498 0.00525706 -0.0018333
-0.00640945 0.00681058 -0.00304491
0 0 0
0 0 0
-0.00282227 0.00534727 -0.00065047
-0.00610666 0.00671776 -0.00198695
-0.00246558 0.00507925 1.97578e-05
-0.005565 0.00691953 1.53542e-05
-0.00282068 0.00532617 0.000692364
-0.00611241 0.00670327 0.0020144
0 0 0
0 0 0
-0.0029087 0.00521268 0.00184104
-0.00640114 0.00677522 0.00306307
-0.00374115 0.00507895 0.00376127
-0.00724101 0.00649995 0.00437148
-0.00684121 0.00423524 0.00553816
-0.00948386 0.00646583 0.00646984
-0.0103854 -0.00749811 -0.00660512
-0.00978559 -0.00772056 -0.00526053
-0.0103509 -0.00643797 -0.00767857
-0.00964424 -0.00524504 -0.00776628
-0.0132197 -0.00811449 -0.0081604
-0.0153043 -0.00846228 -0.00842978
-0.0126536 -0.00705842 -0.00825148
-0.0147673 -0.00616026 -0.0087079
-0.00853764 -0.00800574 -0.00254529
-0.00847886 -0.00798554 -0.00127014
-0.00859757 -0.00657009 -0.00533165
-0.00863242 -0.00523508 -0.00670085
-0.0122784 -0.00838142 -0.00597023
-0.0150851 -0.00849477 -0.00743883
-0.0119324 -0.00863097 -0.00455198
-0.0147453 -0.00894858 -0.0047912
-0.0116082 -0.00876554 -0.00308787
-0.0144902 -0.00928243 -0.00167608
-0.0115803 -0.00728823 -0.00595206
-0.0145335 -0.00614805 -0.00764061
-0.00845386 -0.00798848 0.00129906
-0.00848558 -0.00800369 0.00255455
-0.0113127 -0.00879007 1.63186e-05
-0.0143742 -0.00933105 1.04863e-05
-0.00975441 -0.00771916 0.005245
-0.0103606 -0.00750887 0.00658165
-0.0085231 -0.00657161 0.00532109
-0.00860287 -0.0052499 0.00672704
-0.0115024 -0.00875527 0.00301187
-0.0143914 -0.00927302 0.00164777
-0.0119552 -0.00862246 0.00449566
-0.0148734 -0.00893795 0.00469557
-0.0122444 -0.00838835 0.0059279
-0.0150574 -0.00849623 0.00737755
-0.0115244 -0.00729189 0.00590964
-0.0145403 -0.00614804 0.00763025
-0.0103208 -0.0064719 0.00767305
-0.00963388 -0.00527474 0.00779091
-0.0131861 -0.00815781 0.00811487
-0.0152785 -0.00849113 0.00837243
-0.0126251 -0.00710174 0.00823709
-0.0147579 -0.00618482 0.00870967
-0.00864394 -0.00259762 -0.00802786
-0.00845231 -0.00128146 -0.00805655
-0.0117659 -0.00451057 -0.00868526
-0.0145713 -0.00479223 -0.0089273
-0.00867582 -0.00259454 0.00805043
-0.00847666 -0.00126666 0.00806259
-0.0117931 -0.00453622 0.00871264
-0.0145992 -0.00481569 0.00895152
-0.00844453 0.00127893 -0.00802686
-0.00864667 0.00257857 -0.00798984
-0.011383 -0.00147389 -0.00884211
-0.0144621 -0.00320462 -0.00909616
-0.0113705 1.24882e-05 -0.00892654
-0.0144789 4.29643e-05 -0.00939458
-0.0113342 0.00151494 -0.00879769
-0.0144734 0.00323565 -0.00906795
-0.00844621 0.00129447 0.00799367
-0.00865326 0.00258328 0.00798142
-0.0114067 -0.00148784 0.00885378
-0.0145039 -0.0032401 0.00912103
-0.0113497 2.15561e-05 0.00890528
-0.0144245 1.63288e-05 0.00937998
-0.0113395 0.00155167 0.00882373
-0.0144644 0.00327971 0.00912305
-0.0095987 0.0052845 -0.00771784
-0.010318 0.00647255 -0.00762211
-0.00854082 0.00528283 -0.00663543
-0.00852835 0.00664806 -0.00529348
-0.0119147 0.00442478 -0.00863951
-0.0148466 0.00465844 -0.00895234
-0.00854984 0.00530955 0.00665295
-0.00850041 0.00664018 0.00527118
-0.00962344 0.00533011 0.00773421
-0.0103318 0.00652914 0.00761427
-0.0119381 0.00451478 0.00868488
-0.0148501 0.00475134 0.00895677
-0.0103329 0.00752806 -0.00658936
-0.0097456 0.00778045 -0.00526255
-0.012616 0.00704633 -0.00822104
-0.0148515 0.0060897 -0.00868488
-0.0131502 0.00811523 -0.00814219
-0.0152672 0.00842225 -0.00841814
-0.0085108 0.00803314 -0.00255426
-0.00845321 0.00800789 -0.00128196
-0.0115181 0.00730464 -0.00591612
-0.0145696 0.00607881 -0.00761203
-0.0121958 0.00839787 -0.00595724
-0.0150175 0.00845727 -0.0074136
-0.01188 0.00867438 -0.0045628
-0.0147148 0.00893802 -0.00480919
-0.0115569 0.00876452 -0.00308205
-0.0144312 0.00923514 -0.00166777
-0.00845661 0.00802075 0.00128426
-0.00850053 0.00804935 0.00254206
-0.0112998 0.00879172 4.74456e-06
-0.0143385 0.0093196 4.68097e-06
-0.0097478 0.00777592 0.00521542
-0.0103542 0.00755095 0.00654009
-0.011505 0.00733874 0.00588025
-0.0145974 0.00614766 0.00761662
-0.0114983 0.00878457 0.00300836
-0.014369 0.00924593 0.00163988
-0.0118906 0.00866842 0.00447842
-0.0147591 0.00896969 0.00470203
-0.0121977 0.00842741 0.00589541
-0.0150082 0.00850727 0.00738002
-0.012629 0.00714468 0.0082114
-0.0148433 0.00617267 0.00870445
-0.0131763 0.00820694 0.00808675
-0.0152621 0.00849144 0.00838414
-0.0174863 -0.00856386 -0.00745082
-0.0174933 -0.00867515 -0.00619393
-0.0174474 -0.00743276 -0.00850947
-0.0174225 -0.00622536 -0.00860198
-0.0196482 -0.00847266 -0.00833651
-0.0218038 -0.00811854 -0.00809302
-0.0199123 -0.00847152 -0.00733527
-0.0227217 -0.00834472 -0.00590093
-0.0175396 -0.00907435 -0.00328949
-0.0175846 -0.00932059 -0.00167129
-0.0175412 -0.00756804 -0.00619313
-0.0174995 -0.00616594 -0.00752979
-0.0175656 -0.00630491 -0.00630232
-0.0174994 -0.00321453 -0.00794071
-0.0202121 -0.00881722 -0.0047233
-0.0229666 -0.00856536 -0.00448527
-0.0207257 -0.00624005 -0.00623893
-0.0240616 -0.00298753 -0.0075619
-0.0175301 -0.00934936 0.00161943
-0.0175161 -0.00916312 0.00323858
-0.0175551 -0.00668825 -0.00334483
-0.0174697 -0.00335155 -0.00664916
-0.0174652 -0.0066193 0.00331782
-0.0175105 -0.00333645 0.00663716
-0.0204983 -0.00909053 -0.00166364
-0.0232679 -0.00865641 -0.0030707
-0.0205248 -0.00929276 -8.31371e-07
-0.0235934 -0.00890673 3.89093e-06
-0.0205897 -0.00923162 0.00162185
-0.0234408 -0.00880471 0.00305764
-0.0211805 -0.00655398 -0.00323136
-0.0246765 -0.00303551 -0.00619413
-0.0211004 -0.00648651 0.0032
-0.0247365 -0.00301712 0.00614701
-0.0249737 -0.00611204 5.62361e-07
-0.0321339 -0.00207769 3.49749e-05
-0.0249138 -0.00614181 0.00151928
-0.0319868 -0.00215965 0.00210024
-0.0175206 -0.00865819 0.00613977
-0.0174731 -0.00853893 0.00739908
-0.017548 -0.00756515 0.00616433
-0.0175011 -0.00613422 0.00753105
-0.0175422 -0.00623422 0.00637833
-0.0175502 -0.0032015 0.00800045
-0.0203429 -0.0087859 0.00472205
-0.0231265 -0.00852253 0.00453392
-0.0207243 -0.00620548 0.0062209
-0.0241065 -0.00295265 0.00753241
-0.0174554 -0.00743305 0.00847533
-0.0174267 -0.00621882 0.00858586
-0.0199163 -0.00844258 0.00732664
-0.0227698 -0.00832724 0.0059184
-0.0196646 -0.00844089 0.00833385
-0.0218219 -0.00808311 0.0080999
-0.0174846 -0.003338 -0.00895055
-0.0174961 -0.00172148 -0.00924195
-0.0201569 -0.00615797 -0.00863127
-0.0223516 -0.00704708 -0.00818545
-0.0204437 -0.0061209 -0.00752092
-0.0233771 -0.00727738 -0.00587034
-0.0203032 -0.00476907 -0.00878505
-0.0230316 -0.00450921 -0.0085198
-0.0203934 -0.00327049 -0.00893918
-0.0235562 -0.00159882 -0.00885536
-0.0174961 -0.00332866 0.0089999
-0.0174953 -0.00171904 0.0092767
-0.0204348 -0.00609637 0.00750652
-0.0233891 -0.0072466 0.00587674
-0.020165 -0.0061365 0.00862217
-0.0223539 -0.00701845 0.0081814
-0.0203229 -0.00475525 0.00879367
-0.0230651 -0.00449641 0.00851412
-0.0204194 -0.00325168 0.00893925
-0.023647 -0.00156854 0.00881705
-0.0175041 0.00164053 -0.00944526
-0.0175582 0.00327377 -0.00914185
-0.0173726 0.00331882 -0.00665803
-0.0174536 0.00665345 -0.00334894
-0.0205844 1.17014e-05 -0.00940692
-0.0237265 3.90108e-06 -0.00899886
-0.0210583 0.00321496 -0.00654576
-0.0247157 0.00619907 -0.0030563
-0.0249803 -1.11869e-05 -0.00615242
-0.0321181 1.06576e-05 -0.00206307
-0.0249071 0.00152511 -0.00616417
-0.03199 0.00212011 -0.00213719
-0.017476 0.00159971 0.00935183
-0.0175515 0.00322672 0.00904141
-0.017528 0.00334661 0.0066156
-0.017457 0.00664161 0.003287
-0.0174562 0.00320569 0.00798423
-0.0174158 0.00629476 0.00628482
-0.020573 5.84427e-06 0.00934455
-0.023749 2.14164e-05 0.00894354
-0.0211937 0.00322513 0.00648934
-0.0246906 0.00615 0.00300037
-0.0208394 0.00311922 0.00790596
-0.0239508 0.0059827 0.00593799
-0.0250517 -2.84616e-06 0.00608306
-0.0320291 -2.33821e-05 0.00204295
-0.0246583 1.29711e-05 0.00761411
-0.031592 -3.48905e-05 0.0044715
-0.0250447 0.0014936 0.00614883
-0.0319183 0.00205065 0.00209366
-0.0245099 0.00151573 0.00756797
-0.0313966 0.00201955 0.00449293
-0.0175286 0.00620041 -0.00859162
-0.0174562 0.00738705 -0.00849635
-0.0175126 0.00621396 -0.00752739
-0.01746 0.00755437 -0.00615375
-0.0174647 0.00641317 -0.00622715
-0.0174849 0.00803406 -0.00320964
-0.0204188 0.00327124 -0.00909745
-0.023558 0.00154677 -0.00886679
-0.0203267 0.00474279 -0.0089203
-0.0230811 0.00449574 -0.00865281
-0.0201653 0.00607293 -0.00861769
-0.0223193 0.00706915 -0.00820043
-0.0204203 0.00609493 -0.00757815
-0.0233021 0.0073111 -0.00588662
-0.0206654 0.00624181 -0.0062619
-0.0240786 0.00758221 -0.00300313
-0.0243697 0.00454318 -0.006069
-0.0317003 0.00326942 -0.00209046
-0.0175273 0.00615345 0.00752384
-0.0174805 0.00755044 0.00619046
-0.0175246 0.0061298 0.00852343
-0.0174578 0.00736376 0.00846992
-0.020484 0.00326896 0.00902087
-0.0236427 0.00153563 0.00882597
-0.0204114 0.00480126 0.00883671
-0.0232028 0.00455178 0.00860201
-0.0203857 0.0060815 0.00756587
-0.02333 0.00732447 0.00587963
-0.0202004 0.00611062 0.00862901
-0.0223136 0.00708803 0.00819412
-0.0238772 0.00450814 0.00741998
-0.03104 0.00309289 0.00444275
-0.0174428 0.00849237 -0.00744749
-0.017443 0.00861484 -0.00620275
-0.0196564 0.0084198 -0.00839437
-0.0217955 0.0081407 -0.00811325
-0.019898 0.00843553 -0.00738259
-0.0227317 0.00835134 -0.00589397
-0.0175355 0.00901889 -0.00331875
-0.0175027 0.00929293 -0.0016828
-0.0203074 0.00882337 -0.00477587
-0.0231523 0.00855107 -0.00454912
-0.0175121 0.00928707 0.00160972
-0.0175237 0.00909172 0.00323905
-0.0205765 0.00913471 -0.00167105
-0.0235157 0.0087182 -0.0030425
-0.0205523 0.00931268 7.59502e-06
-0.0236575 0.00887609 1.82575e-05
-0.0205522 0.00909836 0.00164945
-0.023489 0.0086779 0.00304186
-0.0249709 0.00609821 -1.23402e-05
-0.0320078 0.00208495 -5.96933e-06
-0.0245919 0.00761064 -4.8024e-06
-0.0315211 0.00450127 -6.75448e-06
-0.017477 0.00864723 0.00619222
-0.0174542 0.00852482 0.00745211
-0.0203858 0.00879383 0.00475259
-0.0231665 0.00855181 0.00451827
-0.0199148 0.00845089 0.00737181
-0.0227469 0.00838877 0.0059129
-0.0196693 0.00842927 0.00838085
-0.0217785 0.00814733 0.00809202
-0.0246164 -0.00757246 -0.00659613
-0.025161 -0.00785794 -0.0052494
-0.0246193 -0.00651179 -0.00765329
-0.0252952 -0.00532836 -0.0078051
-0.0254523 -0.00648542 -0.00649185
-0.0281001 -0.00426193 -0.00553214
-0.0269068 -0.00542345 -0.00671055
-0.0307514 -0.00211226 -0.00511475
-0.0263015 -0.00828177 -0.00257531
-0.0265342 -0.00828021 -0.00126557
-0.0263253 -0.00672375 -0.00535159
-0.0263079 -0.00533538 -0.00676141
-0.0273147 -0.00539891 -0.00545508
-0.0273425 -0.00252554 -0.00694525
-0.0276716 -0.00649501 -0.00437508
-0.0312326 -0.00508989 -0.00374973
-0.0284712 -0.00679014 -0.0030315
-0.0320777 -0.00514636 -0.00181394
-0.0287034 -0.00677969 -0.00200028
-0.0321525 -0.00527936 -0.0006609
-0.0295335 -0.00546211 -0.00435094
-0.0328259 -0.00251526 -0.00379712
-0.0303241 -0.00556359 -0.003052
-0.0335428 -0.00259851 -0.0018231
-0.0307 -0.00574036 -0.00206601
-0.0337636 -0.00271791 -0.000574991
-0.0310537 -0.00431417 -0.00318168
-0.0339691 -0.00124933 -0.00185063
-0.0313243 -0.00438254 -0.00201758
-0.0341608 -0.0011483 -0.000568143
-0.0266098 -0.00813217 0.00133724
-0.026471 -0.00812638 0.00266316
-0.0282589 -0.00552824 -0.00264346
-0.0281629 -0.00263957 -0.00551671
-0.0293874 -0.00706734 -1.53765e-05
-0.0325378 -0.00507439 -2.34141e-05
-0.0307799 -0.00583921 -7.29597e-06
-0.0337358 -0.00283978 -6.48576e-06
-0.031427 -0.00453828 3.62336e-06
-0.0341511 -0.00124239 -1.79496e-05
-0.0313981 -0.00452283 0.000999493
-0.0340576 -0.00122381 0.00117196
-0.025226 -0.00780598 0.00528048
-0.0246389 -0.00754491 0.00660209
-0.0263209 -0.00666401 0.00535959
-0.0263036 -0.00529952 0.00673516
-0.0272637 -0.00538064 0.00542321
-0.0273896 -0.00257088 0.00688718
-0.0287814 -0.00681359 0.00201285
-0.032153 -0.00533488 0.000624684
-0.0285174 -0.0068595 0.00304298
-0.0320652 -0.00521501 0.00181611
-0.0276804 -0.00654117 0.00438352
-0.0312125 -0.00510418 0.00377977
-0.0306654 -0.00579937 0.00203808
-0.0337097 -0.00280784 0.000549035
-0.0302728 -0.00565964 0.00305744
-0.0335029 -0.00264 0.00183756
-0.0295004 -0.00551294 0.00436351
-0.0328044 -0.00251911 0.00378819
-0.0309675 -0.00442707 0.00313241
-0.0339343 -0.00113176 0.00189825
-0.0246183 -0.00649251 0.00764281
-0.0253031 -0.00530777 0.00777729
-0.0254603 -0.00648456 0.00650219
-0.0280977 -0.00424544 0.00556909
-0.0269082 -0.0054229 0.00670511
-0.0307558 -0.00209837 0.00510445
-0.0262352 -0.00262476 -0.00829358
-0.0264647 -0.00128928 -0.00828512
-0.0289376 -0.00296618 -0.00713124
-0.0322973 -0.00160352 -0.00509078
-0.0302121 -0.00302029 -0.00570874
-0.0335059 -0.00177659 -0.00269053
-0.0304792 -0.00192523 -0.00570579
-0.0336888 -0.000547735 -0.00267569
-0.0263178 -0.00257072 0.0081989
-0.026553 -0.00122979 0.00819954
-0.0302075 -0.00303751 0.00570573
-0.0334981 -0.00177783 0.00271792
-0.028959 -0.00299175 0.00711608
-0.032294 -0.0015937 0.00511628
-0.0304987 -0.00194542 0.00572397
-0.0336614 -0.000559365 0.00276026
-0.0265679 0.0013455 -0.00814672
-0.0263116 0.00267321 -0.00804777
-0.0288075 -0.000894855 -0.00690595
-0.0320343 -0.00111898 -0.00527822
-0.0287978 0.000107288 -0.00669217
-0.031991 1.66936e-06 -0.00545362
-0.0308719 2.74279e-05 -0.00585132
-0.0337462 -5.83445e-06 -0.00274048
-0.0314781 1.71387e-05 -0.00452255
-0.0342037 7.43761e-06 -0.00124833
-0.0291054 0.000942943 -0.00702395
-0.0322803 0.000746618 -0.00528873
-0.0307822 0.00095395 -0.005789
-0.0336591 0.00113151 -0.00275568
-0.0315089 0.000965331 -0.0045533
-0.0341055 0.00114791 -0.00120797
-0.026638 0.00133208 0.00810066
-0.0263821 0.00262659 0.00803547
-0.028964 -0.000854889 0.00687671
-0.0320679 -0.00112832 0.00534492
-0.0308093 2.79713e-05 0.00568201
-0.0337055 -3.02226e-05 0.00277893
-0.0289032 0.000103741 0.00662569
-0.0320152 -1.40576e-05 0.00548702
-0.0307585 0.000958874 0.00568049
-0.0336365 0.00112021 0.00283787
-0.0292133 0.000906366 0.00695103
-0.0323052 0.000741475 0.00533406
-0.0253166 0.0053271 -0.00776052
-0.0246318 0.00651199 -0.00765948
-0.0262944 0.00529964 -0.00669719
-0.0263177 0.00671425 -0.00533988
-0.0272486 0.00541554 -0.00539588
-0.0273813 0.00695897 -0.00259789
-0.028898 0.0029869 -0.00711464
-0.0321072 0.00160719 -0.00507658
-0.0302149 0.00308335 -0.00569837
-0.033487 0.00176482 -0.00280331
-0.0309349 0.00310423 -0.00444224
-0.0339479 0.0018129 -0.0011673
-0.0263317 0.00526307 0.00665519
-0.0263611 0.0066436 0.00524907
-0.0253391 0.00528236 0.00774052
-0.0246412 0.0064845 0.00763431
-0.0301439 0.00303711 0.00567093
-0.0334356 0.0017617 0.00283993
-0.0289189 0.00296315 0.00707432
-0.0320719 0.00163205 0.00512875
-0.0245842 0.00757306 -0.00660211
-0.0251357 0.00786829 -0.00528808
-0.0269137 0.0054139 -0.00673123
-0.0306906 0.00218804 -0.00513656
-0.0254711 0.00648413 -0.00653963
-0.0281017 0.0042939 -0.00558464
-0.0263258 0.0082707 -0.00259619
-0.0265276 0.00825205 -0.0012478
-0.0295087 0.00551817 -0.00438486
-0.0328144 0.00261056 -0.00378604
-0.0301455 0.00560305 -0.00306467
-0.0334729 0.00256147 -0.0018648
-0.0305344 0.00575346 -0.00201339
-0.0336618 0.00269876 -0.000551976
-0.0276498 0.00653656 -0.00440524
-0.0311959 0.0051444 -0.00378849
-0.0284271 0.00685261 -0.00306811
-0.0320353 0.00522648 -0.0018312
-0.0286533 0.00682132 -0.00199829
-0.0320898 0.00537572 -0.000648854
-0.0265149 0.00824296 0.00128031
-0.0263575 0.0082876 0.00256432
-0.0306569 0.00566473 1.30484e-05
-0.0336746 0.00283656 3.51032e-06
-0.0294148 0.00698058 2.82416e-05
-0.0325233 0.00513895 5.60542e-06
-0.0251753 0.00779682 0.00518839
-0.0245784 0.007531 0.00653981
-0.0304675 0.0056568 0.0020477
-0.0336515 0.00260275 0.000571463
-0.0301065 0.0055118 0.00309443
-0.0334417 0.00253786 0.00189967
-0.0295581 0.00542832 0.00437602
-0.0327967 0.00261102 0.00383352
-0.0286518 0.00677876 0.00202055
-0.0320726 0.00536224 0.000667141
-0.0285299 0.00681116 0.00308664
-0.0320655 0.00522276 0.00185943
-0.0277293 0.00646705 0.00437157
-0.0312099 0.00513645 0.00377737
-0.0269527 0.00539719 0.00671532
-0.0306837 0.00222585 0.00517658
-0.0255192 0.0064721 0.00650246
-0.0281462 0.00431556 0.0055631
-0.035 0 0
-0.035 0 0
-0.035 0 0
-0.035 0 0
-0.035 0 0
-0.035 0 0
-0.035 0 0
-0.035 0 0
-0.035 0 0
-0.035 0 0
-0.035 0 0
-0.035 0 0
-0.035 0 0
-0.035 0 0
-0.035 0 0
-0.035 0 0
-0.035 0 0
-0.035 0 0
-0.035 0 0
-0.035 0 0
-0.035 0 0
-0.035 0 0
-0.035 0 0
-0.035 0 0
-0.035 0 0
-0.035 0 0
-0.035 0 0
-0.035 0 0
-0.035 0 0
-0.035 0 0
-0.035 0 0
-0.035 0 0
-0.035 0 0
-0.035 0 0
-0.035 0 0
-0.035 0 0
-0.035 0 0
-0.035 0 0
-0.035 0 0
-0.035 0 0
-0.035 0 0
-0.035 0 0
-0.035 0 0
-0.035 0 0
-0.035 0 0
-0.035 0 0
-0.035 0 0
-0.035 0 0
-0.035 0 0
-0.035 0 0
-0.035 0 0
-0.035 0 0
-0.035 0 0
-0.035 0 0
-0.035 0 0
-0.035 0 0
-0.035 0 0
-0.035 0 0
-0.035 0 0
-0.035 0 0
-0.035 0 0
-0.035 0 0
-0.035 0 0
-0.035 0 0
-0.035 0 0
-0.035 0 0
-0.035 0 0
-0.035 0 0
-0.035 0 0
-0.035 0 0
-0.035 0 0
-0.035 0 0
-0.035 0 0
-0.035 0 0
-0.035 0 0
-0.035 0 0
-0.035 0 0
-0.035 0 0
-0.035 0 0
-0.035 0 0
-0.035 0 0
-0.035 0 0
-0.035 0 0
-0.035 0 0
-0.035 0 0
-0.035 0 0
-0.035 0 0
-0.035 0 0
-0.035 0 0
-0.035 0 0
-0.035 0 0
-0.035 0 0
-0.035 0 0
-0.035 0 0
-0.035 0 0
-0.035 0 0
-0.035 0 0
-0.035 0 0
-0.035 0 0
-0.035 0 0
-0.035 0 0
-0.035 0 0
-0.035 0 0
-0.035 0 0
-0.035 0 0
-0.035 0 0
-0.035 0 0
-0.035 0 0
-0.035 0 0
-0.035 0 0
-0.035 0 0
-0.035 0 0
-0.0268897 0.0066571 -0.00565985
-0.0296932 0.00340468 -0.0052812
-0.0148518 -0.00869001 0.00616741
-0.0316489 0.0052602 -0.00263372
-0.035 0 0
-0.0321954 0.00366059 -0.00377123
0 0 0
-0.035 0 0
0 0 0
-0.0113656 0.00878749 -0.00152477
-0.035 0 0
-0.0318255 -3.69473e-05 0.00323237
-0.0127067 0.00815589 -0.007107
-0.0150236 0.00734975 -0.00850259
-0.035 0 0
-0.0290851 -0.00184654 0.00704806
-0.0331685 -0.00105928 0.00388687
-0.008025 -0.00661872 -0.00563739
-0.00529574 -0.00344099 -0.00527713
-0.0144402 -0.00159867 -0.00922383
-0.0227704 -0.00585346 -0.00833587
-0.0150276 -0.00740214 -0.00852599
-0.0127846 -0.0081414 -0.00712329
-0.00584557 0.00689577 0.00112032
-0.00177953 -0.00264171 -0.00270538
-0.0122253 -0.00587797 -0.00843634
-0.0121587 -0.00712778 -0.00717268
0 0 0
-0.0330981 -0.000582139 0.00392783
-0.035 0 0
-0.0320213 -0.00053306 0.00545679
-0.00681875 0.00424013 -0.00695451
0 0 0
-0.0027937 -0.00368993 -0.00377521
-0.00329707 -0.005261 -0.00261762
-0.00227648 -0.00370329 -0.00266148
-0.014782 0.00866027 -0.00621224
-0.0148088 0.00738688 -0.00742514
-0.00331704 -0.00218486 -0.00324338
-0.035 0 0
-0.00361184 -0.00436283 -0.00102193
0 0 0
-0.00293533 0.000590174 -0.00536945
0 0 0
-0.0227076 0.00586964 -0.0083673
-0.0286441 0.00413219 0.00265521
-0.0144887 -0.00913895 0.00317976
-0.028047 0.00422641 0.00698473
-0.0222123 0.00815971 0.00705617
-0.0199239 0.0073601 0.00846136
-0.0145493 0.00758191 -0.00617234
-0.0059106 -0.00187062 -0.00697768
-0.00208756 -0.00176537 -0.00394008
-0.0068353 0.00424262 0.0069634
0 0 0
-0.00327701 -0.00522958 0.00261025
0 0 0
-0.00225671 -0.00367173 0.00267127
-0.035 0 0
-0.00637472 0.00540458 -0.00573732
-0.00802583 0.00663135 -0.00561918
-0.00522793 0.00334463 -0.00524884
-0.00276009 0.00361643 -0.00376146
-0.00329868 0.00524305 -0.00262819
-0.00226778 0.00368043 -0.0026658
0 0 0
0 0 0
-0.00188729 0.00180782 -0.00380907
-0.00176766 0.00263894 -0.00269725
-0.00537214 0.00425759 -0.00569806
0 0 0
0 0 0
-0.00187019 -0.00109164 -0.00387909
0 0 0
-0.00178766 -0.000477043 -0.0037881
-0.00184422 3.06913e-05 -0.0038057
-0.00287883 -0.000405068 -0.00537206
0 0 0
-0.00292322 0.00057552 0.00534098
-0.0148556 -0.0086958 -0.00622929
-0.0145898 -0.00763242 -0.00620944
-0.0148327 -0.00743041 -0.00745505
-0.00522789 0.00333687 0.00524481
-0.00636615 0.00538356 0.00573269
-0.00803112 0.00661653 0.0055999
-0.0234774 0.00307007 0.00872376
0 0 0
-0.00205301 0.00380086 -0.00178832
0 0 0
-0.00190528 0.0038049 -0.00107993
-0.00294927 0.00537499 -0.00119985
-0.0337054 0.000532628 0.00280543
0 0 0
-0.00294487 -0.00537815 -0.0011981
-0.0100072 0.00618714 0.00149954
-0.00587519 0.00188844 0.00693832
-0.00179311 0.00109506 0.00382867
-0.00182936 0.000576617 0.00381524
-0.00584658 -0.00688358 -0.00108288
-0.0018232 -0.00385534 -0.000540815
-0.00593149 -0.00186319 0.0070011
0 0 0
-0.0018113 0.00383024 0.000591875
-0.0029391 0.00533691 0.00123707
0 0 0
-0.00188826 0.00375049 0.00111712
-0.00134615 0.00274643 0.00120292
-0.0020317 0.00374051 0.0018178
-0.00726719 -0.00678181 -0.00126577
-0.0114026 -0.00879167 -0.00151686
-0.0043293 -0.00558045 -0.000944549
-0.00587193 0.00191767 -0.00695228
-0.00179541 0.00113006 -0.00383556
-0.00184513 0.000612027 -0.00386732
-0.00537025 0.00423503 0.00570644
-0.00189373 0.00177354 0.00382316
-0.00445045 0.00428349 0.00435558
-0.00175021 0.00258969 0.00273533
0 0 0
-0.00275229 0.00359359 0.00375981
-0.00328823 0.00521299 0.00262521
-0.00225636 0.00364106 0.00267267
-0.00175515 -0.00261711 0.0027645
-0.00208176 -0.0017647 0.00396138
-0.00277797 -0.00367986 0.00377362
-0.00528873 -0.00345373 0.00527043
-0.00799674 -0.00661071 0.00562256
-0.0329044 0.00368989 0.00182356
-0.035 0 0
-0.00327679 0.00318532 0.000996271
0 0 0
-0.00320272 0.00204037 0.00205383
-0.0294868 0.00420455 0.00575516
-0.033201 0.00251986 0.00276337
-0.00695619 -0.00421529 -0.00698905
-0.00550837 -0.004218 -0.00576745
-0.00935821 -0.00644333 -0.0065934
-0.006421 -0.00538599 -0.00579206
-0.0222409 -0.00810563 0.00705307
-0.019937 -0.0073719 0.00843339
-0.0285062 -1.93312e-06 -0.00551466
-0.00188874 -0.00109235 0.00390088
-0.00127997 -0.000553229 0.00277207
0 0 0
-0.0319845 -0.000526314 -0.00541853
-0.035 0 0
-0.0072173 -0.00132757 -0.00682822
-0.00345152 -0.00104463 -0.00445607
-0.00126368 -0.000557736 -0.00278128
-0.00776164 0.00676547 -0.00398036
-0.0145527 0.00909071 -0.0032745
-0.0115438 -0.00302861 0.00878633
-0.00450235 -0.00200686 0.00567421
0 0 0
-0.00137413 -0.00278458 -0.00113472
-0.00205491 -0.00381269 -0.00178957
-0.00190853 -0.00381657 -0.00107999
-0.035 0 0
-0.035 0 0
-0.0319803 0.00536014 -0.00124803
-0.00583099 -0.00686552 0.00114432
-0.00174881 -0.00392189 3.63982e-05
-0.0127496 -0.00815936 0.00707617
-0.0148191 -0.00742436 0.00740681
-0.0150087 -0.00742917 0.0084954
-0.00201661 -0.00373472 0.00182752
0 0 0
-0.0121295 -0.00715132 0.00715057
-0.0122195 -0.00591832 0.00845586
-0.00751345 -0.00265165 0.00685295
-0.00725876 -0.00131971 0.00684843
-0.0144583 -0.00163197 0.00924647
-0.00791106 -0.00394676 0.00685765
-0.0115624 -0.00588605 0.00737402
-0.00452048 -0.00423476 0.00443959
-0.0312039 0.00444927 -0.00208045
-0.0316758 0.0052338 0.00263669
-0.035 0 0
-0.0327073 0.00364078 0.00268059
-0.0234064 -0.00584481 -0.00727264
-0.0232639 -0.00306611 -0.00869593
0 0 0
-0.00288955 -0.000378008 0.00538705
-0.00183004 2.65598e-05 0.00375501
-0.00179821 -0.000466321 0.00380071
-0.0150141 0.00742723 0.00849066
-0.0127174 0.00820822 0.0070491
0 0 0
-0.00180154 -0.00381451 0.000615858
-0.00291595 -0.00531468 0.00125109
-0.00187241 -0.00373041 0.00113515
-0.0199243 -0.00740042 -0.00844034
-0.0222259 -0.00812855 -0.00704432
-0.0228223 -0.00711861 -0.00709136
-0.0281213 0.00557376 -0.00267096
-0.0287099 0.00420926 -0.00269626
-0.0278067 0.00686265 1.95587e-06
-0.0203953 -0.00898036 -0.00323438
-0.00721975 -0.00678181 0.00130244
-0.00720397 -0.00678989 2.65448e-05
-0.004303 -0.00556654 0.00100157
-0.0113475 -0.00880525 0.00152014
-0.0107583 -0.00301197 0.00760981
-0.0108641 -0.0059724 0.00605882
-0.014584 -0.00761577 0.0061362
-0.00759414 -0.005317 0.0054616
-0.0098754 -0.00312348 0.00460711
-0.0104535 -0.00455427 0.00611838
-0.0102298 -0.00308511 0.00613002
-0.00356566 -0.00107278 0.0044027
-0.00316267 -0.00207533 0.00211243
0 0 0
-0.00999004 -0.00616383 0.00150221
-0.00326695 -0.00318226 0.00102013
-0.0104117 -0.00760822 0.00153353
-0.00354633 -0.00319604 0.00330119
-0.00337016 -0.0032151 0.00211485
0 0 0
-0.0036014 -0.00441828 0.0021424
-0.00766786 -0.00668405 0.00400326
-0.00739892 -0.00680429 0.00264651
-0.00133992 -0.00272626 0.00123867
-0.0275606 0.00263026 0.00682776
-0.0205237 0.0016254 0.00919851
-0.0278146 0.00130118 0.00685337
-0.0242593 0.00302186 0.00751603
-0.035 0 0
-0.0331205 -1.10258e-05 0.00384764
-0.0331786 0.000479854 0.00384375
-0.0321105 0.000416102 0.00543436
-0.0280759 -0.0042714 0.00699907
-0.0285318 -0.00541457 0.0057525
-0.0297215 -0.00333877 0.00525691
-0.0269004 -0.00664648 0.00563024
-0.0227937 0.00716091 0.00710695
-0.0256197 0.00647856 0.00653686
-0.0227281 0.00590797 0.00838214
-0.0331255 0.00107242 0.00391646
-0.0291235 0.001863 0.00700254
-0.0305584 0.00196386 0.00567815
-0.0329711 0.00171866 0.00398036
-0.0295084 -0.00424793 0.00571726
-0.0330837 -0.00172643 0.00381627
-0.0322057 -0.00360378 0.00375641
-0.035 0 0
-0.0316694 -0.00524508 0.00262321
-0.0327023 -0.00365184 0.00264271
-0.035 0 0
-0.0332352 -0.00255898 0.00269614
-0.032955 -0.00371371 0.00177946
-0.0147898 0.00868215 0.00615621
-0.0148129 0.00744159 0.0074055
-0.00778141 0.0039766 0.00678102
-0.00136967 0.00114934 0.00274873
-0.00370538 0.0020755 0.00438099
-0.0104333 0.00456551 0.00606771
-0.010113 0.00461963 0.00456271
-0.00990241 0.00309381 0.0046418
-0.0115219 0.00304966 0.00876318
-0.00741194 0.00263084 0.00680784
-0.00429471 0.000961355 0.00554675
-0.0143757 0.00166429 0.00926523
-0.00722173 0.00128332 0.00680911
-0.00709097 3.0705e-07 0.00683289
-0.0100177 0.00154566 0.00621714
-0.00318763 0.00101051 0.00322253
-0.0104067 0.00154359 0.00764872
-0.00310722 -2.6624e-05 0.00322925
-0.00338125 0.0032106 0.00208983
0 0 0
-0.00361712 0.00444277 0.00209972
-0.00354335 0.00318678 0.00324684
-0.0201322 0.0073735 0.00738957
-0.0174757 0.00740698 0.00742565
-0.0201595 0.00859598 0.00615072
-0.0122586 0.0059452 0.00842566
-0.00930479 0.00651724 0.00653056
-0.0115602 0.00592686 0.00733648
-0.012115 0.00720792 0.00712548
-0.00930425 0.00649444 -0.00654354
-0.0122386 0.00584676 -0.00839904
-0.0121085 0.00713021 -0.00713752
-0.0205378 -0.00164706 0.00913362
-0.0206043 -0.00466184 0.00766107
-0.0175531 -0.00474632 0.00776109
-0.0227709 -0.00583569 0.00833345
-0.025594 -0.00651612 0.00659126
-0.0228281 -0.00709031 0.00709091
-0.024012 -0.0059584 0.00596187
-0.0204462 -0.00897573 0.0032101
-0.020818 -0.00317111 0.00781704
-0.0209472 -0.00636019 0.00476085
-0.0174435 -0.00644872 0.00490701
-0.0145594 0.00762143 0.0061332
-0.0108372 0.00599329 0.00600987
-0.00766086 0.00673701 0.00396909
-0.00753909 0.00537426 0.00538577
-0.00431003 0.00560273 0.000981434
-0.00720121 0.00680829 1.23201e-05
-0.011344 0.0088096 0.00151264
-0.0306109 0.00575706 -0.000948668
-0.0290704 0.00699485 -0.00108354
-0.033134 0.00385083 -0.000578672
-0.00963606 0.00312367 0.00311654
-0.0244234 0.00609916 0.00447767
-0.0211056 0.00646287 0.00321999
-0.0235813 0.00877091 0.00153522
-0.0270975 0.00395152 0.00677872
-0.0304132 0.00420767 0.00437623
-0.0233342 0.00589241 0.00727967
-0.0272828 0.00534761 0.00534821
-0.0203716 0.00751477 0.00615949
-0.0206131 0.00468291 0.00772886
-0.0174429 0.00474605 0.00773731
-0.0145832 -0.00912708 -0.00325961
-0.00782595 -0.0067108 -0.00399614
-0.00746509 -0.00678056 -0.00265019
-0.0269055 -0.0066237 -0.00562168
-0.0297183 -0.00334929 -0.0052441
-0.00583693 0.00690004 -0.00109117
-0.00174861 0.0039271 1.49872e-05
-0.00430954 0.00560072 -0.000954776
-0.00181572 0.00385012 -0.000553417
-0.0251634 -0.00306689 0.00464957
-0.02792 7.07806e-06 0.00687597
-0.0211365 -0.00322991 0.00646
-0.0312761 -0.00453719 0.00202107
-0.0236179 -0.00879053 0.00153116
-0.0281585 -0.005489 0.00266654
-0.0286646 -0.00268866 0.0041429
-0.0244306 -0.00604755 0.00453471
-0.0312085 -0.00203221 0.00443414
-0.0306283 -0.000932075 0.00568247
-0.0309406 -0.00314404 0.004402
-0.033601 -0.00110563 0.00273721
-0.0304574 -0.00430514 0.00435075
-0.00724773 0.00679944 -0.00128141
-0.00742417 0.00680496 -0.0026491
-0.00135816 0.00278487 -0.00113449
-0.029031 0.00695175 0.00112408
-0.0332183 0.00395342 -2.93576e-07
-0.0305312 0.00569148 0.00098019
-0.0174358 0.00647164 0.00483472
-0.0205352 0.00895283 0.00323258
-0.0209035 0.00638644 0.0047719
-0.0206351 0.00625155 0.00624153
-0.0319845 0.00534678 0.00127489
-0.0330762 0.00367157 0.00111807
-0.035 0 0
-0.0331082 0.0038043 0.00059246
-0.0319894 0.00100823 0.00206731
-0.0254267 0.00307589 0.00310328
-0.0251418 0.00463845 0.00306214
-0.0331222 -0.000544282 -0.00384369
-0.0289903 -0.00185544 -0.00705217
-0.0251485 0.00468628 -0.00309291
-0.0320912 0.0010593 -0.00210311
-0.0317786 0.00327444 -1.30864e-05
-0.0255936 0.0065255 -0.0065917
-0.0280273 0.00425037 -0.00699195
-0.0294719 0.00425818 -0.00574569
-0.0285358 0.00542914 -0.00578844
-0.00694891 -0.00423712 0.00701555
-0.00931775 -0.00645425 0.00658686
-0.00548318 -0.00421813 0.00580017
-0.00638684 -0.00537966 0.0057958
-0.00995801 0.00147639 -0.0061331
-0.0326965 0.00366085 -0.00265668
-0.035 0 0
-0.0332195 0.00254239 -0.00272452
-0.0285547 -0.00539349 -0.00575388
-0.0256023 -0.00654668 -0.00660051
-0.0280699 -0.00426601 -0.0070108
-0.0236231 0.00880915 -0.00152862
-0.0317985 0.000996597 0.00324808
-0.0315501 0.000973233 0.00449697
-0.035 0 0
-0.00957834 0.00308694 -0.00311043
-0.0254259 0.0031152 -0.00311889
-0.0174964 0.00357436 1.8997e-07
-0.0305842 0.00197651 -0.00574978
-0.0290649 0.00190578 -0.0070394
-0.033027 0.00171034 -0.00390623
-0.0331448 0.00107447 -0.00385022
-0.035 0 0
-0.0270443 0.00688934 -0.0039829
-0.0239215 0.00600127 -0.00597135
-0.0233289 0.00587403 -0.00728522
-0.023757 0.0074864 -0.00446783
-0.0254535 -0.00309624 0.00310003
-0.0175249 -1.62557e-06 0.00354232
-0.00960937 -0.00312628 0.00309239
-0.0285685 0.00537102 0.00577211
-0.0269419 0.00660514 0.00561513
-0.0321954 0.00365788 0.00378683
-0.0297068 0.00342977 0.00528551
-0.0330953 0.00369344 -0.00109682
-0.03292 0.00368718 -0.00179932
-0.035 0 0
-0.0206052 0.00769734 -0.00471352
-0.020496 0.00899419 -0.00326342
-0.0227918 0.00715198 -0.00711791
-0.0198935 0.00734176 -0.00847246
-0.0222389 0.00815739 -0.00706473
-0.00322363 -0.00321263 -1.1285e-05
-0.00986916 -0.00462079 -0.00311887
-0.0336133 0.00259039 -0.0011718
-0.0337675 0.00178267 -0.00191471
-0.0304274 0.00430622 -0.00438331
-0.030931 0.00437218 -0.00319199
-0.0320765 -0.0021249 0.00105335
-0.0283955 -0.00551783 0.00131975
-0.0336368 -0.00271002 0.00114948
-0.035 0 0
-0.0337586 -0.00179615 0.00188521
-0.0338906 -0.00189916 0.00117917
-0.0203591 0.00753035 -0.00612494
-0.0174585 0.00741051 -0.00742342
-0.0201171 0.0073638 -0.00738438
-0.0201473 0.00861986 -0.00617493
-0.0335948 0.00254494 0.00120245
-0.027923 0.00403211 0.00540941
-0.0317148 0.00204301 0.00326963
-0.0283548 0.00412129 0.00400042
-0.00757224 0.0053685 -0.0053756
-0.00446825 0.00434075 -0.00434822
-0.0115394 0.00582957 -0.0073154
-0.0108369 0.00596813 -0.00600396
-0.0175149 0.00778308 -0.00474585
-0.0106929 0.00755809 -0.00303113
-0.00747986 -0.00265132 -0.00683024
-0.00447882 -0.00201651 -0.00565072
-0.011501 -0.00301028 -0.00876447
-0.0115164 0.00297297 -0.00874876
-0.00430255 0.000981673 -0.00562192
-0.00984333 0.00457771 -0.00312981
-0.00315973 0.00322899 -1.49256e-05
-0.0104154 0.00604335 -0.00457958
-0.0101881 0.00608458 -0.00310054
-0.00355923 0.00439193 -0.00103791
-0.00316563 0.00209481 -0.0021029
-0.00326974 0.000999699 -0.00323796
0 0 0
-0.00354482 0.00326016 -0.00321685
-0.0033724 0.00208063 -0.00325446
0 0 0
-0.00740576 0.00259858 -0.00682562
-0.00773085 0.00394706 -0.00671639
-0.0036247 0.00210831 -0.00445472
-0.00136681 0.00122586 -0.00276856
0 0 0
-0.00302617 -0.00104539 -0.00210423
-0.00320782 8.23835e-07 -0.00326709
-0.00320728 -0.00106826 -0.00325512
-0.0233764 0.00307162 -0.00874683
-0.0278052 0.00401909 -0.00543341
-0.0313146 0.0019854 -0.00452137
-0.033928 0.0011645 -0.00189359
-0.0337239 0.000566219 -0.00272383
-0.035 0 0
-0.0340007 -0.00187435 -0.000583749
-0.0201694 -0.00859469 0.00612644
-0.0175038 -0.00742491 0.00740423
-0.0204549 -0.0075136 0.00611853
-0.0201686 -0.00736373 0.00734372
-0.00710077 1.09594e-06 -0.00687492
-0.0144042 0.00163874 -0.00921301
-0.0104115 0.00149045 -0.00757414
-0.00722011 0.00125843 -0.00683812
-0.0204711 0.00164113 -0.00926383
-0.0284442 0.00130879 -0.00552753
-0.0247217 0.00304587 -0.00614415
-0.0282208 0.00264674 -0.0055002
-0.00956761 -0.00309486 -0.003134
-0.0174548 -5.02175e-06 -0.00354388
-0.0253915 -0.00313318 -0.00311496
-0.0175445 -0.00356618 -3.6681e-05
-0.0289233 -0.00267865 -0.00271021
-0.0284678 -0.0055136 1.71024e-05
-0.00789861 -0.00393666 -0.00682647
-0.00768587 -0.00531538 -0.00542782
-0.0115786 -0.00586117 -0.00736052
-0.00457867 -0.00425708 -0.00439275
-0.0175018 -0.0074555 -0.00744003
-0.0201329 -0.00861333 -0.00613031
-0.0201581 -0.00739456 -0.00735335
-0.0339712 0.0005932 -0.00189232
-0.0341259 0.000564337 -0.00120124
-0.035 0 0
-0.035 0 0
-0.0331786 -0.00105712 -0.00381685
-0.0210886 0.00649081 -0.0032645
-0.0173681 0.00490912 -0.00646911
-0.020871 0.00478697 -0.00641688
-0.020787 0.0078448 -0.00319889
-0.035 0 0
-0.0237729 -0.004447 -0.00742438
-0.0240105 -0.00598467 -0.00597272
-0.0204524 -0.00754688 -0.00613249
-0.0144725 0.00913223 0.00318499
-0.00741397 0.006842 0.00262903
-0.0104436 0.00761755 0.00154067
-0.00724034 0.00681071 0.00129628
-0.0107222 -0.00757401 -0.00303851
-0.0100552 -0.00460635 -0.00465643
-0.0270268 -0.00396126 -0.00692041
-0.0306034 -0.000907727 -0.00570453
-0.035 0 0
-0.0320296 -0.00529282 -0.00123564
-0.023401 -0.00582172 0.00726522
-0.0270387 -0.00395475 0.00686117
-0.0233498 -0.00304671 0.00868251
-0.0238153 -0.00443047 0.00740969
-0.035 0 0
-0.032983 -0.00363883 -0.00177395
-0.0331467 -0.00365862 -0.00108562
-0.0314229 -0.00445365 -0.000982438
-0.0319616 -0.00204895 -0.0021227
-0.0341104 -0.00121568 -0.00116073
-0.0317397 -0.00208335 -0.00326341
-0.0312703 -0.00205743 -0.0044274
-0.0339887 1.71937e-05 -0.00192325
-0.0320237 -0.00535684 0.00121896
-0.035 0 0
-0.0331184 -0.00375221 0.00108242
-0.0104278 -0.00455547 -0.00613937
-0.0109081 -0.0059911 -0.00606661
-0.01071 -0.00297704 -0.00758898
-0.024486 -0.00612423 -0.00449906
-0.0247839 -0.00615423 -0.00301137
-0.0279355 -0.00550315 -0.00403547
-0.0234699 -0.00877085 -0.00154377
-0.020971 -0.00640802 -0.00479212
-0.0175554 -0.0064985 -0.00488373
-0.0210533 -0.00327054 -0.00651381
-0.0207745 -0.00320288 -0.0078454
-0.0175347 -0.00477273 -0.00770614
-0.0206023 -0.0046994 -0.00767323
-0.0205022 -0.00166301 -0.00915741
-0.0339519 -0.00193156 0.000574141
-0.0339511 -0.00192744 1.90543e-06
-0.035 0 0
-0.0341218 -0.00122753 0.000558361
-0.0291193 -0.00696499 -0.00112665
-0.0332007 -0.00377114 -0.000574695
-0.0307668 -0.00574989 -0.000991479
-0.033174 -0.00386592 0.000551642
-0.0332889 -0.0039099 -1.72557e-05
-0.0307368 -0.00580365 0.00096491
-0.0291561 -0.00700619 0.00111956
-0.0336208 -0.00110753 -0.0026812
-0.0310102 -0.0031141 -0.00441778
-0.035 0 0
-0.0331421 9.14843e-06 -0.00379198
-0.0320921 0.000433627 -0.00539111
-0.0332099 0.000478132 -0.0037615
-0.0339253 -0.00183338 -0.00115601
-0.0338069 -0.00183723 -0.00187442
-0.0336845 -0.00262805 -0.00114329
-0.035 0 0
-0.0295318 -0.00422707 -0.00573178
-0.0305186 -0.00425693 -0.00438022
-0.0330843 -0.00173487 -0.00378767
-0.0332683 -0.00253687 -0.00268861
-0.035 0 0
-0.0316855 -0.00519974 -0.00260968
-0.0322266 -0.00358498 -0.00374488
-0.0327241 -0.00359404 -0.00264203

CELL_DATA 236
TENSORS stress float
-8267.65 159.717 -370.689
159.717 -2077.4 -4.52878
-370.689 -4.52878 -496.969

-6925.03 156.095 -82.0963
156.095 321.349 304.229
-82.0963 304.229 766.455

-9280.79 -1368.68 1557.8
-1368.68 -3359.65 -1375.66
1557.8 -1375.66 -4539.69

-8521.13 75.027 -184.152
75.027 -1724.5 12.4955
-184.152 12.4955 -1625.92

-8584.05 -1603.79 -1539.23
-1603.79 -3968.1 737.211
-1539.23 737.211 -4557.3

-8534.33 774.412 -1739.47
774.412 -5579.1 -322.353
-1739.47 -322.353 -3816.17

-8310.38 -522.437 -760.03
-522.437 -3894.71 90.9702
-760.03 90.9702 -3647.14

-7586.14 -174.971 -90.0221
-174.971 -354.808 18.9929
-90.0221 18.9929 -70.642

-8397.51 85.5575 201.207
85.5575 -1690.86 -115.929
201.207 -115.929 -1492.04

-7758.8 -289.284 -513.092
-289.284 -3632.46 54.8384
-513.092 54.8384 -3304.67

-6680.8 -178.301 138.453
-178.301 303.04 226.688
138.453 226.688 311.409

-8253.54 -593.007 -1843.38
-593.007 -5609.88 308.761
-1843.38 308.761 -3689.65

-8027.13 410.479 -417.506
410.479 -3066.77 -92.9755
-417.506 -92.9755 -1270.79

-8267.21 168.92 377.313
168.92 -2074.4 -10.4246
377.313 -10.4246 -499.043

-7711.72 -40.8934 194.44
-40.8934 450.771 -60.2872
194.44 -60.2872 -317.762

-6973.24 -217.752 -308.797
-217.752 572.224 -324.812
-308.797 -324.812 152.376

-6653 203.153 123.763
203.153 291.885 -224.73
123.763 -224.73 323.11

-8102.94 395.938 84.2011
395.938 -1622.43 86.0348
84.2011 86.0348 -3136.91

-8262.67 13.1366 -0.228819
13.1366 -209.989 -232.691
-0.228819 -232.691 -10.8733

-8608.13 -574.562 -633.855
-574.562 -2873.25 170.468
-633.855 170.468 -2092.42

-7016.69 186.897 262.542
186.897 529.034 -290.71
262.542 -290.71 134.213

-8507.56 835.855 -1741.49
835.855 -5558.09 -327.387
-1741.49 -327.387 -3941.19

-8617.33 239.984 -1766.62
239.984 -6096.09 -266.167
-1766.62 -266.167 -2496.2

-7232.52 -82.8815 335.907
-82.8815 -133.47 14.8129
335.907 14.8129 336.299

-8371.73 -12.3157 -2.40921
-12.3157 -611.828 -105.983
-2.40921 -105.983 -521.995

-9224.86 -1397 -1560.79
-1397 -3341.53 1356.18
-1560.79 1356.18 -4503.9

-6952.53 -104.171 122.764
-104.171 195.894 297.335
122.764 297.335 624.192

-8430.37 676.393 -385.766
676.393 -2940.3 -47.3765
-385.766 -47.3765 -3627.06

-8288.88 -293.638 -197.313
-293.638 -1231.77 -39.2708
-197.313 -39.2708 -1342.03

-8516.37 -1574.57 -1605.28
-1574.57 -3835.16 752.754
-1605.28 752.754 -4491.51

-8363.83 -369.046 -252.885
-369.046 -1813.73 -26.5945
-252.885 -26.5945 -2087.92

-7664.45 96.2947 44.0901
96.2947 -67.9668 -313.059
44.0901 -313.059 129.285

-8622.73 275.276 -1741.46
275.276 -6058.67 -283.299
-1741.46 -283.299 -2630.7

-8224.96 -71.508 -73.0812
-71.508 -628.295 -104.704
-73.0812 -104.704 -1016.54

-8537.55 -1589.65 1564.15
-1589.65 -3974.21 -738.732
1564.15 -738.732 -4562.17

-7037.79 196.735 -261.851
196.735 498.754 331.035
-261.851 331.035 80.9725

-8217.25 54.1799 65.8715
54.1799 -316.992 -124.159
65.8715 -124.159 -404.951

-7605.23 206.52 3.25414
206.52 -297.035 146.126
3.25414 146.126 487.238

-7274.92 9.29346 363.137
9.29346 -98.9994 -18.4166
363.137 -18.4166 306.192

-6651.69 227.652 119.831
227.652 279.02 -217.209
119.831 -217.209 331.318

-7742.89 -141.165 64.9969
-141.165 -172.441 278.462
64.9969 278.462 -26.024

-8207.12 -556.529 -384.221
-556.529 -2841.61 93.4395
-384.221 93.4395 -1536.54

-7240.37 -52.7141 -355.291
-52.7141 -114.349 -3.42009
-355.291 -3.42009 334.937

-8251.19 15.6052 -214.619
15.6052 -1476.54 71.6217
-214.619 71.6217 -1361.14

-8530.69 1601.44 -1545.37
1601.44 -3940.27 -727.7
-1545.37 -727.7 -4483.9

-9213.68 -1396.46 1564.92
-1396.46 -3343.68 -1355.21
1564.92 -1355.21 -4517.53

-7798.12 756.794 570.869
756.794 -5000.01 88.1559
570.869 88.1559 -5246.88

-8249.54 -153.313 371.032
-153.313 -2035.63 12.3909
371.032 12.3909 -540.534

-9215.75 1372.03 -1565.22
1372.03 -3364.82 -1299.2
-1565.22 -1299.2 -4490.14

-8594.72 785.84 1721.79
785.84 -5663.85 363.752
1721.79 363.752 -4033.27

-7791.72 12.4589 -122.847
12.4589 -324.296 -175.362
-122.847 -175.362 -484.795

-8443.34 546.397 -707.683
546.397 -2825.26 -193.947
-707.683 -193.947 -1958.3

-8520.44 1576.55 1562.34
1576.55 -3957.49 711.294
1562.34 711.294 -4522.9

-8349.46 -591.344 -1801.6
-591.344 -5663.76 289.163
-1801.6 289.163 -3847.96

-8690.92 -257.146 -1723.9
-257.146 -6295.89 133.873
-1723.9 133.873 -2616.12

-8622.92 262.025 1713.89
262.025 -6108.8 285.038
1713.89 285.038 -2611.57

-6903.65 143.098 114.656
143.098 303.306 -299.807
114.656 -299.807 722.011

-8261.36 -155.607 -387.524
-155.607 -2038.56 -3.9711
-387.524 -3.9711 -571.828

-7634.65 -119.669 181.213
-119.669 -127.277 -32.5932
181.213 -32.5932 -398.365

-8612.86 1677.33 -764.192
1677.33 -4158.91 -388.989
-764.192 -388.989 -5713.46

-8578.79 1798.97 -431.507
1798.97 -2451.08 -393.039
-431.507 -393.039 -5958.82

-8048.45 -151.405 -329.373
-151.405 -2093.81 53.4498
-329.373 53.4498 -1625.35

-8582.87 -1803.94 -431.373
-1803.94 -2449.33 392.246
-431.373 392.246 -5936.95

-8285 226.238 -21.5539
226.238 -1450.38 -27.7406
-21.5539 -27.7406 -1446.28

-8050.88 434.479 365.835
434.479 -3111.39 123.99
365.835 123.99 -1381.67

-8131.74 -385.077 -79.8567
-385.077 -1630.86 102.742
-79.8567 102.742 -3150.43

-8205.16 -568.478 391.29
-568.478 -2832.26 -109.383
391.29 -109.383 -1539.1

-8244.24 278.754 345.663
278.754 -1856.1 -72.2421
345.663 -72.2421 -2095.01

-8556.93 1792.26 455.389
1792.26 -2438.93 377.613
455.389 377.613 -5929.55

-8452.96 1672.94 813.178
1672.94 -4001.96 358.974
813.178 358.974 -5507.23

-7600.44 171.502 -77.6286
171.502 -356.038 -11.2339
-77.6286 -11.2339 -67.5195

-8026.43 442.877 -380.588
442.877 -3070.39 -65.8806
-380.588 -65.8806 -1391.01

-8431.6 563.307 690.74
563.307 -2756.65 230.429
690.74 230.429 -1955.73

-9230.45 1358.16 1559.64
1358.16 -3380.33 1291.77
1559.64 1291.77 -4530.5

-8592.79 -585.68 618.152
-585.68 -2868.25 -205.254
618.152 -205.254 -2139.33

-8260.99 167.098 -383.067
167.098 -2083.09 4.1905
-383.067 4.1905 -521.287

-7880.45 57.4889 101.565
57.4889 75.9547 -200.204
101.565 -200.204 -291.834

-8318.35 -1627.89 -799.29
-1627.89 -3635.83 361.979
-799.29 361.979 -5241.41

-7566.49 495.705 395.238
495.705 -3126.23 91.3939
395.238 91.3939 -3269.14

-8627.58 -552.591 -616.661
-552.591 -2868.25 211.685
-616.661 211.685 -2138.74

-7254.94 35.9859 349.069
35.9859 -93.7625 -21.0406
349.069 -21.0406 296.471

-6696.11 -188.153 158.996
-188.153 244.812 184.845
158.996 184.845 308.899

-8167.9 -110.46 360.324
-110.46 -2076.45 43.2033
360.324 43.2033 -1585.02

-8426.77 -206.621 279.547
-206.621 -2679.85 -10.5444
279.547 -10.5444 -2374.04

-8460.05 -578.907 1790.53
-578.907 -5758 -307.667
1790.53 -307.667 -3923.67

-8652.48 223.255 1704.63
223.255 -6112.13 239.129
1704.63 239.129 -2568.54

-8155.38 -148.112 -318.331
-148.112 -2158.13 -59.1927
-318.331 -59.1927 -1773.37

-7547.01 -198.821 -61.9014
-198.821 -97.8441 56.1944
-61.9014 56.1944 701.736

-7644.25 -134.579 -165.386
-134.579 -110.092 21.3608
-165.386 21.3608 -406.628

-8704.66 -1673.78 -756.444
-1673.78 -4229.13 388.228
-756.444 388.228 -5798.03

-8489.05 1675.25 -772.613
1675.25 -3925.44 -334.914
-772.613 -334.914 -5486.14

-8752.22 -1731.08 447.239
-1731.08 -2502.29 -344.128
447.239 -344.128 -6116.59

-8051.44 -76.0459 33.6647
-76.0459 -564.49 194.541
33.6647 194.541 -874.015

-8110.88 -391.005 92.8358
-391.005 -1621.7 -76.7603
92.8358 -76.7603 -3131.36

-6671.47 213.579 -139.613
213.579 274.297 223.735
-139.613 223.735 342.264

-8435.66 -1676.06 836.055
-1676.06 -3991.59 -365.157
836.055 -365.157 -5490.06

-7035.62 171.199 -284.112
171.199 512.183 308.872
-284.112 308.872 129.866

-7595.13 -49.4696 -170.874
-49.4696 639.063 59.9259
-170.874 59.9259 -148.604

-7751.75 -57.7715 -118.188
-57.7715 -347.149 192.959
-118.188 192.959 -478.429

-8212.66 -236.984 187.729
-236.984 -1117.66 90.7767
187.729 90.7767 -1591.12

-9245.89 -1381.3 -1560.36
-1381.3 -3324.75 1370.97
-1560.36 1370.97 -4540.5

-7165.22 -89.886 -500.678
-89.886 1225.99 -156.747
-500.678 -156.747 475.425

-8695.2 -240.316 1715.12
-240.316 -6317.14 -163.722
1715.12 -163.722 -2589.82

-6663.45 -204.145 -141.521
-204.145 284.684 -235.066
-141.521 -235.066 351.459

-8550.27 -1789.58 474.162
-1789.58 -2445.93 -380.079
474.162 -380.079 -5922.89

-6675.09 -203.602 -143.926
-203.602 265.947 -195.926
-143.926 -195.926 346.566

-8229.84 -2.77361 -21.9969
-2.77361 -262.37 224.317
-21.9969 224.317 -575.693

-8251.55 53.9693 -38.0677
53.9693 -341.845 76.4134
-38.0677 76.4134 -368.272

-7577.05 -235.098 -131.342
-235.098 208.396 -295.555
-131.342 -295.555 1039.67

-7589.31 184.944 107.883
184.944 -354.383 25.7334
107.883 25.7334 -146.432

-7690.77 26.3004 -129.056
26.3004 586.983 266.142
-129.056 266.142 163.295

-7683.19 148.524 -146.131
148.524 -48.9217 321.554
-146.131 321.554 139.517

-8301.15 2.64609 6.13525
2.64609 -274.355 211.909
6.13525 211.909 -84.101

-8482.39 -45.1875 198.767
-45.1875 -1727.31 55.2189
198.767 55.2189 -1556.09

-8130.49 -178.552 261.154
-178.552 -1305.07 104.035
261.154 104.035 -956.5

-7625.38 -489.737 426.679
-489.737 -3225.6 -86.6343
426.679 -86.6343 -3308.22

-8287.29 -237.041 19.0629
-237.041 -1415.88 27.9554
19.0629 27.9554 -1425.89

-8447.85 -736.598 633.651
-736.598 -3813.9 -125.523
633.651 -125.523 -3846.07

-8182.79 -279.051 331.932
-279.051 -1794.34 99.1585
331.932 99.1585 -1967.39

-7729.64 -16.1715 202.193
-16.1715 464.979 -59.5472
202.193 -59.5472 -290.55

-8640.21 -263.212 -1765.48
-263.212 -6299.58 161.38
-1765.48 161.38 -2473.54

-7276.11 -31.1067 286.494
-31.1067 -139.992 26.0425
286.494 26.0425 329.997

-8260.2 -134.452 375.025
-134.452 -2028.53 3.7104
375.025 3.7104 -520.832

-7051.12 191.132 238.563
191.132 482.873 -291.95
238.563 -291.95 159.183

-8188.8 -576.545 -398.753
-576.545 -2906.44 133.505
-398.753 133.505 -1572.41

-8614.98 536.945 -653.143
536.945 -2853.29 -201.044
-653.143 -201.044 -2074.44

-9272.75 1356.94 -1547.99
1356.94 -3368.13 -1312.42
-1547.99 -1312.42 -4507.75

-8451.23 1569.5 -1545.59
1569.5 -3829.35 -720.315
-1545.59 -720.315 -4422.67

-6906.58 -133.874 -89.7116
-133.874 305.215 -314.687
-89.7116 -314.687 755.848

-8189.09 290.242 334.582
290.242 -1961.03 -2.18709
334.582 -2.18709 -1686.48

-8130.36 165.88 203.513
165.88 -1385.99 -115.367
203.513 -115.367 -1175.29

-8092.65 -49.5091 -1.69012
-49.5091 236.653 -229.993
-1.69012 -229.993 -164.629

-7571.56 52.7095 -173.108
52.7095 -133.059 -29.8483
-173.108 -29.8483 -401.647

-7572.24 -20.7947 -212.113
-20.7947 568.634 -108.662
-212.113 -108.662 -186.055

-8426.67 -4.51783 237.184
-4.51783 -1643.48 -77.8549
237.184 -77.8549 -1725.9

-8391.65 739.524 645.178
739.524 -3679.01 111.279
645.178 111.279 -3830.52

-6909.54 126.892 115.075
126.892 296.585 -273.275
115.075 -273.275 626.467

-7061.49 -158.821 -291.18
-158.821 553.541 -309.278
-291.18 -309.278 131.803

-7049.15 -190.885 282.719
-190.885 597.82 289.605
282.719 289.605 132.324

-7551.8 -157.062 270.62
-157.062 523.961 324.149
270.62 324.149 254.967

-7514.16 -63.8803 183.118
-63.8803 1146.48 268.079
183.118 268.079 -226.396

-6981.27 -207.307 302.519
-207.307 542.129 292.156
302.519 292.156 125.692

-7548.66 -177.322 117.813
-177.322 346.883 296.074
117.813 296.074 1072.62

-7826.28 -47.0522 50.4682
-47.0522 728.338 406.344
50.4682 406.344 626.201

-7672.74 -163.33 -139.817
-163.33 0.755324 -293.605
-139.817 -293.605 98.4886

-7583.8 -180.094 99.1742
-180.094 -359.85 -25.0857
99.1742 -25.0857 -128.998

-8148.99 -444.339 26.2133
-444.339 -1699.02 -83.2753
26.2133 -83.2753 -3212.43

-8672.55 -5.40474 -9.22431
-5.40474 -384.395 -138.54
-9.22431 -138.54 -387.835

-7731.82 252.98 40.0024
252.98 346.845 -178.772
40.0024 -178.772 955.917

-7832.56 -3.44312 99.5975
-3.44312 -389.251 -193.873
99.5975 -193.873 -459.934

-7424.94 100.842 95.2175
100.842 762.872 -467.346
95.2175 -467.346 475.411

-7588.43 183.354 -44.491
183.354 -165.861 -110.95
-44.491 -110.95 661.249

-8271.5 -138.533 -379.233
-138.533 -2040.91 15.8772
-379.233 15.8772 -520.163

-8110.16 392.004 -86.8027
392.004 -1618.78 -95.8099
-86.8027 -95.8099 -3161.69

-8197.05 -80.4869 43.892
-80.4869 -353.024 141.39
43.892 141.39 -268.114

-7951.73 -75.6256 -159.155
-75.6256 -708.321 33.8218
-159.155 33.8218 -442.789

-8307.62 46.7906 -137.367
46.7906 -1140.69 134.53
-137.367 134.53 -822.922

-8306.82 179.028 -201.076
179.028 -1823.04 61.8243
-201.076 61.8243 -1377.65

-8361.61 577.427 -739.351
577.427 -3050.9 -96.6894
-739.351 -96.6894 -2667.4

-8310.75 348.394 -270.638
348.394 -1814.03 25.8958
-270.638 25.8958 -2079.65

-8191.88 -456.37 -17.2965
-456.37 -1661.22 42.7361
-17.2965 42.7361 -3236.92

-7552.13 99.1352 85.9343
99.1352 360.705 -351.111
85.9343 -351.111 1149.95

-8678.15 -1730.72 -467.154
-1730.72 -2366.29 364.329
-467.154 364.329 -6003.17

-8662.24 -537.32 613.554
-537.32 -2925.67 -187.694
613.554 -187.694 -2206.26

-8510.4 -192.055 -88.4589
-192.055 -1606.56 -52.4799
-88.4589 -52.4799 -1721.09

-8001.05 415.325 393.441
415.325 -2996.99 98.1266
393.441 98.1266 -1203.1

-8291.86 -585.894 603.337
-585.894 -3386.01 -123.05
603.337 -123.05 -2847.76

-8483.17 -187.369 105.915
-187.369 -1530.67 7.05509
105.915 7.05509 -1650.92

-7231.68 16.2336 -331.852
16.2336 -28.4141 26.8872
-331.852 26.8872 372.078

-7240.93 20.775 -369.424
20.775 -80.8074 23.2587
-369.424 23.2587 293.982

-8276.23 18.6912 0.11355
18.6912 -95.4328 227.151
0.11355 227.151 -253.686

-8463.74 -1564.73 1575.9
-1564.73 -3771.87 -766.221
1575.9 -766.221 -4418.7

-7306.2 -4.96935 -294.139
-4.96935 -168.911 -31.6613
-294.139 -31.6613 310.08

-7381.76 252.258 -52.667
252.258 141.068 206.108
-52.667 206.108 1283.51

-8312.61 -514.909 -770.014
-514.909 -4041.17 119.648
-770.014 119.648 -3617.15

-8684.59 1.00454 1.52636
1.00454 -422.862 123.62
1.52636 123.62 -411.464

-8151.21 -608.123 393.509
-608.123 -2865.42 -144.429
393.509 -144.429 -1551.45

-8315.25 -589.913 1800.11
-589.913 -5630.16 -286.679
1800.11 -286.679 -3775.48

-7470.76 335.143 -193.7
335.143 509.928 322.04
-193.7 322.04 612.683

-8694.59 10.1865 6.4966
10.1865 -430.203 125.047
6.4966 125.047 -405.075

-8276.87 165.179 388.139
165.179 -2083.57 0.73639
388.139 0.73639 -528.945

-8508.01 -1623.16 777.332
-1623.16 -3864.44 -346.891
777.332 -346.891 -5454.5

-7393.33 130.721 -99.8952
130.721 -182.147 272.883
-99.8952 272.883 1052.55

-6653.31 214.832 -134.587
214.832 273.045 231.269
-134.587 231.269 349.477

-8518.13 -183.936 -77.8858
-183.936 -1672.92 -35.1435
-77.8858 -35.1435 -1705.42

-8351.57 -773.877 529.558
-773.877 -2794.11 -83.3476
529.558 -83.3476 -3023.64

-8212.36 256.677 -204.261
256.677 -2168.83 -7.25529
-204.261 -7.25529 -2436.25

-8249.47 1041.82 -911.538
1041.82 -5044 -114.04
-911.538 -114.04 -5370.76

-6872.82 124.51 -107.843
124.51 310.626 250.545
-107.843 250.545 743.139

-8304.02 -471.803 -318.904
-471.803 -1887.97 -65.7915
-318.904 -65.7915 -2085.98

-7826.65 -48.0991 107.953
-48.0991 -354.989 155.249
107.953 155.249 -484.976

-7689.48 -104.307 50.4592
-104.307 140.139 277.444
50.4592 277.444 616.221

-7617.34 -111.956 164.59
-111.956 -96.7778 -37.9631
164.59 -37.9631 -383.128

-7616.05 34.3158 195.776
34.3158 -240.764 46.1617
195.776 46.1617 -472.3

-8488.86 212.059 -58.3984
212.059 -1614.77 78.7845
-58.3984 78.7845 -1730.27

-8157.95 277.667 -179.109
277.667 -1068.53 136.185
-179.109 136.185 -1308.31

-7698.05 422.319 -494.978
422.319 -3374.63 -62.6578
-494.978 -62.6578 -3232.07

-8397.08 623.877 -732.991
623.877 -3804.61 -110.506
-732.991 -110.506 -3734.1

-8075.09 309.337 -294.368
309.337 -1874.06 79.5844
-294.368 79.5844 -1679.71

-7878.02 -306.311 -530.617
-306.311 -3634.94 60.328
-530.617 60.328 -3400.51

-8019.23 -125.453 -113.509
-125.453 -597.451 106.3
-113.509 106.3 -869.407

-8324.3 -661.772 1075.1
-661.772 -5756.4 -136.842
1075.1 -136.842 -5103.6

-8544.75 636.208 163.876
636.208 -2932.36 -21.9947
163.876 -21.9947 -3861.98

-6928.08 -127.306 139.675
-127.306 266.206 259.329
139.675 259.329 606.621

-7499.94 -0.732642 250.007
-0.732642 616.607 123.562
250.007 123.562 64.623

-7885.25 -50.1699 -81.1613
-50.1699 259.294 119.404
-81.1613 119.404 -375.256

-8673.44 6.50122 -7.02516
6.50122 -391.286 -109.207
-7.02516 -109.207 -411.933

-8484.67 90.4894 79.5801
90.4894 -1312.15 -51.9754
79.5801 -51.9754 -1307.38

-7766.39 -29.9544 65.0783
-29.9544 -346.45 -199.847
65.0783 -199.847 -458.109

-6919.65 -155.141 -93.1246
-155.141 248.449 -258.668
-93.1246 -258.668 622.925

-7554.11 -333.506 768.158
-333.506 -5090.77 -44.458
768.158 -44.458 -4643.68

-8401.59 781.129 1726.84
781.129 -5429.32 348.299
1726.84 348.299 -3732.64

-7770.65 50.3625 -62.0024
50.3625 745.169 413.766
-62.0024 413.766 840.828

-8440.76 1546 1540.66
1546 -3878.67 736.116
1540.66 736.116 -4408.22

-7514.25 -164.126 -275.967
-164.126 557.606 -355.954
-275.967 -355.954 272.857

-7636.62 -187.159 20.1365
-187.159 -317.93 -145.8
20.1365 -145.8 433.221

-7986.3 43.995 5.77659
43.995 94.9928 -293.3
5.77659 -293.3 357.728

-8279.05 217.5 196.03
217.5 -1879.8 -117.157
196.03 -117.157 -1365.89

-8570.59 1725.49 454.499
1725.49 -2434.62 350.633
454.499 350.633 -5942.44

-7239.88 -110.266 462.523
-110.266 1052.59 166.63
462.523 166.63 343.945

-8372.39 1633.33 780.112
1633.33 -3852.2 337.719
780.112 337.719 -5381.68

-8452.59 243.265 234.517
243.265 -1892.55 -39.1314
234.517 -39.1314 -2015.48

-8643.46 289.831 628.739
289.831 -3930.3 2.42845
628.739 2.42845 -3514

-8592.51 1779.47 -442.742
1779.47 -2458.59 -351.682
-442.742 -351.682 -5959.17

-7723.12 46.9318 137.905
46.9318 561.429 -281.794
137.905 -281.794 53.9045

-7756.72 -316.756 -45.7547
-316.756 159.054 -113.937
-45.7547 -113.937 746.219

-7814.31 -28.556 -81.6213
-28.556 676.909 -452.976
-81.6213 -452.976 506.75

-7318.49 -65.4295 -212.091
-65.4295 1505.9 -288.902
-212.091 -288.902 82.2506

-7714.18 762.991 -343.914
762.991 -4820.3 -52.6893
-343.914 -52.6893 -5262.13

-8004.31 445.011 58.3701
445.011 -1607.43 17.8127
58.3701 17.8127 -3087.24

-8055.93 438.866 -73.0863
438.866 -1745.17 -101.235
-73.0863 -101.235 -3143.11

-8443.4 581.51 724.835
581.51 -3223.23 83.1005
724.835 83.1005 -2834.09

-8692.22 -264.537 1703.75
-264.537 -6342.57 -156.392
1703.75 -156.392 -2578.99

-8475.88 1029.93 882.954
1029.93 -5295.93 173.518
882.954 173.518 -5590.83

-8584.09 539.5 659.499
539.5 -2833.37 227.036
659.499 227.036 -2054.91

-9283.86 1347.44 1545.38
1347.44 -3368.49 1323.63
1545.38 1323.63 -4543.09

