# vtk DataFile Version 3.0
vtk output at time 1
ASCII
DATASET UNSTRUCTURED_GRID
POINTS 1524 float
0 0 0 0 0 0.05 0 0 0.1 
0 0 0.15 0 0 0.2 0 0.05 0 
0 0.05 0.05 0 0.05 0.1 0 0.05 0.15 
0 0.05 0.2 0 0.1 0 0 0.1 0.05 
0 0.1 0.1 0 0.1 0.15 0 0.1 0.2 
0 0.15 0 0 0.15 0.05 0 0.15 0.1 
0 0.15 0.15 0 0.15 0.2 0 0.2 0 
0 0.2 0.05 0 0.2 0.1 0 0.2 0.15 
0 0.2 0.2 0.0333274 -0.00950905 -0.0102608 0.0365751 -0.0104174 0.0445787 
0.0378413 -0.0103482 0.100056 0.0367551 -0.010404 0.155426 0.0333744 -0.00959297 0.210209 
0.0366377 0.044745 -0.0104766 0.0365768 0.044693 0.210529 0.0381209 0.100031 -0.0106806 
0.0380486 0.100054 0.210705 0.0367874 0.155244 -0.0103619 0.0366333 0.155334 0.21043 
0.0334952 0.20954 -0.0101835 0.0366522 0.210463 0.0445951 0.0378418 0.210423 0.100023 
0.0367385 0.210487 0.155378 0.0334489 0.209696 0.210103 0.0750618 -0.0113386 -0.0113035 
0.074958 -0.0117741 0.0434845 0.0749277 -0.0128248 0.0999863 0.074671 -0.0119379 0.156512 
0.0750836 -0.0113058 0.211342 0.0751882 0.0433857 -0.0116429 0.0751685 0.043456 0.211726 
0.0749872 0.100048 -0.0130143 0.0751048 0.0999795 0.212931 0.0745517 0.1567 -0.0118253 
0.0746626 0.156474 0.211751 0.0750685 0.21139 -0.0112376 0.0750614 0.21177 0.0434921 
0.0751965 0.212848 0.100011 0.0748938 0.211928 0.156516 0.0751087 0.211287 0.211388 
0.11658 -0.00959481 -0.0102019 0.113689 -0.0106954 0.0446381 0.112027 -0.0107802 0.100067 
0.113413 -0.0105631 0.155505 0.116557 -0.0095463 0.210218 0.113742 0.0446617 -0.0107135 
0.113671 0.0447137 0.210575 0.111757 0.100087 -0.0108986 0.111755 0.100109 0.210778 
0.113511 0.155398 -0.0104874 0.113364 0.155338 0.21046 0.116685 0.209618 -0.0101922 
0.113713 0.210649 0.0445518 0.112094 0.210639 0.100044 0.113461 0.210712 0.155337 
0.116677 0.209633 0.21018 0.15 0 0 0.15 0 0.05 
0.15 0 0.1 0.15 0 0.15 0.15 0 0.2 
0.15 0.05 0 0.15 0.05 0.05 0.15 0.05 0.1 
0.15 0.05 0.15 0.15 0.05 0.2 0.15 0.1 0 
0.15 0.1 0.05 0.15 0.1 0.1 0.15 0.1 0.15 
0.15 0.1 0.2 0.15 0.15 0 0.15 0.15 0.05 
0.15 0.15 0.1 0.15 0.15 0.15 0.15 0.15 0.2 
0.15 0.2 0 0.15 0.2 0.05 0.15 0.2 0.1 
0.15 0.2 0.15 0.15 0.2 0.2 0 0 0.0166667 
0 0 0.0333333 0 0.0166667 0 0 0.0333333 0 
0.00445667 -0.00561595 -0.00677937 0.018187 -0.00841949 -0.00849228 0.0103667 -0.00702149 0.0116075 
0.0222642 -0.00859442 0.027479 0 0 0.0666667 0 0 0.0833333 
0 0.0166667 0.0333333 0 0.0333333 0.0166667 0 0.0166667 0.05 
0 0.0333333 0.05 0 0.0166667 0.0666667 0 0.0333333 0.0833333 
0.0119594 -0.00707458 0.0475836 0.0236549 -0.00893071 0.0458589 0 0 0.116667 
0 0 0.133333 0 0.0166667 0.1 0 0.0333333 0.1 
0.0122831 -0.00700121 0.0825745 0.0242619 -0.0087084 0.0639967 0.0131145 -0.00659625 0.100065 
0.0252658 -0.00893165 0.100065 0.012336 -0.00694623 0.11754 0.0243725 -0.00863713 0.136076 
0 0 0.166667 0 0 0.183333 0 0.0166667 0.133333 
0 0.0333333 0.116667 0 0.0166667 0.15 0 0.0333333 0.15 
0 0.0166667 0.166667 0 0.0333333 0.183333 0.0120375 -0.00699432 0.152403 
0.0237667 -0.00886534 0.154156 0 0.0166667 0.2 0 0.0333333 0.2 
0.0104019 -0.00703641 0.188334 0.0223588 -0.0085806 0.172487 0.00450364 -0.00567348 0.206721 
0.0182391 -0.0084926 0.208421 0 0.05 0.0166667 0 0.05 0.0333333 
0 0.0666667 0 0 0.0833333 0 0 0.0666667 0.0166667 
0 0.0833333 0.0333333 0.0095028 0.0303449 -0.00686999 0.0205902 0.00955792 -0.00888873 
0.0130231 0.0297255 0.0114127 0.024862 0.00946128 0.0273261 0.0118789 0.0478338 -0.00685282 
0.0239885 0.0460803 -0.00931263 0.0124594 0.0657652 -0.00700311 0.0247792 0.0821568 -0.00897112 
0 0.05 0.0666667 0 0.05 0.0833333 0 0.0666667 0.05 
0 0.0833333 0.05 0.0143261 0.0297015 0.0475453 0.0262014 0.00934685 0.0458091 
0.0140853 0.0475372 0.0296314 0.0258582 0.0459001 0.00920524 0.0146954 0.0651628 0.0296562 
0.0272396 0.08205 0.00931338 0.027228 0.0276658 0.0457264 0.0505809 0.00673759 0.0438666 
0.0279703 0.0275761 0.0639131 0.0515878 0.0065659 0.0812763 0.0273513 0.0457968 0.0274489 
0.0506721 0.0439798 0.0066314 0.0280971 0.0638624 0.0274963 0.051709 0.0813521 0.00658218 
0 0.05 0.116667 0 0.05 0.133333 0 0.0666667 0.0833333 
0 0.0833333 0.0666667 0 0.0666667 0.1 0 0.0833333 0.1 
0 0.0666667 0.116667 0 0.0833333 0.133333 0.0147554 0.0297833 0.0826417 
0.0268501 0.00927555 0.0639125 0.0148357 0.0297538 0.100049 0.0270832 0.00944671 0.100047 
0.0148129 0.0297972 0.117473 0.0269845 0.00930476 0.136185 0.0285436 0.0276424 0.100014 
0.0520003 0.00650923 0.10007 0.0283722 0.0275945 0.118082 0.0515069 0.00664402 0.137449 
0.0290367 0.06387 0.063883 0.0526325 0.0813371 0.0251329 0 0.05 0.166667 
0 0.05 0.183333 0 0.0666667 0.15 0 0.0833333 0.15 
0.0143989 0.0297433 0.152564 0.0263799 0.00939431 0.154249 0.0141069 0.0475171 0.170405 
0.0258365 0.0458581 0.190849 0.0146293 0.0651261 0.170393 0.0271196 0.0820396 0.190753 
0.0276636 0.0275927 0.154391 0.0508666 0.00681274 0.156084 0.0273693 0.0457718 0.172596 
0.050602 0.0439453 0.193414 0.0279282 0.0638582 0.172545 0.0515355 0.0812687 0.19348 
0 0.0666667 0.183333 0 0.0833333 0.166667 0 0.0666667 0.2 
0 0.0833333 0.2 0.0130274 0.0296837 0.188622 0.0249759 0.00945882 0.172668 
0.00949178 0.0302694 0.206898 0.020621 0.00947621 0.208864 0.0118448 0.0477735 0.206881 
0.0239376 0.0460166 0.209358 0.012391 0.0657267 0.207051 0.0246729 0.0821537 0.209028 
0 0.1 0.0166667 0 0.1 0.0333333 0 0.116667 0 
0 0.133333 0 0.0121274 0.100105 -0.0070868 0.0245005 0.0999516 -0.00849544 
0 0.1 0.0666667 0 0.1 0.0833333 0 0.116667 0.0333333 
0 0.133333 0.0166667 0 0.116667 0.05 0 0.133333 0.05 
0 0.116667 0.0666667 0 0.133333 0.0833333 0.0148397 0.100032 0.0297313 
0.0274292 0.100027 0.00926593 0.0147461 0.117507 0.0297113 0.0268523 0.136081 0.0092929 
0.028595 0.100023 0.0274792 0.0521227 0.100012 0.00654085 0.028389 0.11805 0.0274732 
0.0515246 0.137347 0.00670035 0 0.1 0.116667 0 0.1 0.133333 
0 0.116667 0.1 0 0.133333 0.1 0.0293847 0.0640269 0.0999892 
0.0525642 0.0251716 0.0999909 0.0291092 0.0641435 0.117992 0.0522841 0.0251657 0.137433 
0.0292755 0.100015 0.0640359 0.0527631 0.100042 0.0251978 0.0296683 0.0999961 0.136003 
0.0525763 0.099994 0.174925 0.0291119 0.117998 0.0640716 0.0523727 0.137322 0.0252278 
0.0292583 0.117961 0.136001 0.0521854 0.137558 0.174852 0.0295127 0.136009 0.0999965 
0.052557 0.174867 0.099963 0.0291745 0.135949 0.117925 0.052247 0.174893 0.137427 
0.0546675 0.10003 0.099977 0.0954287 0.100012 0.100036 0 0.1 0.166667 
0 0.1 0.183333 0 0.116667 0.133333 0 0.133333 0.116667 
0 0.116667 0.15 0 0.133333 0.15 0 0.116667 0.166667 
0 0.133333 0.183333 0.0148546 0.100016 0.170168 0.027398 0.100043 0.190688 
0.0147704 0.117437 0.170197 0.0268087 0.136056 0.190709 0.0286023 0.0638627 0.154325 
0.0517374 0.0252332 0.156135 0.0285839 0.0999794 0.172439 0.0519584 0.100027 0.193559 
0.028388 0.118037 0.172438 0.0513573 0.137483 0.193381 0.0285712 0.136094 0.154239 
0.0517755 0.174819 0.156084 0 0.116667 0.2 0 0.133333 0.2 
0.0121075 0.100125 0.207092 0.0244472 0.0999731 0.2085 0 0.15 0.0166667 
0 0.15 0.0333333 0 0.166667 0 0 0.183333 0 
0 0.166667 0.0166667 0 0.183333 0.0333333 0.0121706 0.134909 -0.00696428 
0.0246174 0.117933 -0.00879157 0.0125207 0.152182 -0.00676492 0.0245375 0.153965 -0.0092354 
0.00983934 0.169496 -0.0068299 0.0207722 0.190452 -0.00880536 0.0130711 0.17013 0.0113898 
0.0249483 0.190608 0.0273809 0 0.15 0.0666667 0 0.15 0.0833333 
0 0.166667 0.05 0 0.183333 0.05 0.0143794 0.152543 0.0296306 
0.026393 0.154176 0.00928206 0.0143538 0.170319 0.0475509 0.0262598 0.190704 0.0458381 
0.0276682 0.154291 0.0275136 0.0508919 0.155952 0.00683552 0.0274306 0.172454 0.0457243 
0.0507235 0.193271 0.0439356 0.0280405 0.172506 0.063882 0.0515837 0.1934 0.0812692 
0 0.15 0.116667 0 0.15 0.133333 0 0.166667 0.0833333 
0 0.183333 0.0666667 0 0.166667 0.1 0 0.183333 0.1 
0 0.166667 0.116667 0 0.183333 0.133333 0.01476 0.170262 0.0826218 
0.0268789 0.190794 0.063899 0.0148358 0.170317 0.100012 0.0270605 0.190649 0.100018 
0.0147886 0.170258 0.11742 0.0269338 0.19079 0.136153 0.028642 0.154292 0.0638324 
0.0518332 0.156003 0.0252726 0.0285525 0.172457 0.0999985 0.051947 0.193501 0.100052 
0.0283232 0.172484 0.118039 0.0514471 0.193412 0.13743 0 0.15 0.166667 
0 0.15 0.183333 0 0.166667 0.15 0 0.183333 0.15 
0.0143367 0.152491 0.170382 0.0262743 0.154184 0.190776 0.0143815 0.170279 0.15252 
0.026326 0.190681 0.154207 0.0275089 0.154267 0.17251 0.0506875 0.156124 0.193265 
0.0277235 0.172523 0.154315 0.0508772 0.19326 0.156031 0 0.166667 0.183333 
0 0.183333 0.166667 0 0.166667 0.2 0 0.183333 0.2 
0.0121399 0.134895 0.206971 0.0245461 0.117946 0.208774 0.0124555 0.152194 0.206804 
0.0244128 0.154004 0.209287 0.0130637 0.170142 0.188626 0.0249849 0.190607 0.172613 
0.00979997 0.169534 0.206847 0.0207245 0.190539 0.208787 0 0.2 0.0166667 
0 0.2 0.0333333 0.00458965 0.205466 -0.00681498 0.018293 0.208419 -0.00841541 
0.0104294 0.206908 0.0115653 0.0222812 0.20863 0.0275107 0 0.2 0.0666667 
0 0.2 0.0833333 0.011932 0.207066 0.0475438 0.0236219 0.208944 0.0458889 
0 0.2 0.116667 0 0.2 0.133333 0.0122546 0.207041 0.0825336 
0.0242605 0.208756 0.0639903 0.0130698 0.206647 0.100026 0.0252334 0.209012 0.100028 
0.0122728 0.207011 0.117516 0.0242923 0.208724 0.136043 0 0.2 0.166667 
0 0.2 0.183333 0.01196 0.207032 0.152443 0.0236552 0.20892 0.154109 
0.010423 0.20693 0.188396 0.022295 0.208633 0.172448 0.00452641 0.20551 0.206767 
0.0182331 0.208503 0.208348 0.034272 -0.00981089 0.00794917 0.0352845 -0.0101082 0.0262845 
0.0343119 0.00818575 -0.0101091 0.0355531 0.0263753 -0.0102316 0.0470737 -0.0106813 -0.0108004 
0.0610955 -0.011219 -0.0111952 0.0479633 0.00728616 -0.0109074 0.0619879 0.02502 -0.0115645 
0.0375716 -0.0105383 0.0632476 0.0377215 -0.0104648 0.0816567 0.0370421 0.00797137 0.0261806 
0.0370434 0.0263442 0.00778291 0.0485802 -0.0110674 0.0253081 0.0614456 -0.0112804 0.00672106 
0.0491876 -0.0113978 0.0438434 0.0619893 -0.0118799 0.0435122 0.0498174 -0.0115632 0.0624983 
0.0625367 -0.0123303 0.0810622 0.0496444 0.00697696 0.0253252 0.062349 0.0250384 0.00645016 
0.0378003 -0.0104355 0.118434 0.037732 -0.0104912 0.136798 0.0503973 -0.0115821 0.10005 
0.0627338 -0.0124187 0.100035 0.0354058 -0.010109 0.173688 0.034352 -0.0098477 0.192006 
0.0372033 0.00795639 0.173808 0.0370856 0.026298 0.192254 0.0500792 -0.0115492 0.137452 
0.0627179 -0.0123486 0.118946 0.0492674 -0.0113698 0.156117 0.0618517 -0.0118674 0.156411 
0.0486963 -0.0110776 0.174673 0.0615094 -0.0112692 0.193289 0.0497937 0.00697667 0.174657 
0.062347 0.0250658 0.19359 0.0343435 0.008109 0.210097 0.0355452 0.026304 0.210267 
0.0471197 -0.0107322 0.210783 0.061134 -0.0112196 0.211213 0.047984 0.00723525 0.210921 
0.0619816 0.0250258 0.211617 0.0374166 0.063209 -0.0105303 0.0378744 0.0816419 -0.0105516 
0.0495318 0.0439285 -0.011486 0.0623607 0.043496 -0.0118797 0.0373101 0.0631753 0.210591 
0.0377511 0.0816318 0.210609 0.0494619 0.0438944 0.211539 0.0622978 0.0435003 0.211939 
0.0379615 0.118429 -0.0104802 0.0375284 0.136816 -0.0104488 0.0503502 0.0813475 -0.0116585 
0.0625613 0.0622891 -0.0120989 0.0504247 0.100035 -0.0117279 0.0626737 0.100066 -0.0124842 
0.0504883 0.118735 -0.0115789 0.0626388 0.137769 -0.0120687 0.0378594 0.118479 0.2105 
0.0374172 0.136866 0.210481 0.0502183 0.0813211 0.211709 0.0624589 0.0622741 0.21215 
0.0503324 0.100045 0.211756 0.0626448 0.100033 0.212489 0.0503632 0.118806 0.211663 
0.0625727 0.13783 0.212151 0.0357289 0.173713 -0.0101337 0.0344525 0.1919 -0.00999666 
0.0372863 0.173742 0.00790417 0.0372227 0.192141 0.0262622 0.049395 0.155998 -0.0113471 
0.0619816 0.156399 -0.0118639 0.0372173 0.173832 0.192125 0.03727 0.192182 0.173714 
0.0356183 0.173829 0.210164 0.0343794 0.192038 0.209985 0.0492688 0.156134 0.211427 
0.0619383 0.156487 0.211893 0.0343995 0.209881 0.00801411 0.0353909 0.210203 0.0263258 
0.0480859 0.192754 -0.0108184 0.0618902 0.17498 -0.0115064 0.0472121 0.210753 -0.0107158 
0.0611621 0.211278 -0.0111064 0.0376397 0.210596 0.0632375 0.037764 0.210528 0.0816303 
0.049822 0.193064 0.025429 0.0623669 0.174933 0.00653329 0.048758 0.211119 0.0253882 
0.0615775 0.211316 0.00682581 0.0493547 0.211464 0.0438759 0.0621323 0.211888 0.0435494 
0.0499595 0.211569 0.0625354 0.062686 0.212257 0.081106 0.0377797 0.210529 0.118405 
0.0376965 0.210601 0.13677 0.0504196 0.2116 0.100026 0.0628141 0.212388 0.100025 
0.0354158 0.21023 0.173608 0.0343726 0.20996 0.191905 0.0498551 0.193132 0.174566 
0.0622782 0.17498 0.193521 0.0500984 0.211624 0.137416 0.0627788 0.212307 0.118902 
0.0493993 0.211472 0.15605 0.0620907 0.211939 0.156367 0.0488006 0.211181 0.174575 
0.0616214 0.211342 0.193224 0.0480104 0.192894 0.210837 0.0618528 0.175027 0.21157 
0.0471692 0.210881 0.210679 0.0611814 0.211301 0.211155 0.0749872 -0.0114091 0.00671174 
0.0749635 -0.0115581 0.0250005 0.075079 0.00667079 -0.0113024 0.0751278 0.0248991 -0.0114553 
0.0889494 -0.0112819 -0.0110317 0.102864 -0.010741 -0.0106621 0.0885103 -0.0112854 0.00688853 
0.101393 -0.0110551 0.0254358 0.0749095 -0.01215 0.0621606 0.0748722 -0.012513 0.0810193 
0.0749157 0.00648932 0.0249927 0.0750027 0.0249775 0.00657773 0.0748983 0.0247733 0.0248127 
0.0750174 0.06223 0.00594692 0.0880008 -0.0117565 0.0436142 0.100938 -0.0113422 0.0439648 
0.0872176 0.0248896 0.0249385 0.0990864 0.0625974 0.00664079 0.0749927 -0.0125976 0.1189 
0.0750061 -0.012338 0.137781 0.074888 0.0242299 0.0620925 0.0750648 0.062043 0.0243092 
0.0750626 0.024365 0.137905 0.0749878 0.0621187 0.175695 0.0874401 -0.0121094 0.0810634 
0.10034 -0.0114393 0.0625285 0.0873388 -0.0123467 0.0999925 0.0996586 -0.0117179 0.100019 
0.0873039 -0.0123114 0.118888 0.100085 -0.0116274 0.1375 0.0863275 0.0245126 0.0622692 
0.098022 0.062561 0.0250851 0.0864683 0.0246241 0.137723 0.0979455 0.062601 0.174858 
0.0973848 0.0251856 0.100019 0.120479 0.0639727 0.100059 0.0975493 0.0251558 0.11874 
0.120803 0.0638259 0.13609 0.0749264 -0.0115435 0.175023 0.0750208 -0.0113556 0.193327 
0.074893 0.00649303 0.175069 0.0749933 0.0250517 0.193514 0.0749387 0.0248943 0.175361 
0.0749284 0.0622972 0.194158 0.0877416 -0.0116907 0.156437 0.10064 -0.0112586 0.156152 
0.0871834 0.0249547 0.17508 0.0990111 0.0626619 0.193322 0.0750739 0.00671646 0.211346 
0.0751192 0.0249558 0.211509 0.0885107 -0.0112128 0.19318 0.101292 -0.011004 0.174635 
0.0889527 -0.0111842 0.211112 0.102858 -0.0106456 0.210725 0.0750366 0.0620706 -0.0120037 
0.0750277 0.0809524 -0.0124378 0.0881531 0.0249858 -0.0114542 0.102016 0.00724999 -0.0107872 
0.0876805 0.0250494 0.00661024 0.100379 0.00695137 0.0254636 0.0878714 0.0434961 -0.0116774 
0.100808 0.043889 -0.0112449 0.0876602 0.0621741 -0.0119107 0.0997971 0.0811523 -0.0117023 
0.0750122 0.0621338 0.212089 0.0750121 0.0809896 0.212482 0.0876837 0.0251132 0.193417 
0.100335 0.00702264 0.174587 0.0881514 0.0250613 0.211488 0.102036 0.00733762 0.210819 
0.0878375 0.0435561 0.211722 0.100754 0.0439421 0.211256 0.0876234 0.0622403 0.211926 
0.0996648 0.0812025 0.211646 0.075063 0.118993 -0.0127299 0.0749594 0.137918 -0.0123161 
0.0753037 0.137936 0.0243303 0.0751715 0.175729 0.0621401 0.0872763 0.0999831 -0.0125395 
0.09946 0.0999897 -0.0118834 0.086597 0.137754 0.0245164 0.0980698 0.17495 0.0625311 
0.0974163 0.099976 0.0251199 0.120513 0.100005 0.0640394 0.0976004 0.118738 0.0251034 
0.120804 0.136114 0.0638677 0.0750714 0.118911 0.212609 0.0749719 0.137802 0.212185 
0.0749658 0.137925 0.175638 0.0751538 0.175697 0.137818 0.0750839 0.137743 0.194129 
0.0751845 0.175211 0.175201 0.0873037 0.0999901 0.212451 0.0994491 0.100016 0.211795 
0.0863197 0.137737 0.175421 0.0980694 0.174874 0.137439 0.0869639 0.137633 0.193927 
0.0994467 0.174686 0.174653 0.0972949 0.100003 0.174789 0.12066 0.0999786 0.135948 
0.0979852 0.10001 0.193433 0.121438 0.0999891 0.17251 0.0973646 0.118691 0.17488 
0.120923 0.136027 0.136089 0.0982685 0.118715 0.193383 0.121809 0.136063 0.172628 
0.0749509 0.175199 -0.0114866 0.0750806 0.193404 -0.0112812 0.0750023 0.175221 0.00655498 
0.075089 0.193596 0.0250572 0.0751062 0.175455 0.0249179 0.0750946 0.194207 0.0623139 
0.0876383 0.137849 -0.012117 0.0997661 0.118784 -0.0117218 0.0877837 0.156524 -0.0118629 
0.100737 0.156131 -0.0114255 0.0881276 0.174954 -0.0114328 0.102092 0.192795 -0.0108095 
0.0877024 0.174964 0.00653092 0.100526 0.193076 0.0254446 0.0872946 0.175146 0.0249014 
0.0991239 0.193412 0.062598 0.0986838 0.156152 0.025229 0.121324 0.15432 0.0638854 
0.0749486 0.175022 0.193499 0.0750262 0.193506 0.175073 0.0749471 0.174991 0.211434 
0.0750605 0.193247 0.211319 0.0875702 0.13779 0.212023 0.0996442 0.118747 0.21166 
0.0877098 0.156523 0.211786 0.100543 0.156153 0.211396 0.0877526 0.174887 0.193494 
0.100463 0.193081 0.174588 0.0880841 0.17493 0.211494 0.102092 0.192789 0.210846 
0.0994857 0.156104 0.193234 0.122507 0.154178 0.172607 0.075109 0.211411 0.00675687 
0.0751074 0.211562 0.0250271 0.0890045 0.211269 -0.0111014 0.102931 0.210791 -0.0106956 
0.0886135 0.211288 0.00683474 0.101431 0.211062 0.0254508 0.0750111 0.212099 0.0621747 
0.0750812 0.21247 0.0810477 0.0879264 0.211794 0.0435583 0.1007 0.211334 0.0438751 
0.0750649 0.212489 0.11887 0.0750344 0.212222 0.137746 0.0874383 0.212192 0.0810729 
0.100034 0.21156 0.0625603 0.087444 0.212423 0.100025 0.0996995 0.211732 0.100034 
0.0874601 0.21216 0.118933 0.100038 0.211506 0.137487 0.0975383 0.174817 0.100005 
0.120632 0.136013 0.10001 0.098223 0.193457 0.100013 0.12152 0.17257 0.100008 
0.075042 0.211554 0.175053 0.0750844 0.211378 0.193356 0.0877211 0.211731 0.156472 
0.100619 0.211326 0.156137 0.0885436 0.211243 0.193226 0.101362 0.211097 0.17463 
0.0889516 0.211194 0.211164 0.102927 0.210762 0.210718 0.115733 -0.00998191 0.00798341 
0.114817 -0.0103493 0.0263193 0.115735 0.00800492 -0.0100593 0.114547 0.0261823 -0.0102927 
0.131934 -0.00847729 -0.0083672 0.145649 -0.00552477 -0.00666656 0.129463 0.00948475 -0.00882594 
0.140312 0.0305313 -0.00682167 0.112719 -0.0108906 0.0632161 0.112235 -0.010853 0.0816688 
0.113036 0.00771944 0.0261527 0.113055 0.026147 0.00769491 0.111302 0.0261034 0.0260358 
0.111094 0.0632454 0.00753334 0.127853 -0.0085693 0.0275615 0.139569 -0.00690223 0.0116665 
0.126535 -0.0088665 0.0459698 0.13799 -0.00686319 0.0476332 0.125988 -0.00873182 0.064021 
0.137707 -0.00686141 0.0825469 0.125117 0.00945618 0.0274217 0.136915 0.0299363 0.0114271 
0.123597 0.00933554 0.0458726 0.135505 0.0298789 0.0475512 0.122885 0.00916464 0.063873 
0.135073 0.0298217 0.0825672 0.122386 0.0276464 0.0457275 0.134778 0.0650184 0.0475889 
0.121877 0.027618 0.0639698 0.134434 0.0652203 0.082583 0.112105 -0.0106642 0.11851 
0.112426 -0.0106817 0.136963 0.109544 0.0260243 0.0631336 0.10972 0.063135 0.0260582 
0.124772 -0.00914197 0.0999969 0.136881 -0.00658311 0.0999674 0.122694 0.00907806 0.100006 
0.135114 0.0296805 0.0999943 0.121671 0.02743 0.100013 0.134455 0.0651356 0.0999516 
0.12175 0.02743 0.118022 0.134634 0.0651207 0.134869 0.114681 -0.0102464 0.173756 
0.115671 -0.00991066 0.192048 0.113044 0.0078295 0.173874 0.113067 0.0262295 0.192262 
0.111405 0.0261645 0.173942 0.111054 0.0632076 0.192381 0.125879 -0.00881161 0.136028 
0.137729 -0.00695975 0.117403 0.126492 -0.008987 0.154076 0.138048 -0.00698594 0.152383 
0.127851 -0.00865511 0.172475 0.139635 -0.00694094 0.1884 0.122977 0.00906409 0.136116 
0.135177 0.0296922 0.117402 0.123716 0.00918582 0.154154 0.135591 0.0297949 0.152479 
0.125207 0.00936557 0.172615 0.136975 0.0299096 0.188585 0.122579 0.0274805 0.154217 
0.134861 0.0651782 0.152501 0.11575 0.00806712 0.210057 0.114545 0.0262449 0.21025 
0.131918 -0.00848883 0.208399 0.145657 -0.00550965 0.206748 0.129472 0.00947162 0.208834 
0.140328 0.0305318 0.206834 0.112776 0.063111 -0.0109036 0.11232 0.0815891 -0.0108458 
0.125857 0.0460498 -0.00936767 0.137615 0.0478526 -0.00679567 0.12384 0.0459521 0.00912492 
0.135606 0.0476151 0.0297441 0.123286 0.0640935 0.00919695 0.135223 0.0826236 0.0298688 
0.112662 0.0631943 0.210742 0.112203 0.0816646 0.210704 0.123892 0.0459265 0.190913 
0.135644 0.0475961 0.170328 0.12585 0.0460104 0.209393 0.137648 0.0478569 0.206864 
0.123307 0.0640726 0.190872 0.135288 0.0826158 0.170285 0.112139 0.118503 -0.0106965 
0.112683 0.136964 -0.0105749 0.125736 0.0821523 -0.00891593 0.137948 0.0651995 -0.00695624 
0.125625 0.100154 -0.00859745 0.137949 0.100002 -0.00712503 0.122564 0.100039 0.00907955 
0.135111 0.0999996 0.0298087 0.121594 0.100033 0.0274617 0.134373 0.0999885 0.0651451 
0.125272 0.117916 -0.00908759 0.137548 0.134248 -0.00698739 0.122728 0.117953 0.00913742 
0.135282 0.134823 0.0296969 0.121572 0.117972 0.0274009 0.134554 0.134825 0.0651619 
0.112022 0.118458 0.21064 0.112553 0.136868 0.210575 0.125537 0.0822044 0.208938 
0.137956 0.0651705 0.207093 0.122701 0.100065 0.190728 0.135192 0.0999921 0.170268 
0.125497 0.100159 0.208576 0.137953 0.0999882 0.207215 0.122818 0.117985 0.190767 
0.135351 0.134859 0.170407 0.125157 0.117889 0.209063 0.137549 0.134272 0.207076 
0.114525 0.17382 -0.0102322 0.115736 0.191992 -0.0100772 0.113095 0.173809 0.00778965 
0.113106 0.192263 0.0261604 0.11148 0.173935 0.026115 0.111133 0.192515 0.0631251 
0.125971 0.154001 -0.00935811 0.137964 0.15212 -0.00680176 0.123885 0.154167 0.00912383 
0.135666 0.152358 0.029539 0.122685 0.154173 0.0274256 0.134841 0.152361 0.0651338 
0.113017 0.17374 0.19218 0.113027 0.192157 0.173749 0.114475 0.173725 0.210218 
0.115703 0.191927 0.210067 0.12406 0.154106 0.190848 0.135769 0.152386 0.170476 
0.125955 0.153978 0.209343 0.138054 0.152181 0.206901 0.11581 0.20997 0.00796902 
0.114864 0.210343 0.0262575 0.129495 0.190517 -0.00890643 0.140468 0.169563 -0.00686818 
0.131963 0.208477 -0.00851845 0.145714 0.20555 -0.00682909 0.112718 0.210886 0.0631657 
0.112322 0.210833 0.0816534 0.12526 0.190681 0.0273127 0.136979 0.170204 0.0114117 
0.124036 0.190776 0.0458049 0.135688 0.170094 0.0474662 0.123311 0.190906 0.0639143 
0.135294 0.170155 0.0826245 0.127961 0.208685 0.0274471 0.139723 0.207008 0.0115331 
0.126711 0.209043 0.0458519 0.138159 0.207064 0.0475504 0.126176 0.208875 0.0639835 
0.137899 0.207067 0.082569 0.112359 0.210822 0.118408 0.112675 0.210891 0.136824 
0.122916 0.190735 0.100025 0.135172 0.170365 0.100014 0.124802 0.209085 0.100047 
0.136925 0.20673 0.100013 0.11476 0.210233 0.173647 0.115778 0.2099 0.191979 
0.123356 0.190771 0.136165 0.1353 0.17009 0.117431 0.124067 0.190643 0.154264 
0.135735 0.170087 0.152607 0.125188 0.190569 0.172703 0.137023 0.170231 0.188662 
0.126135 0.208812 0.136094 0.13791 0.207053 0.117478 0.126511 0.208993 0.154207 
0.138102 0.207062 0.1525 0.127814 0.208609 0.172546 0.139713 0.207021 0.188466 
0.129416 0.190488 0.208905 0.140495 0.16964 0.206931 0.131857 0.208455 0.208504 
0.145603 0.205596 0.206847 0.15 0 0.0166667 0.15 0 0.0333333 
0.15 0.0166667 0 0.15 0.0333333 0 0.15 0 0.0666667 
0.15 0 0.0833333 0.15 0.0166667 0.0333333 0.15 0.0333333 0.0166667 
0.15 0.0166667 0.05 0.15 0.0333333 0.05 0.15 0.0166667 0.0666667 
0.15 0.0333333 0.0833333 0.15 0 0.116667 0.15 0 0.133333 
0.15 0.0166667 0.1 0.15 0.0333333 0.1 0.15 0 0.166667 
0.15 0 0.183333 0.15 0.0166667 0.133333 0.15 0.0333333 0.116667 
0.15 0.0166667 0.15 0.15 0.0333333 0.15 0.15 0.0166667 0.166667 
0.15 0.0333333 0.183333 0.15 0.0166667 0.2 0.15 0.0333333 0.2 
0.15 0.05 0.0166667 0.15 0.05 0.0333333 0.15 0.0666667 0 
0.15 0.0833333 0 0.15 0.0666667 0.0166667 0.15 0.0833333 0.0333333 
0.15 0.05 0.0666667 0.15 0.05 0.0833333 0.15 0.0666667 0.05 
0.15 0.0833333 0.05 0.15 0.05 0.116667 0.15 0.05 0.133333 
0.15 0.0666667 0.0833333 0.15 0.0833333 0.0666667 0.15 0.0666667 0.1 
0.15 0.0833333 0.1 0.15 0.0666667 0.116667 0.15 0.0833333 0.133333 
0.15 0.05 0.166667 0.15 0.05 0.183333 0.15 0.0666667 0.15 
0.15 0.0833333 0.15 0.15 0.0666667 0.183333 0.15 0.0833333 0.166667 
0.15 0.0666667 0.2 0.15 0.0833333 0.2 0.15 0.1 0.0166667 
0.15 0.1 0.0333333 0.15 0.116667 0 0.15 0.133333 0 
0.15 0.1 0.0666667 0.15 0.1 0.0833333 0.15 0.116667 0.0333333 
0.15 0.133333 0.0166667 0.15 0.116667 0.05 0.15 0.133333 0.05 
0.15 0.116667 0.0666667 0.15 0.133333 0.0833333 0.15 0.1 0.116667 
0.15 0.1 0.133333 0.15 0.116667 0.1 0.15 0.133333 0.1 
0.15 0.1 0.166667 0.15 0.1 0.183333 0.15 0.116667 0.133333 
0.15 0.133333 0.116667 0.15 0.116667 0.15 0.15 0.133333 0.15 
0.15 0.116667 0.166667 0.15 0.133333 0.183333 0.15 0.116667 0.2 
0.15 0.133333 0.2 0.15 0.15 0.0166667 0.15 0.15 0.0333333 
0.15 0.166667 0 0.15 0.183333 0 0.15 0.166667 0.0166667 
0.15 0.183333 0.0333333 0.15 0.15 0.0666667 0.15 0.15 0.0833333 
0.15 0.166667 0.05 0.15 0.183333 0.05 0.15 0.15 0.116667 
0.15 0.15 0.133333 0.15 0.166667 0.0833333 0.15 0.183333 0.0666667 
0.15 0.166667 0.1 0.15 0.183333 0.1 0.15 0.166667 0.116667 
0.15 0.183333 0.133333 0.15 0.15 0.166667 0.15 0.15 0.183333 
0.15 0.166667 0.15 0.15 0.183333 0.15 0.15 0.166667 0.183333 
0.15 0.183333 0.166667 0.15 0.166667 0.2 0.15 0.183333 0.2 
0.15 0.2 0.0166667 0.15 0.2 0.0333333 0.15 0.2 0.0666667 
0.15 0.2 0.0833333 0.15 0.2 0.116667 0.15 0.2 0.133333 
0.15 0.2 0.166667 0.15 0.2 0.183333 0.129854 0.208686 0.00893717 
0.142571 0.187852 -0.00692782 0.0618342 -0.0115442 0.175044 0.138919 0.207127 0.0297576 
0.15 0.183333 0.0166667 0.138084 0.188384 0.0114631 0 0.0333333 0.0333333 
0.15 0.0666667 0.166667 0 0.0666667 0.0666667 0.0503185 0.211609 0.0813047 
0.15 0.116667 0.116667 0.121032 0.0999811 0.154199 0.0479324 0.21083 0.00725625 
0.0615865 0.193274 -0.011241 0.15 0.133333 0.166667 0.125503 0.0642338 0.209215 
0.136154 0.0652765 0.188517 0.0203629 -0.0086164 0.00899102 0.00748547 0.012076 -0.00688553 
0.0626807 0.0811494 -0.0122725 0.101312 0.0254397 -0.0109974 0.0615502 0.00676179 -0.011318 
0.0477814 -0.0107611 0.00716649 0.0247378 0.20895 0.118193 0.0138228 0.0297671 0.0296449 
0.0487041 0.0254547 -0.0111558 0.0487425 0.00718903 0.00709811 0 0.133333 0.0333333 
0.136216 0.0825831 0.188532 0.15 0.0833333 0.183333 0.137984 0.0826619 0.207164 
0.02288 0.172348 -0.00914733 0 0.0166667 0.0166667 0.0119494 0.011569 0.0115012 
0.0112041 -0.00711565 0.0298235 0.0129756 0.0116004 0.0297016 0.061949 0.211551 0.0250458 
0.0619433 0.193292 0.00678764 0.0287101 0.0638092 0.0457233 0.15 0.166667 0.166667 
0.0282607 0.0276213 0.0819625 0 0.116667 0.0166667 0.0121391 0.117448 -0.00701754 
0 0.0333333 0.166667 0.101403 0.174599 -0.0110346 0.10896 0.155476 0.13693 
0.0625572 -0.0121759 0.137701 0.127456 0.172358 0.209229 0.102207 0.210812 0.192753 
0.0885352 0.193198 0.211265 0.0623574 0.193512 0.0250771 0.0245135 0.0642052 -0.00910119 
0.0133041 0.0476417 0.0113583 0.0228022 0.17242 0.209162 0 0.166667 0.0333333 
0.0112533 -0.00709123 0.170138 0 0.0166667 0.183333 0.0130133 0.0116199 0.170298 
0.15 0.0833333 0.0833333 0.0231809 0.190496 0.00892464 0.0204149 0.208616 0.00904282 
0.00770558 0.187761 -0.00689017 0.0120269 0.188296 0.0114911 0.0112117 0.20707 0.029769 
0.0129939 0.188354 0.0296733 0 0.183333 0.0166667 0 0.133333 0.166667 
0.0137083 0.152449 0.0115332 0.0138436 0.170224 0.0296413 0.0250424 0.17237 0.00905699 
0 0.166667 0.166667 0 0.0666667 0.0333333 0.0138372 0.0652713 0.0115336 
0 0.0833333 0.0166667 0.014005 0.0827528 0.0116966 0.0139352 0.100068 0.0116756 
0.0122273 0.0828757 -0.0070199 0 0.116667 0.183333 0.0121228 0.117444 0.207006 
0.0617921 -0.011549 0.0249508 0.0622274 0.0064637 0.0249688 0.0618584 0.00672786 0.00669536 
0.00766722 0.187804 0.206876 0.023166 0.19053 0.191057 0.0203808 0.20865 0.190903 
0.100003 0.137493 0.211548 0 0.166667 0.0666667 0.0134377 0.188458 0.0475468 
0 0.183333 0.0833333 0.0137384 0.188393 0.0651698 0.0119983 0.207092 0.0651133 
0.135221 0.117413 0.170328 0 0.0166667 0.0833333 0.012027 -0.00707328 0.065148 
0.0525222 0.174936 0.118725 0.0245695 0.135891 0.209062 0.0139121 0.134817 0.18843 
0.0139082 0.117451 0.188375 0.0247312 -0.00890226 0.0818875 0.0139134 0.0116179 0.0825938 
0.0244267 0.0641682 0.209164 0 0.183333 0.116667 0.0139196 0.188391 0.117477 
0.012026 0.207049 0.134915 0 0.166667 0.133333 0.0137691 0.188333 0.134861 
0.0146459 0.170292 0.134952 0.0134648 0.18841 0.152475 0.0395819 0.00773895 0.0816284 
0.0502376 -0.0116063 0.0813087 0.0270537 0.00939364 0.0820525 0.0246505 0.135887 -0.00905058 
0.0139281 0.13484 0.011571 0.0139008 0.117489 0.0115709 0.0250065 0.172402 0.190953 
0.013671 0.152441 0.188497 0.0265867 0.172433 0.172509 0.0138534 0.170198 0.1704 
0 0.183333 0.183333 0.0120228 0.188311 0.188498 0.011221 0.207064 0.170201 
0.0130046 0.188337 0.170325 0.0138522 0.0297678 0.170421 0.0132934 0.047603 0.188679 
0.0119718 0.0115477 0.18848 0.00750575 0.0120095 0.20686 0.0204418 -0.00864573 0.190946 
0.13664 0.188357 0.152528 0.15 0.166667 0.133333 0.0287446 0.154156 0.117977 
0 0.116667 0.116667 0.0288415 0.136003 0.136023 0.125277 0.172325 0.191068 
0.136232 0.170104 0.170482 0.0225383 0.027694 -0.00920428 0.0247424 0.0277061 0.00894663 
0.0357704 0.00813447 0.00792125 0.0230285 0.00953021 0.00882875 0.102146 -0.0107158 0.192745 
0.0885218 0.00681273 0.211236 0.109085 0.100008 0.0260671 0.0137781 0.0652406 0.188525 
0.0148019 0.0826033 0.170291 0 0.0666667 0.166667 0.137997 0.0826707 -0.00707037 
0.15 0.0833333 0.0166667 0.0397286 0.0815719 0.0076956 0.0284739 0.0819673 0.0275052 
0.0148394 0.0826075 0.0297225 0.0385933 0.192285 0.0446302 0.0624481 0.212078 0.0622591 
0.049939 0.0625721 0.211633 0.0266476 0.0639519 0.190804 0 0.0333333 0.0666667 
0.0146184 0.029704 0.0651194 0.0134401 0.0115339 0.0475653 0.0137487 0.011621 0.0651876 
0.15 0.0333333 0.133333 0.15 0.183333 0.0833333 0.138137 0.20709 0.065068 
0.0247984 -0.00885777 0.118226 0.0141058 0.0116239 0.100051 0.0478719 -0.0107856 0.192813 
0.061893 0.00675601 0.193316 0.0615636 0.00676348 0.211348 0.0135085 0.0116186 0.152473 
0 0.0333333 0.133333 0.0488056 0.0071612 0.192907 0.0486884 0.0254072 0.211206 
0.0390807 0.0630821 0.192408 0.0395528 0.0815643 0.192382 0.0625746 0.0811152 0.212311 
0.0383128 0.0446774 0.192425 0.0497221 0.0254392 0.193183 0.0264476 0.0276729 0.172622 
0.122191 0.172539 0.0638548 0.138879 0.207115 0.170259 0.15 0.183333 0.183333 
0.137078 0.188356 0.170378 0.100339 0.0254569 0.00700013 0.100326 0.0624971 -0.0114778 
0 0.0833333 0.183333 0.012169 0.0828932 0.207069 0.0139353 0.100063 0.188282 
0.0139634 0.082754 0.188347 0.0615611 0.19331 0.211289 0.0479467 0.210914 0.192712 
0 0.0166667 0.116667 0.0139612 0.0116732 0.117506 0.0120997 -0.00699184 0.134915 
0.0138158 0.0117231 0.134877 0.0885211 0.00672235 -0.0111824 0.102178 -0.0107827 0.00731657 
0.101266 0.00716039 0.00724403 0.109908 0.174047 0.0630677 0.108886 0.155588 0.0630509 
0.110302 0.192374 0.100019 0.0876648 -0.0119739 0.0622622 0.0396958 0.007779 0.118454 
0.0397484 0.00777385 0.100053 0.0271286 0.00944104 0.118037 0.050356 -0.0116046 0.118751 
0.0511565 0.0625837 0.193463 0.0508945 0.0253334 0.174826 0.0622767 0.00649825 0.175003 
0.0387853 0.0262246 0.173987 0.0526825 0.0624641 0.156206 0.0516259 0.0438673 0.174879 
0.0520458 0.0625046 0.174871 0.0282717 0.0819093 0.172474 0.0289072 0.0639882 0.136117 
0 0.0833333 0.116667 0.052564 0.0251123 0.118747 0.0287826 0.0458986 0.118017 
0.0518429 0.0065819 0.118789 0.028252 0.0457599 0.154405 0.0285546 0.0458007 0.136145 
0 0.0666667 0.133333 0.0281608 0.0275303 0.136209 0.0387696 0.0078312 0.155435 
0.0393509 0.00772199 0.136939 0.0146689 0.029763 0.134997 0.110762 0.136902 0.192371 
0.0874249 0.118886 0.21225 0.110264 0.118431 0.19237 0.0987779 0.137437 0.193332 
0.15 0.116667 0.183333 0.136141 0.0999991 0.188408 0.136068 0.117293 0.188405 
0.137831 0.117182 0.207133 0.12739 0.0275889 0.209225 0.127025 0.00946978 0.191103 
0.142482 0.0122141 0.206873 0.129766 -0.00865401 0.190964 0.101321 0.19288 0.192824 
0.11427 0.191961 0.192028 0.101378 0.174618 0.211102 0.13619 0.134742 0.188544 
0.125441 0.135827 0.209169 0.123224 0.136003 0.190806 0.136604 0.152321 0.18872 
0.125204 0.0276369 0.190981 0.136357 0.0476585 0.188494 0.138026 0.0117016 0.188483 
0.15 0.0166667 0.183333 0.138827 -0.00707345 0.170177 0.137037 0.0116856 0.170276 
0.15 0.0333333 0.166667 0.136138 0.029865 0.170356 0.136514 0.0116705 0.152413 
0.0619737 0.211568 0.174964 0.0619204 0.193322 0.193256 0.0385593 0.155397 0.192291 
0.0146146 0.134903 0.170301 0.0279948 0.136158 0.172453 0.0517031 0.156182 0.174761 
0.0522861 0.156234 0.156116 0.0526588 0.137537 0.156223 0.0500408 0.137514 0.21157 
0.0392736 0.136925 0.192307 0.0270918 0.117995 0.19058 0.0627312 0.118966 0.212345 
0.039655 0.118451 0.192299 0.0398596 0.100031 0.192336 0.0524656 0.118795 0.174967 
0.0289137 0.118028 0.154218 0.0518114 0.118798 0.193498 0.0291184 0.0999887 0.154219 
0.0285303 0.154238 0.136105 0 0.133333 0.133333 0.0281249 0.17255 0.136151 
0.0282451 0.154272 0.154324 0.0881859 0.193212 0.193253 0.075039 0.193311 0.193334 
0.0881511 0.211443 0.174982 0.0486598 0.174689 0.211116 0.0359098 0.192047 0.191956 
0.0497611 0.174668 0.193076 0.0488547 0.192978 0.192818 0.0359345 0.191961 0.00802881 
0.0487662 0.17455 -0.0110581 0.0488865 0.192857 0.00720358 0.0874024 0.0810746 0.212173 
0.0873714 0.0436724 0.193612 0.0749286 0.0435547 0.193832 0.101328 0.0255065 0.211021 
0.114293 0.00799678 0.192078 0.101254 0.00723786 0.192793 0.0992761 0.0253513 0.174682 
0.0875947 -0.0119599 0.137729 0.0869867 0.0623357 0.193807 0.0867881 0.0247642 0.15648 
0.0751286 0.0245882 0.156729 0.062346 0.193542 0.174941 0.0509796 0.174732 0.174712 
0.0387799 0.192285 0.155369 0.0389055 0.173896 0.17386 0.0270815 0.19067 0.118011 
0.039712 0.192294 0.100028 0.0503628 0.211637 0.118721 0.12308 0.190859 0.0820317 
0.125439 0.20907 0.0818627 0.13618 0.188403 0.0825542 0.0531409 0.137575 0.13754 
0.0985703 0.174826 0.156065 0.0865357 0.175384 0.137742 0.0998479 0.211618 0.118771 
0.111659 0.155342 0.192336 0.123668 0.172315 0.172583 0.100436 0.174599 0.19305 
0.111433 0.173833 0.173858 0.0877886 0.193418 0.175002 0.0873738 0.156385 0.193711 
0.0751175 0.156489 0.193796 0.062318 -0.0121243 0.0622254 0.038445 0.00779728 0.0445892 
0.0391564 0.00772071 0.0630849 0.129777 -0.00859873 0.00906224 0.142473 0.0122193 -0.0068342 
0.024727 0.208969 0.0818568 0.0140775 0.188439 0.100018 0.0270595 0.190686 0.0820273 
0.0139022 0.188423 0.0825632 0.0972029 0.0625557 0.156232 0.110072 0.100022 0.192359 
0.0864211 0.0622759 0.175361 0.121991 0.0273782 0.136062 0.0996745 -0.0115986 0.118762 
0.109729 0.026095 0.136942 0.108912 0.0630947 0.155491 0.0985193 0.0252577 0.156137 
0.122161 0.0639618 0.172503 0.123027 0.0821111 0.190749 0.122673 0.0458078 0.172521 
0.135427 0.0651988 0.1703 0.123529 0.0275801 0.172519 0.0395913 0.192316 0.0816023 
0.0392311 0.19233 0.0630908 0.0146314 0.170329 0.065111 0.12549 0.209012 0.11822 
0.135943 0.18847 0.100007 0.123169 0.19078 0.118033 0.07518 0.175458 0.156583 
0.087506 0.211965 0.137761 0.0869159 0.175291 0.156504 0.0873683 0.175113 0.175118 
0.138116 0.207078 0.134987 0.136295 0.188256 0.134899 0.15 0.183333 0.116667 
0.136208 0.188367 0.117486 0.120797 0.117985 0.136004 0.0967378 0.137478 0.137542 
0.0972692 0.156218 0.137507 0.136144 0.0826269 0.0116227 0.125604 0.0642224 -0.00916929 
0.0972919 0.156293 0.0624893 0.120636 0.118041 0.0639626 0.121047 0.154275 0.100001 
0.114336 0.192046 0.00792543 0.127484 0.172391 -0.00922992 0.125295 0.172396 0.00895675 
0.127078 0.190569 0.00880832 0.0225313 0.0276114 0.209233 0.0358491 0.00809848 0.192066 
0.0247699 0.0276616 0.191089 0.023093 0.00949568 0.191152 0.0526896 0.11869 0.0251767 
0.137085 0.188351 0.0296677 0.15 0.166667 0.0333333 0.136194 0.170105 0.029592 
0.12697 0.00951269 0.00891251 0.114276 0.00791859 0.0079175 0.127383 0.0276073 -0.00921808 
0.0998013 0.211659 0.0812679 0.121136 0.118015 0.15424 0.121554 0.118003 0.172574 
0.15 0.133333 0.133333 0.0532907 0.137522 0.0624947 0.0967772 0.137545 0.0624711 
0.0750538 0.138204 0.100018 0.123137 0.136001 0.00912538 0.125494 0.135869 -0.00917722 
0.136477 0.152289 0.0113873 0.136136 0.134725 0.0115611 0.15 0.133333 0.0333333 
0.111786 0.192472 0.0446031 0.0994612 0.174747 0.0253461 0.100456 0.174594 0.00698189 
0.0997171 0.193307 0.0439843 0.0966589 0.062514 0.137523 0.0749238 0.10001 0.138155 
0.0531671 0.0624597 0.137535 0.127013 0.190495 0.191189 0.129726 0.20863 0.19103 
0.138104 0.18841 0.18857 0.142533 0.187907 0.206948 0.136276 0.188258 0.065157 
0.136622 0.188341 0.0475259 0.15 0.166667 0.0666667 0.0874377 0.193696 0.0436254 
0.087605 0.212019 0.0622464 0.101347 0.192889 0.00720649 0.088595 0.193256 -0.0112219 
0.102217 0.210833 0.00728726 0.0289825 0.0458438 0.0999859 0.0527337 0.0438336 0.0624534 
0.135413 0.17007 0.0650938 0.135172 0.152352 0.047435 0.123636 0.172442 0.0274078 
0.122728 0.172493 0.0456873 0.120636 0.0638953 0.118047 0.109295 0.0260479 0.118466 
0.135326 0.0297778 0.134873 0.15 0.0666667 0.133333 0.135162 0.0476135 0.152523 
0.13491 0.0475392 0.134899 0.0878443 0.193486 0.0251011 0.0750886 0.193417 0.00674275 
0.0882344 0.193267 0.00680896 0.0882165 0.211526 0.0250537 0.135434 0.170054 0.134971 
0.110278 0.155422 0.173905 0.121275 0.136062 0.154329 0.10949 0.155486 0.155384 
0.038884 0.173827 0.026153 0.0265815 0.172444 0.0274864 0.0498521 0.174524 0.00697769 
0.0509974 0.174666 0.0253182 0.0750295 0.193881 0.0435837 0.0512783 0.193364 0.0625826 
0.0391897 0.0631183 0.00765087 0.0267325 0.0639815 0.00926015 0.0500572 0.0626015 -0.0115793 
0.0501633 0.137389 -0.0115201 0.0271284 0.118001 0.00936356 0.0527994 0.156146 0.062474 
0.0290272 0.154226 0.0999797 0.0517402 0.174742 0.0438578 0.0521679 0.174784 0.0625034 
0.0283 0.172466 0.0819329 0.0289327 0.1361 0.0639295 0.0288006 0.118006 0.0458007 
0 0.116667 0.0833333 0.0282916 0.154333 0.0457106 0.0285828 0.136106 0.0457351 
0 0.133333 0.0666667 0.03939 0.136845 0.00769827 0.0387416 0.15531 0.00780617 
0.0281547 0.136156 0.0274637 0.0146304 0.134982 0.0296783 0 0.0833333 0.0833333 
0.0292048 0.0819849 0.0639554 0.0289386 0.100014 0.0457782 0.0288863 0.0819419 0.0457668 
0.100142 0.137549 -0.0115626 0.110477 0.155421 0.0261012 0.121954 0.135997 0.0273942 
0.134843 0.134853 0.0475502 0.135159 0.117419 0.0298062 0.15 0.133333 0.0666667 
0.134696 0.0475995 0.0825512 0.0880899 -0.0114282 0.17496 0.0749829 0.00670594 0.193331 
0.0876353 0.00659655 0.174958 0.0881138 0.00681462 0.193202 0.039956 0.100027 0.00767352 
0.0628015 0.118934 -0.012256 0.0519156 0.118706 0.0066551 0.0397451 0.118394 0.00772051 
0.0875127 0.11892 -0.0123455 0.109221 0.118437 0.0260301 0.0980204 0.137473 0.0251296 
0.109674 0.136917 0.0260411 0.0533109 0.0625132 0.0624401 0.0751128 0.100019 0.0618768 
0.0966957 0.0624451 0.0624886 0.0748784 0.0618386 0.0999729 0.108372 0.0631105 0.0630949 
0.109131 0.0260661 0.10005 0.0383574 0.0447217 0.00762713 0.0386326 0.0262538 0.0260594 
0.049691 0.0254692 0.00685769 0.0263583 0.0276831 0.0274301 0.0749842 0.00664603 0.00671996 
0.0881575 -0.0114776 0.0251005 0.0881349 0.00673856 0.00684964 0.13476 0.117451 0.0476113 
0.13451 0.117383 0.0652026 0.15 0.116667 0.0833333 0.15 0.0666667 0.0333333 
0.136107 0.0652796 0.0116216 0.0865928 0.17543 0.0622405 0.0753107 0.156774 0.0245843 
0.0869573 0.156543 0.024687 0.0870982 0.193872 0.0623236 0.15 0.0333333 0.0333333 
0.0996598 0.043973 0.00681519 0.099303 0.0252902 0.0253395 0.0876654 0.0065293 0.0250799 
0.0626112 0.212173 0.137663 0.0393141 0.192377 0.136901 0.0517695 0.19345 0.118777 
0.039628 0.192312 0.118441 0.0511825 0.00662098 0.0625451 0.0523487 0.0438378 0.0437344 
0.111719 0.0446285 0.00750184 0.123011 0.0821279 0.00925774 0.15 0.0166667 0.0833333 
0.137959 -0.00691163 0.065113 0.100344 0.0255216 0.193016 0.111727 0.0446696 0.192405 
0.100187 0.0625442 0.211469 0.0995815 0.0440192 0.193182 0.15 0.0333333 0.0666667 
0.136442 0.0118032 0.0476057 0.136116 0.0118669 0.0651981 0.121672 0.0275372 0.0820276 
0.120797 0.0639924 0.0638892 0.134534 0.0650862 0.0651626 0.121192 0.0639105 0.0457099 
0.121999 0.0639286 0.0275248 0.134724 0.100025 0.0475846 0.137998 -0.00702532 0.134869 
0.15 0.0166667 0.116667 0.136187 0.0117123 0.134808 0.0516491 0.0438758 0.0251164 
0.0507884 0.0253127 0.0251887 0.0512904 0.062638 0.0065826 0.0984373 0.0251391 0.0439544 
0.0978267 0.0251311 0.0626167 0.11017 0.0260182 0.0445946 0.0999222 -0.0115719 0.0812621 
0.0867614 0.02468 0.0435128 0.0749046 0.0244969 0.0433456 0.0865605 0.0621914 0.02458 
0.0870705 0.0622676 0.00616452 0.0749568 0.0434736 0.00629744 0.0873911 0.0435904 0.0064023 
0.0874469 0.0810211 -0.0122068 0.134789 0.0475424 0.11743 0.134775 0.0475753 0.0999996 
0.15 0.0833333 0.116667 0.134516 0.0651423 0.117382 0.125265 -0.00896758 0.0818297 
0.136001 0.0117695 0.0825593 0.122715 0.00918286 0.0820015 0.136065 0.011617 0.117417 
0.135829 0.011638 0.0999793 0.122791 0.00909784 0.117993 0.125226 -0.0090466 0.118189 
0.13537 0.0652013 0.0298185 0.122509 0.0458557 0.0274877 0.15 0.116667 0.0166667 
0.136077 0.100014 0.0117075 0.137815 0.117191 -0.00703272 0.135983 0.117271 0.0117459 
0.134837 0.0476126 0.0651349 0.135057 0.0475666 0.047506 0.135233 0.0298976 0.0651363 
0.15 0.0666667 0.0666667 0.125139 0.0276755 0.00902758 0.123386 0.0276587 0.0274655 
0.136328 0.0476588 0.0115828 0.136057 0.0299202 0.0296776 0.15 0.0166667 0.0166667 
0.138763 -0.00698193 0.0298626 0.137963 0.011753 0.0115541 0.136971 0.0117994 0.0297416 

CELLS 236 4956
20 69 93 88 68 814 815 925 924 808 809 801 800 805 804 803 802 956 957 1317 961 
20 28 47 45 44 422 423 549 548 420 421 418 419 541 540 539 538 1160 1418 958 1119 
20 93 69 88 94 815 814 808 809 925 924 948 949 816 817 926 927 959 1323 960 961 
20 43 49 86 85 522 523 600 601 536 537 534 535 598 599 909 908 1345 967 1366 1279 
20 5 1 26 6 109 108 114 115 150 151 142 143 110 111 161 160 962 1111 980 991 
20 82 86 81 63 892 893 891 890 889 888 749 748 751 750 747 746 972 1290 1198 963 
20 7 11 48 6 176 177 240 241 192 193 157 156 159 158 173 172 964 1103 994 1409 
20 37 17 54 38 327 326 334 335 480 481 472 473 328 329 485 484 1277 1254 965 1292 
20 55 13 12 51 285 284 245 244 263 262 625 624 282 283 258 259 1211 1221 1212 1087 
20 90 86 49 85 915 914 601 600 603 602 911 910 909 908 598 599 966 967 1306 1330 
20 37 52 50 36 476 477 607 606 474 475 467 466 471 470 469 468 968 969 1237 993 
20 91 92 65 86 940 941 779 778 777 776 917 916 919 918 772 773 970 1184 1047 1193 
20 82 65 86 63 771 770 772 773 892 893 749 748 745 744 751 750 971 1288 972 984 
20 25 5 0 26 149 148 101 100 103 102 388 389 150 151 104 105 1093 989 973 974 
20 46 32 6 48 441 440 165 164 171 170 554 555 442 443 172 173 975 1102 1483 1386 
20 57 46 58 62 557 556 558 559 668 669 670 671 560 561 678 679 976 1135 1327 1149 
20 26 41 25 46 400 401 393 392 389 388 406 407 502 503 394 395 1037 977 982 978 
20 22 38 39 17 376 377 482 483 378 379 323 322 329 328 331 330 1276 1253 1058 979 
20 55 49 12 54 591 590 255 254 263 262 649 648 588 589 260 261 1298 1259 1050 1213 
20 26 5 6 30 151 150 142 143 161 160 398 399 152 153 162 163 1091 1008 1438 980 
20 25 30 26 46 390 391 399 398 388 389 394 395 432 433 406 407 981 1437 982 1092 
20 11 15 16 34 230 231 290 291 232 233 238 239 298 299 308 309 1068 1023 1405 983 
20 82 65 87 86 771 770 774 775 894 895 892 893 772 773 913 912 984 1183 985 986 
20 15 34 36 37 298 299 454 455 300 301 302 303 456 457 466 467 1025 1235 1015 987 
20 43 85 64 48 534 535 761 760 530 531 520 521 583 582 579 578 1431 1096 1490 1433 
20 1 5 26 0 108 109 150 151 114 115 99 98 101 100 105 104 988 989 990 991 
20 52 37 50 53 477 476 474 475 607 606 638 639 478 479 608 609 992 1006 1373 993 
20 60 80 59 86 722 723 705 704 699 698 728 729 886 887 708 709 1371 1495 1282 1504 
20 48 7 6 43 193 192 157 156 173 172 521 520 188 189 168 169 1361 996 1460 994 
20 92 71 96 91 833 832 836 837 944 945 941 940 830 831 943 942 1089 1083 995 1134 
20 26 7 43 6 183 182 188 189 404 405 161 160 157 156 169 168 1110 996 1272 1064 
20 6 26 46 42 160 161 406 407 170 171 166 167 402 403 511 510 1271 1036 1482 1436 
20 32 15 10 11 297 296 225 224 227 226 237 236 231 230 222 223 1069 997 1031 998 
20 90 71 70 49 829 828 821 820 823 822 603 602 597 596 595 594 1379 1260 1001 1297 
20 28 9 8 3 215 214 195 194 199 198 135 134 133 132 131 130 1013 999 1121 1078 
20 68 69 50 66 800 801 619 618 617 616 781 780 783 782 614 615 1314 1343 1000 1357 
20 49 90 54 70 602 603 659 658 588 589 594 595 823 822 652 653 1001 1152 1261 1308 
20 28 43 7 44 416 417 189 188 187 186 418 419 518 519 190 191 1002 1170 1176 1154 
20 92 72 71 67 841 840 827 826 833 832 799 798 795 794 793 792 1003 1191 1088 1348 
20 71 56 51 72 665 664 627 626 633 632 826 827 666 667 634 635 1004 1005 1190 1228 
20 50 37 16 53 475 474 311 310 313 312 608 609 478 479 314 315 1006 1105 1383 1380 
20 5 6 30 32 142 143 162 163 152 153 154 155 164 165 430 431 1028 1387 1007 1008 
20 39 19 35 40 359 358 356 357 461 460 486 487 360 361 462 463 1039 1009 1232 1070 
20 12 11 50 48 229 228 242 243 256 257 252 253 240 241 575 574 1408 1423 1322 1397 
20 21 15 37 16 295 294 302 303 370 371 307 306 290 291 311 310 1010 1024 1043 1020 
20 28 4 9 3 139 138 136 137 215 214 135 134 127 126 133 132 1011 1012 1013 1080 
20 80 84 58 85 882 883 695 694 693 692 884 885 900 901 696 697 1014 1474 1416 1512 
20 15 36 20 37 300 301 365 364 292 293 302 303 466 467 366 367 1015 1016 1018 1017 
20 15 20 21 37 292 293 362 363 294 295 302 303 366 367 370 371 1018 1019 1020 1021 
20 19 18 35 13 339 338 342 343 356 357 273 272 271 270 277 276 1022 1209 1052 1071 
20 39 51 35 18 488 489 465 464 461 460 345 344 347 346 343 342 1252 1208 1072 1233 
20 15 34 37 16 298 299 456 457 302 303 290 291 309 308 311 310 1023 1381 1024 1025 
20 19 23 39 18 350 351 382 383 358 359 339 338 341 340 345 344 1026 1063 1073 1077 
20 5 6 32 11 142 143 164 165 154 155 146 147 158 159 237 236 1027 1104 1030 1028 
20 10 5 32 11 145 144 154 155 226 227 222 223 146 147 237 236 1029 1030 1031 1032 
20 19 33 14 13 354 355 289 288 287 286 273 272 275 274 267 266 1053 1139 1033 1034 
20 26 41 46 42 400 401 502 503 406 407 402 403 500 501 511 510 1035 1439 1036 1037 
20 24 19 39 40 353 352 358 359 384 385 386 387 360 361 486 487 1038 1039 1040 1075 
20 51 91 67 65 636 637 797 796 630 631 628 629 777 776 769 768 1178 1195 1041 1263 
20 17 21 37 16 320 321 370 371 326 327 305 304 307 306 311 310 1042 1043 1294 1045 
20 37 22 21 17 375 374 369 368 371 370 327 326 323 322 321 320 1278 1044 1045 1046 
20 49 91 65 86 604 605 777 776 592 593 600 601 917 916 772 773 1331 1047 1280 1180 
20 7 1 26 2 113 112 114 115 182 183 119 118 106 107 121 120 1048 1049 1055 1112 
20 17 55 12 54 336 337 263 262 247 246 334 335 649 648 260 261 1457 1050 1392 1085 
20 19 33 13 35 354 355 275 274 273 272 356 357 446 447 276 277 1051 1216 1052 1053 
20 7 2 26 27 119 118 120 121 182 183 184 185 122 123 396 397 1117 1054 1066 1055 
20 33 9 8 31 221 220 195 194 203 202 435 434 218 219 200 201 1056 1079 1108 1097 
20 55 18 39 17 349 348 344 345 493 492 337 336 319 318 331 330 1226 1062 1456 1251 
20 23 22 39 17 373 372 378 379 382 383 325 324 323 322 331 330 1057 1058 1061 1059 
20 18 23 39 17 340 341 382 383 344 345 319 318 325 324 331 330 1060 1061 1062 1063 
20 26 7 27 43 183 182 184 185 396 397 404 405 188 189 410 411 1064 1155 1065 1066 
20 32 15 11 34 297 296 231 230 237 236 438 439 298 299 238 239 1067 1068 1390 1069 
20 39 19 18 35 359 358 339 338 345 344 461 460 356 357 342 343 1070 1071 1072 1073 
20 23 19 39 24 351 350 358 359 382 383 380 381 352 353 385 384 1074 1075 1076 1077 
20 28 9 31 8 215 214 218 219 414 415 199 198 195 194 201 200 1078 1079 1130 1320 
20 28 4 29 9 139 138 140 141 412 413 215 214 136 137 217 216 1080 1081 1321 1082 
20 51 91 49 71 636 637 605 604 587 586 632 633 831 830 596 597 1266 1377 1268 1181 
20 96 71 90 91 837 836 828 829 939 938 943 942 830 831 932 933 1083 1376 1084 1303 
20 13 55 12 17 284 285 263 262 245 244 268 269 337 336 246 247 1224 1085 1086 1087 
20 92 71 91 67 833 832 830 831 941 940 799 798 793 792 797 796 1088 1264 1196 1089 
20 25 5 26 30 149 148 150 151 388 389 390 391 152 153 398 399 1090 1091 1092 1093 
20 47 61 45 60 568 569 553 552 549 548 566 567 711 710 550 551 1243 1094 1420 1095 
20 33 49 8 13 450 451 209 208 203 202 275 274 281 280 196 197 1219 1165 1098 1126 
20 85 90 64 48 910 911 767 766 761 760 583 582 585 584 579 578 1312 1426 1096 1443 
20 13 9 8 33 211 210 195 194 197 196 274 275 220 221 202 203 1140 1097 1098 1099 
20 78 64 84 83 755 754 758 759 874 875 872 873 756 757 897 896 1100 1509 1101 1309 
20 6 32 11 48 164 165 237 236 158 159 172 173 442 443 240 241 1102 1421 1103 1104 
20 16 37 54 53 310 311 480 481 316 317 314 315 478 479 645 644 1105 1106 1385 1293 
20 47 33 8 31 449 448 203 202 207 206 437 436 435 434 200 201 1107 1108 1128 1125 
20 1 7 26 6 112 113 182 183 114 115 110 111 157 156 161 160 1109 1110 1111 1112 
20 76 80 60 81 862 863 723 722 719 718 864 865 880 881 724 725 1113 1368 1205 1480 
20 90 94 69 95 934 935 817 816 813 812 936 937 950 951 818 819 1114 1115 1258 1352 
20 90 50 70 66 623 622 620 621 823 822 791 790 614 615 785 784 1411 1342 1131 1150 
20 7 2 27 28 119 118 122 123 184 185 186 187 124 125 408 409 1144 1116 1156 1117 
20 29 28 47 45 413 412 422 423 428 429 426 427 420 421 549 548 1118 1119 1120 1123 
20 3 7 8 28 128 129 174 175 130 131 134 135 186 187 198 199 1146 1177 1121 1122 
20 29 28 31 47 413 412 414 415 424 425 428 429 422 423 436 437 1123 1129 1124 1319 
20 47 33 49 8 449 448 450 451 564 565 207 206 203 202 209 208 1125 1126 1158 1127 
20 28 8 31 47 199 198 200 201 414 415 422 423 206 207 436 437 1161 1128 1129 1130 
20 90 70 69 66 823 822 807 806 813 812 791 790 785 784 783 782 1131 1341 1365 1256 
20 71 97 92 96 838 839 947 946 832 833 836 837 955 954 944 945 1132 1133 1134 1350 
20 58 46 64 62 559 558 562 563 680 681 678 679 560 561 737 736 1135 1136 1461 1452 
20 13 9 33 14 211 210 220 221 274 275 266 267 212 213 289 288 1137 1138 1139 1140 
20 39 56 40 51 494 495 499 498 486 487 488 489 627 626 496 497 1207 1141 1234 1142 
20 3 7 28 2 128 129 186 187 134 135 117 116 119 118 125 124 1143 1144 1145 1146 
20 46 57 58 41 556 557 668 669 558 559 503 502 505 504 507 506 1147 1148 1441 1149 
20 90 50 48 70 623 622 575 574 585 584 823 822 620 621 580 581 1150 1449 1151 1427 
20 90 54 70 48 659 658 652 653 823 822 585 584 577 576 581 580 1311 1447 1151 1152 
20 58 43 64 42 525 524 530 531 680 681 515 514 509 508 517 516 1153 1488 1453 1484 
20 28 43 27 7 416 417 411 410 409 408 187 186 189 188 185 184 1154 1155 1156 1157 
20 8 49 47 44 208 209 565 564 206 207 204 205 543 542 541 540 1163 1240 1159 1158 
20 28 8 47 44 199 198 206 207 422 423 418 419 204 205 541 540 1175 1159 1160 1161 
20 43 49 12 44 522 523 255 254 249 248 518 519 543 542 250 251 1248 1162 1168 1347 
20 12 49 13 44 254 255 281 280 244 245 250 251 543 542 278 279 1162 1164 1166 1223 
20 49 8 13 44 209 208 196 197 281 280 543 542 204 205 278 279 1163 1171 1164 1165 
20 12 13 7 44 244 245 181 180 179 178 250 251 278 279 190 191 1166 1172 1169 1167 
20 43 12 7 44 249 248 179 178 189 188 518 519 250 251 190 191 1168 1169 1170 1360 
20 13 8 7 44 197 196 175 174 181 180 278 279 204 205 190 191 1171 1174 1172 1173 
20 7 8 28 44 174 175 198 199 186 187 190 191 204 205 418 419 1174 1175 1176 1177 
20 91 51 49 65 637 636 587 586 605 604 777 776 628 629 592 593 1178 1179 1180 1181 
20 92 87 65 86 921 920 775 774 779 778 919 918 913 912 772 773 1182 1183 1184 1185 
20 63 61 60 82 731 730 711 710 713 712 748 749 734 735 726 727 1186 1187 1197 1242 
20 60 61 77 82 710 711 732 733 720 721 726 727 734 735 868 869 1187 1188 1199 1189 
20 67 51 72 71 631 630 634 635 794 795 792 793 632 633 827 826 1265 1190 1191 1192 
20 91 92 67 65 940 941 799 798 797 796 777 776 779 778 769 768 1193 1194 1195 1196 
20 63 60 81 82 713 712 724 725 746 747 748 749 726 727 888 889 1197 1204 1198 1291 
20 76 60 77 82 719 718 720 721 860 861 866 867 726 727 868 869 1202 1199 1200 1201 
20 60 76 81 82 718 719 864 865 724 725 726 727 866 867 888 889 1202 1203 1204 1205 
20 39 56 51 55 494 495 627 626 488 489 492 493 661 660 624 625 1206 1229 1249 1207 
20 18 35 13 51 342 343 277 276 271 270 346 347 464 465 282 283 1208 1215 1210 1209 
20 55 13 51 18 285 284 282 283 625 624 349 348 270 271 347 346 1227 1210 1250 1211 
20 49 55 12 51 590 591 263 262 255 254 586 587 625 624 258 259 1269 1212 1220 1213 
20 35 33 13 51 447 446 275 274 277 276 464 465 452 453 282 283 1214 1218 1215 1216 
20 33 49 13 51 450 451 281 280 275 274 452 453 586 587 282 283 1217 1222 1218 1219 
20 49 12 13 51 255 254 244 245 281 280 586 587 258 259 282 283 1220 1221 1222 1223 
20 55 13 18 17 285 284 270 271 349 348 337 336 268 269 319 318 1224 1225 1226 1227 
20 71 56 55 51 665 664 661 660 663 662 633 632 627 626 625 624 1228 1229 1267 1230 
20 51 40 39 35 497 496 487 486 489 488 465 464 463 462 461 460 1231 1232 1233 1234 
20 37 36 50 34 467 466 468 469 474 475 457 456 455 454 459 458 1235 1236 1382 1237 
20 47 60 44 65 566 567 545 544 541 540 572 573 714 715 546 547 1468 1244 1239 1419 
20 49 47 44 65 565 564 541 540 543 542 592 593 572 573 546 547 1238 1239 1246 1240 
20 47 61 60 63 568 569 711 710 566 567 570 571 730 731 712 713 1241 1242 1465 1243 
20 43 44 60 65 518 519 544 545 528 529 532 533 546 547 714 715 1247 1244 1286 1245 
20 43 49 44 65 522 523 543 542 518 519 532 533 592 593 546 547 1281 1246 1247 1248 
20 39 51 18 55 488 489 347 346 345 344 492 493 624 625 348 349 1249 1250 1251 1252 
20 54 39 38 17 491 490 483 482 485 484 335 334 331 330 329 328 1458 1253 1254 1255 
20 90 70 95 69 823 822 824 825 936 937 813 812 807 806 819 818 1256 1257 1258 1296 
20 49 12 54 85 255 254 260 261 588 589 598 599 264 265 656 657 1346 1335 1307 1259 
20 71 49 54 70 597 596 588 589 655 654 821 820 594 595 652 653 1260 1261 1262 1300 
20 51 91 71 67 636 637 831 830 632 633 630 631 797 796 793 792 1263 1264 1265 1266 
20 49 55 51 71 590 591 625 624 586 587 596 597 662 663 632 633 1301 1267 1268 1269 
20 6 43 26 42 168 169 405 404 160 161 166 167 509 508 402 403 1459 1270 1271 1272 
20 73 58 78 57 683 682 688 689 846 847 673 672 669 668 675 674 1273 1326 1274 1522 
20 37 22 17 38 375 374 323 322 327 326 472 473 376 377 328 329 1275 1276 1277 1278 
20 43 49 65 86 522 523 592 593 532 533 536 537 600 601 772 773 1279 1280 1285 1281 
20 59 43 60 86 527 526 528 529 698 699 708 709 536 537 728 729 1367 1284 1282 1283 
20 60 43 65 86 529 528 532 533 714 715 728 729 536 537 772 773 1284 1285 1287 1286 
20 63 60 65 86 713 712 714 715 744 745 750 751 728 729 772 773 1289 1287 1288 1466 
20 60 63 81 86 712 713 746 747 724 725 728 729 750 751 890 891 1289 1290 1370 1291 
20 37 17 16 54 327 326 305 304 311 310 480 481 334 335 316 317 1292 1395 1293 1294 
20 71 95 90 70 834 835 937 936 828 829 821 820 825 824 823 822 1295 1296 1297 1305 
20 49 55 71 54 590 591 662 663 596 597 588 589 649 648 655 654 1298 1299 1300 1301 
20 95 71 90 96 835 834 828 829 937 936 952 953 836 837 938 939 1302 1303 1304 1305 
20 88 69 66 89 809 808 783 782 787 786 922 923 810 811 788 789 1325 1364 1338 1316 
20 90 49 54 85 603 602 588 589 659 658 911 910 598 599 656 657 1306 1307 1313 1308 
20 78 64 62 84 755 754 737 736 739 738 874 875 758 759 742 743 1309 1462 1446 1310 
20 90 66 89 64 791 790 788 789 929 928 767 766 753 752 765 764 1412 1336 1413 1363 
20 54 90 85 48 658 659 911 910 656 657 577 576 585 584 583 582 1311 1312 1334 1313 
20 69 68 88 66 801 800 802 803 808 809 783 782 781 780 787 786 1314 1315 1316 1317 
20 9 29 28 31 216 217 413 412 214 215 218 219 424 425 414 415 1318 1319 1320 1321 
20 54 12 50 48 261 260 256 257 611 610 577 576 252 253 575 574 1333 1322 1448 1391 
20 88 69 89 94 809 808 810 811 922 923 926 927 816 817 930 931 1323 1353 1324 1325 
20 78 58 62 57 689 688 678 679 739 738 675 674 669 668 671 670 1326 1327 1328 1516 
20 69 54 50 70 651 650 611 610 619 618 806 807 652 653 620 621 1329 1450 1344 1355 
20 90 86 91 49 915 914 916 917 932 933 603 602 601 600 605 604 1330 1331 1378 1332 
20 12 54 85 48 260 261 656 657 264 265 252 253 577 576 583 582 1333 1334 1430 1335 
20 89 66 88 64 789 788 786 787 923 922 765 764 753 752 763 762 1336 1337 1339 1338 
20 88 84 89 64 903 902 904 905 922 923 763 762 759 758 765 764 1511 1414 1339 1340 
20 69 70 50 66 806 807 621 620 619 618 783 782 785 784 614 615 1341 1342 1343 1344 
20 49 43 12 85 523 522 249 248 255 254 598 599 534 535 264 265 1345 1432 1346 1347 
20 92 72 97 71 841 840 842 843 946 947 833 832 827 826 839 838 1348 1349 1350 1351 
20 90 94 89 69 934 935 931 930 929 928 813 812 817 816 811 810 1352 1353 1362 1354 
20 69 54 53 50 651 650 645 644 647 646 619 618 611 610 609 608 1355 1384 1372 1356 
20 68 69 52 50 800 801 643 642 641 640 617 616 619 618 607 606 1357 1374 1358 1359 
20 48 7 43 12 193 192 188 189 521 520 253 252 178 179 249 248 1407 1360 1429 1361 
20 69 90 66 89 812 813 791 790 783 782 810 811 929 928 788 789 1362 1363 1364 1365 
20 59 43 86 85 527 526 536 537 708 709 706 707 534 535 909 908 1434 1366 1498 1367 
20 60 80 86 81 722 723 886 887 728 729 724 725 880 881 891 890 1368 1369 1370 1371 
20 69 53 52 50 647 646 639 638 643 642 619 618 609 608 607 606 1372 1373 1374 1375 
20 90 71 49 91 829 828 597 596 603 602 932 933 830 831 604 605 1376 1377 1378 1379 
20 50 37 34 16 475 474 457 456 459 458 313 312 311 310 309 308 1380 1381 1403 1382 
20 54 16 53 50 317 316 314 315 645 644 611 610 312 313 609 608 1393 1383 1384 1385 
20 46 32 30 6 441 440 431 430 433 432 171 170 165 164 163 162 1386 1387 1435 1388 
20 32 34 11 50 438 439 239 238 237 236 444 445 458 459 242 243 1389 1402 1424 1390 
20 12 17 54 50 246 247 334 335 260 261 256 257 332 333 611 610 1396 1394 1391 1392 
20 17 16 54 50 305 304 316 317 334 335 332 333 312 313 611 610 1399 1393 1394 1395 
20 11 17 12 50 234 235 247 246 228 229 242 243 332 333 256 257 1400 1396 1397 1398 
20 11 16 17 50 232 233 304 305 234 235 242 243 312 313 332 333 1404 1399 1400 1401 
20 11 34 16 50 238 239 309 308 232 233 242 243 458 459 312 313 1402 1403 1404 1405 
20 11 7 48 12 177 176 192 193 240 241 228 229 178 179 253 252 1406 1407 1408 1409 
20 64 50 90 66 613 612 622 623 766 767 752 753 614 615 791 790 1410 1411 1412 1428 
20 90 89 84 64 929 928 905 904 907 906 767 766 765 764 759 758 1413 1414 1442 1415 
20 85 59 58 80 707 706 677 676 697 696 885 884 704 705 692 693 1496 1501 1416 1472 
20 60 45 47 44 551 550 548 549 567 566 545 544 539 538 541 540 1417 1418 1419 1420 
20 11 32 50 48 236 237 444 445 242 243 240 241 442 443 575 574 1421 1422 1423 1424 
20 50 64 90 48 612 613 766 767 622 623 575 574 579 578 585 584 1425 1426 1427 1428 
20 43 12 85 48 249 248 264 265 534 535 520 521 252 253 583 582 1429 1430 1431 1432 
20 59 43 85 64 527 526 534 535 706 707 700 701 530 531 761 760 1485 1433 1473 1434 
20 30 6 26 46 163 162 160 161 399 398 432 433 170 171 406 407 1435 1436 1437 1438 
20 46 41 58 42 503 502 506 507 558 559 511 510 500 501 515 514 1439 1440 1454 1441 
20 90 84 85 64 907 906 900 901 911 910 767 766 759 758 761 760 1442 1477 1443 1444 
20 84 62 78 79 743 742 738 739 875 874 879 878 740 741 870 871 1506 1518 1445 1446 
20 70 54 50 48 653 652 611 610 621 620 581 580 577 576 575 574 1447 1448 1449 1450 
20 78 74 79 58 851 850 852 853 870 871 689 688 685 684 691 690 1523 1470 1519 1451 
20 58 46 42 64 559 558 511 510 515 514 680 681 562 563 516 517 1452 1493 1453 1454 
20 54 39 17 55 491 490 331 330 335 334 648 649 492 493 336 337 1455 1456 1457 1458 
20 43 6 48 42 169 168 172 173 520 521 509 508 166 167 513 512 1459 1481 1489 1460 
20 84 64 62 58 759 758 737 736 743 742 695 694 681 680 679 678 1476 1461 1507 1462 
20 58 80 75 74 692 693 859 858 686 687 684 685 855 854 849 848 1471 1463 1464 1500 
20 47 60 65 63 566 567 714 715 572 573 570 571 712 713 745 744 1465 1466 1467 1468 
20 58 80 74 79 692 693 855 854 684 685 690 691 877 876 852 853 1514 1469 1470 1471 
20 85 59 64 58 707 706 700 701 761 760 697 696 677 676 681 680 1472 1486 1475 1473 
20 84 85 64 58 900 901 761 760 759 758 695 694 697 696 681 680 1474 1475 1476 1477 
20 60 75 80 76 716 717 858 859 722 723 718 719 856 857 863 862 1478 1479 1480 1502 
20 48 6 46 42 173 172 170 171 555 554 513 512 166 167 511 510 1481 1482 1492 1483 
20 58 43 59 64 525 524 526 527 676 677 680 681 530 531 700 701 1484 1485 1486 1487 
20 64 43 48 42 531 530 520 521 579 578 517 516 509 508 513 512 1488 1489 1491 1490 
20 64 48 46 42 579 578 555 554 563 562 517 516 513 512 511 510 1491 1492 1493 1494 
20 86 59 85 80 709 708 706 707 909 908 887 886 704 705 885 884 1495 1496 1497 1498 
20 59 58 80 75 677 676 692 693 704 705 702 703 686 687 859 858 1499 1500 1503 1501 
20 60 75 59 80 716 717 703 702 699 698 722 723 858 859 704 705 1502 1503 1504 1505 
20 62 84 58 79 742 743 695 694 679 678 740 741 879 878 690 691 1506 1513 1517 1507 
20 88 84 64 83 903 902 759 758 763 762 899 898 897 896 756 757 1508 1509 1510 1511 
20 80 84 79 58 882 883 879 878 877 876 693 692 695 694 691 690 1512 1513 1514 1515 
20 78 58 79 62 689 688 690 691 870 871 739 738 678 679 741 740 1516 1517 1518 1519 
20 78 74 58 73 851 850 685 684 689 688 847 846 845 844 682 683 1520 1521 1522 1523 

CELL_TYPES 236
-1
-1
-1
-1
-1
-1
-1
-1
-1
-1
-1
-1
-1
-1
-1
-1
-1
-1
-1
-1
-1
-1
-1
-1
-1
-1
-1
-1
-1
-1
-1
-1
-1
-1
-1
-1
-1
-1
-1
-1
-1
-1
-1
-1
-1
-1
-1
-1
-1
-1
-1
-1
-1
-1
-1
-1
-1
-1
-1
-1
-1
-1
-1
-1
-1
-1
-1
-1
-1
-1
-1
-1
-1
-1
-1
-1
-1
-1
-1
-1
-1
-1
-1
-1
-1
-1
-1
-1
-1
-1
-1
-1
-1
-1
-1
-1
-1
-1
-1
-1
-1
-1
-1
-1
-1
-1
-1
-1
-1
-1
-1
-1
-1
-1
-1
-1
-1
-1
-1
-1
-1
-1
-1
-1
-1
-1
-1
-1
-1
-1
-1
-1
-1
-1
-1
-1
-1
-1
-1
-1
-1
-1
-1
-1
-1
-1
-1
-1
-1
-1
-1
-1
-1
-1
-1
-1
-1
-1
-1
-1
-1
-1
-1
-1
-1
-1
-1
-1
-1
-1
-1
-1
-1
-1
-1
-1
-1
-1
-1
-1
-1
-1
-1
-1
-1
-1
-1
-1
-1
-1
-1
-1
-1
-1
-1
-1
-1
-1
-1
-1
-1
-1
-1
-1
-1
-1
-1
-1
-1
-1
-1
-1
-1
-1
-1
-1
-1
-1
-1
-1
-1
-1
-1
-1
-1
-1
-1
-1
-1
-1
-1
-1
-1
-1
-1
-1

POINT_DATA 1524
VECTORS displacement float
0 0 0
0 0 0
0 0 0
0 0 0
0 0 0
0 0 0
0 0 0
0 0 0
0 0 0
0 0 0
0 0 0
0 0 0
0 0 0
0 0 0
0 0 0
0 0 0
0 0 0
0 0 0
0 0 0
0 0 0
0 0 0
0 0 0
0 0 0
0 0 0
0 0 0
-0.0166726 -0.00950905 -0.0102608
-0.0134249 -0.0104174 -0.00542132
-0.0121587 -0.0103482 5.56016e-05
-0.0132449 -0.010404 0.00542596
-0.0166256 -0.00959297 0.010209
-0.0133623 -0.00525502 -0.0104766
-0.0134232 -0.00530698 0.0105293
-0.0118791 3.05864e-05 -0.0106806
-0.0119514 5.3739e-05 0.0107051
-0.0132126 0.00524423 -0.0103619
-0.0133667 0.0053336 0.0104296
-0.0165048 0.00953955 -0.0101835
-0.0133478 0.0104631 -0.00540489
-0.0121582 0.0104225 2.33579e-05
-0.0132615 0.0104869 0.00537789
-0.0165511 0.00969602 0.0101031
-0.0249382 -0.0113386 -0.0113035
-0.025042 -0.0117741 -0.00651552
-0.0250723 -0.0128248 -1.36705e-05
-0.025329 -0.0119379 0.00651234
-0.0249164 -0.0113058 0.0113424
-0.0248118 -0.00661432 -0.0116429
-0.0248315 -0.00654404 0.011726
-0.0250128 4.75769e-05 -0.0130143
-0.0248952 -2.05405e-05 0.0129308
-0.0254483 0.00670018 -0.0118253
-0.0253374 0.0064744 0.0117514
-0.0249315 0.0113899 -0.0112376
-0.0249386 0.0117698 -0.00650794
-0.0248035 0.0128483 1.0512e-05
-0.0251062 0.0119285 0.00651635
-0.0248913 0.0112874 0.0113882
-0.0334202 -0.00959481 -0.0102019
-0.0363106 -0.0106954 -0.00536192
-0.0379733 -0.0107802 6.6723e-05
-0.0365867 -0.0105631 0.0055049
-0.0334433 -0.0095463 0.0102183
-0.0362581 -0.00533834 -0.0107135
-0.0363295 -0.00528633 0.0105749
-0.0382431 8.72294e-05 -0.0108986
-0.0382449 0.000109227 0.0107781
-0.0364888 0.00539816 -0.0104874
-0.0366357 0.00533777 0.0104601
-0.0333154 0.00961836 -0.0101922
-0.0362866 0.0106494 -0.00544823
-0.0379064 0.0106387 4.36115e-05
-0.0365387 0.0107123 0.0053374
-0.0333229 0.0096332 0.0101795
-0.05 0 0
-0.05 0 0
-0.05 0 0
-0.05 0 0
-0.05 0 0
-0.05 0 0
-0.05 0 0
-0.05 0 0
-0.05 0 0
-0.05 0 0
-0.05 0 0
-0.05 0 0
-0.05 0 0
-0.05 0 0
-0.05 0 0
-0.05 0 0
-0.05 0 0
-0.05 0 0
-0.05 0 0
-0.05 0 0
-0.05 0 0
-0.05 0 0
-0.05 0 0
-0.05 0 0
-0.05 0 0
0 0 0
0 0 0
0 0 0
0 0 0
-0.01221 -0.00561595 -0.00677937
-0.0151463 -0.00841949 -0.00849228
-0.00630001 -0.00702149 -0.00505916
-0.0110692 -0.00859442 -0.00585436
0 0 0
0 0 0
0 0 0
0 0 0
0 0 0
0 0 0
0 0 0
0 0 0
-0.00470723 -0.00707458 -0.00241645
-0.00967845 -0.00893071 -0.0041411
0 0 0
0 0 0
0 0 0
0 0 0
-0.00438357 -0.00700121 -0.000758861
-0.00907148 -0.0087084 -0.00266993
-0.00355219 -0.00659625 6.4805e-05
-0.00806754 -0.00893165 6.53166e-05
-0.00433067 -0.00694623 0.000873644
-0.00896082 -0.00863713 0.00274317
0 0 0
0 0 0
0 0 0
0 0 0
0 0 0
0 0 0
0 0 0
0 0 0
-0.00462916 -0.00699432 0.00240292
-0.00956667 -0.00886534 0.00415577
0 0 0
0 0 0
-0.00626478 -0.00703641 0.00500105
-0.0109745 -0.0085806 0.00582058
-0.012163 -0.00567348 0.00672078
-0.0150943 -0.0084926 0.0084211
0 0 0
0 0 0
0 0 0
0 0 0
0 0 0
0 0 0
-0.00716387 -0.00298842 -0.00686999
-0.0127431 -0.00710875 -0.00888873
-0.00364353 -0.00360781 -0.00525395
-0.00847135 -0.00720538 -0.00600728
-0.00478775 -0.00216622 -0.00685282
-0.00934479 -0.00391972 -0.00931263
-0.00420724 -0.000901426 -0.00700311
-0.00855415 -0.00117649 -0.00897112
0 0 0
0 0 0
0 0 0
0 0 0
-0.00234055 -0.00363181 -0.00245472
-0.00713188 -0.00731981 -0.00419088
-0.00258141 -0.00246278 -0.00370191
-0.00747512 -0.00409987 -0.00746143
-0.00197126 -0.00150384 -0.00367713
-0.00609376 -0.00128333 -0.00735329
-0.00610534 -0.00566757 -0.00427363
-0.0160858 -0.00992907 -0.00613342
-0.00536298 -0.00575725 -0.00275358
-0.0150788 -0.0101008 -0.00205703
-0.00598202 -0.0042032 -0.00588446
-0.0159945 -0.00602023 -0.0100353
-0.00523619 -0.0028043 -0.00583701
-0.0149577 -0.0019812 -0.0100845
0 0 0
0 0 0
0 0 0
0 0 0
0 0 0
0 0 0
0 0 0
0 0 0
-0.00191126 -0.00355002 -0.000691665
-0.00648323 -0.00739112 -0.0027542
-0.00183092 -0.00357957 4.90062e-05
-0.00625012 -0.00721996 4.68567e-05
-0.00185378 -0.00353613 0.000806165
-0.00634885 -0.00736191 0.00285199
-0.00478971 -0.00569095 1.35677e-05
-0.0146664 -0.0101574 6.96866e-05
-0.00496112 -0.00573878 0.00141497
-0.0151598 -0.0100226 0.00411553
-0.00429667 -0.00279664 -0.00278369
-0.0140342 -0.00199626 -0.00820042
0 0 0
0 0 0
0 0 0
0 0 0
-0.00226778 -0.00359001 0.00256416
-0.00695339 -0.00727236 0.00424893
-0.00255972 -0.00248287 0.0037388
-0.00749686 -0.0041419 0.0075152
-0.00203739 -0.00154058 0.0037263
-0.00621371 -0.00129378 0.00741926
-0.00566969 -0.0057406 0.00439073
-0.0158001 -0.00985392 0.00608375
-0.00596406 -0.00422818 0.00592957
-0.0160647 -0.00605468 0.0100808
-0.00540515 -0.00280847 0.00587785
-0.0151312 -0.00206466 0.0101468
0 0 0
0 0 0
0 0 0
0 0 0
-0.0036393 -0.00364964 0.00528894
-0.00835742 -0.00720785 0.00600163
-0.00717489 -0.00306391 0.0068983
-0.0127124 -0.00719046 0.00886403
-0.00482186 -0.00222652 0.00688077
-0.0093957 -0.00398339 0.00935782
-0.00427568 -0.000939919 0.00705141
-0.00866044 -0.0011796 0.0090276
0 0 0
0 0 0
0 0 0
0 0 0
-0.00453931 0.000105263 -0.0070868
-0.00883286 -4.83591e-05 -0.00849544
0 0 0
0 0 0
0 0 0
0 0 0
0 0 0
0 0 0
0 0 0
0 0 0
-0.00182701 3.19616e-05 -0.00360198
-0.00590416 2.71783e-05 -0.00740074
-0.00192057 0.000840063 -0.00362206
-0.00648104 0.00274806 -0.00737377
-0.00473835 2.31116e-05 -0.00585418
-0.014544 1.22656e-05 -0.0101258
-0.00494435 0.00138333 -0.00586016
-0.0151421 0.00401361 -0.00996631
0 0 0
0 0 0
0 0 0
0 0 0
-0.00394863 -0.00263978 -1.07719e-05
-0.0141025 -0.00816177 -9.09701e-06
-0.00422411 -0.00252316 0.00132516
-0.0143826 -0.0081676 0.00409935
-0.00405783 1.53495e-05 -0.00263079
-0.0139035 4.1819e-05 -0.00813551
-0.00366498 -3.85749e-06 0.00266973
-0.0140904 -6.02545e-06 0.00825855
-0.0042214 0.00133089 -0.00259503
-0.014294 0.00398834 -0.00810555
-0.00407502 0.00129473 0.00266785
-0.0144812 0.00422487 0.00818555
-0.00382058 0.00267569 -3.48798e-06
-0.0141097 0.00820019 -3.70018e-05
-0.00415883 0.00261599 0.00125807
-0.0144197 0.00822671 0.00409327
-0.0119992 2.98776e-05 -2.29927e-05
-0.0379047 1.18631e-05 3.59109e-05
0 0 0
0 0 0
0 0 0
0 0 0
0 0 0
0 0 0
0 0 0
0 0 0
-0.00181211 1.58999e-05 0.00350099
-0.00593534 4.33206e-05 0.00735471
-0.00189632 0.000770511 0.00352988
-0.00652468 0.00272246 0.00737544
-0.00473106 -0.00280394 0.00432493
-0.0149293 -0.00810011 0.00613512
-0.00474942 -2.06086e-05 0.0057723
-0.0147083 2.65538e-05 0.0102261
-0.00494537 0.00137064 0.00577092
-0.0153094 0.00414958 0.0100481
-0.00476214 0.00276065 0.00423893
-0.0148912 0.00815231 0.00608371
0 0 0
0 0 0
-0.00455916 0.000124857 0.00709249
-0.00888609 -2.68845e-05 0.00849998
0 0 0
0 0 0
0 0 0
0 0 0
0 0 0
0 0 0
-0.00449607 0.00157534 -0.00696428
-0.00871597 0.00126653 -0.00879157
-0.00414599 0.00218239 -0.00676492
-0.00879585 0.00396517 -0.0092354
-0.00682733 0.00282892 -0.0068299
-0.0125612 0.00711875 -0.00880536
-0.00359559 0.00346328 -0.00527685
-0.00838504 0.00727503 -0.00595243
0 0 0
0 0 0
0 0 0
0 0 0
-0.00228729 0.00254316 -0.00370274
-0.00694031 0.00417629 -0.0073846
-0.00231284 0.00365233 -0.00244914
-0.0070735 0.00737108 -0.00416192
-0.00566516 0.0042908 -0.00581969
-0.0157748 0.00595181 -0.00983115
-0.00590273 0.00578698 -0.00427572
-0.0159432 0.00993767 -0.00606441
-0.0052928 0.0058389 -0.00278469
-0.015083 0.0100669 -0.0020641
0 0 0
0 0 0
0 0 0
0 0 0
0 0 0
0 0 0
0 0 0
0 0 0
-0.00190668 0.00359576 -0.000711535
-0.00645439 0.00746085 -0.00276767
-0.00183087 0.00365059 1.22068e-05
-0.00627288 0.00731568 1.82508e-05
-0.00187804 0.00359143 0.000753204
-0.00639953 0.00745651 0.00281948
-0.00469132 0.00429207 -0.00283423
-0.0148335 0.00600273 -0.0080607
-0.00478082 0.00579026 -1.49625e-06
-0.0147197 0.0101674 5.16915e-05
-0.00501015 0.00581736 0.00137243
-0.0152195 0.0100782 0.00409672
0 0 0
0 0 0
0 0 0
0 0 0
-0.00233 0.00249147 0.00371551
-0.007059 0.00418352 0.00744229
-0.00228516 0.00361211 0.00252039
-0.00700738 0.00734803 0.00420696
-0.00582439 0.00426707 0.00584308
-0.0159791 0.00612425 0.00993132
-0.00560986 0.00585595 0.00431449
-0.0157895 0.00992629 0.00603127
0 0 0
0 0 0
0 0 0
0 0 0
-0.00452676 0.00156125 0.00697069
-0.00878721 0.00127981 0.00877404
-0.00421121 0.0021936 0.00680388
-0.00892049 0.00400432 0.00928658
-0.00360294 0.00347569 0.00529307
-0.00834847 0.00727317 0.00594633
-0.0068667 0.00286742 0.00684671
-0.0126089 0.00720607 0.00878737
0 0 0
0 0 0
-0.012077 0.00546632 -0.00681498
-0.0150404 0.00841946 -0.00841541
-0.00623729 0.00690774 -0.00510136
-0.0110521 0.00862969 -0.00582264
0 0 0
0 0 0
-0.00473469 0.00706631 -0.00245615
-0.00971144 0.00894403 -0.00411105
0 0 0
0 0 0
-0.00441207 0.00704105 -0.000799738
-0.00907287 0.00875554 -0.00267632
-0.00359682 0.00664672 2.59846e-05
-0.00809994 0.00901202 2.83363e-05
-0.00439392 0.00701119 0.000849619
-0.00904107 0.00872402 0.00270995
0 0 0
0 0 0
-0.00470665 0.00703227 0.00244254
-0.00967816 0.00892044 0.00410923
-0.00624369 0.00693048 0.0050625
-0.0110383 0.00863278 0.00578177
-0.0121403 0.00551019 0.00676702
-0.0151002 0.00850327 0.00834811
-0.015728 -0.00981089 -0.0087175
-0.0147155 -0.0101082 -0.00704885
-0.0156881 -0.00848091 -0.0101091
-0.0144469 -0.00695808 -0.0102316
-0.019593 -0.0106813 -0.0108004
-0.0222379 -0.011219 -0.0111952
-0.0187033 -0.00938051 -0.0109074
-0.0213455 -0.00831329 -0.0115645
-0.0124284 -0.0105383 -0.00341907
-0.0122785 -0.0104648 -0.0016766
-0.0129579 -0.00869529 -0.0071527
-0.0129566 -0.00698911 -0.00888376
-0.0180865 -0.0110674 -0.00802525
-0.0218878 -0.0112804 -0.00994561
-0.0174791 -0.0113978 -0.0061566
-0.021344 -0.0118799 -0.00648784
-0.0168493 -0.0115632 -0.00416836
-0.0207966 -0.0123303 -0.00227111
-0.0170222 -0.00968971 -0.00800817
-0.0209843 -0.00829492 -0.0102165
-0.0121997 -0.0104355 0.00176777
-0.012268 -0.0104912 0.0034648
-0.0162693 -0.0115821 5.03424e-05
-0.0205995 -0.0124187 3.45656e-05
-0.0145942 -0.010109 0.00702142
-0.015648 -0.0098477 0.00867226
-0.0127967 -0.00871027 0.00714098
-0.0129144 -0.00703534 0.00892038
-0.0165875 -0.0115492 0.00411833
-0.0206154 -0.0123486 0.00227894
-0.0173993 -0.0113698 0.00611657
-0.0214816 -0.0118674 0.00641076
-0.0179704 -0.0110776 0.00800595
-0.0218239 -0.0112692 0.00995572
-0.016873 -0.00969 0.00799015
-0.0209864 -0.00826754 0.0102567
-0.0156565 -0.00855766 0.0100975
-0.0144548 -0.00702934 0.0102667
-0.019547 -0.0107322 0.010783
-0.0221993 -0.0112196 0.0112126
-0.0186827 -0.00943141 0.0109215
-0.0213517 -0.00830749 0.0116166
-0.0125834 -0.00345763 -0.0105303
-0.0121256 -0.0016914 -0.0105516
-0.0171349 -0.00607151 -0.011486
-0.0209726 -0.00650399 -0.0118797
-0.0126899 -0.00349136 0.010591
-0.0122489 -0.00170151 0.0106095
-0.0172047 -0.00610563 0.011539
-0.0210355 -0.00649968 0.0119393
-0.0120385 0.0017624 -0.0104802
-0.0124716 0.00348233 -0.0104488
-0.0163165 -0.0019858 -0.0116585
-0.0207721 -0.00437761 -0.0120989
-0.016242 3.50206e-05 -0.0117279
-0.0206596 6.64848e-05 -0.0124842
-0.0161783 0.00206795 -0.0115789
-0.0206946 0.00443579 -0.0120687
-0.0121406 0.00181219 0.0105001
-0.0125828 0.00353227 0.0104812
-0.0164484 -0.00201223 0.0117087
-0.0208744 -0.00439256 0.0121499
-0.0163343 4.49334e-05 0.0117555
-0.0206885 3.32404e-05 0.0124892
-0.0163035 0.00213908 0.0116625
-0.0207606 0.00449638 0.0121508
-0.0142711 0.00704645 -0.0101337
-0.0155475 0.00856662 -0.00999666
-0.0127137 0.00707491 -0.0087625
-0.0127773 0.00880805 -0.00707111
-0.0172717 0.00599775 -0.0113471
-0.0213517 0.00639881 -0.0118639
-0.0127827 0.00716505 0.00879123
-0.01273 0.00884823 0.00704747
-0.0143817 0.00716265 0.0101638
-0.0156206 0.00870514 0.0099852
-0.0173979 0.00613434 0.011427
-0.021395 0.00648653 0.0118926
-0.0156005 0.00988065 -0.00865256
-0.0146091 0.0102032 -0.00700754
-0.0185807 0.00942076 -0.0108184
-0.0214431 0.00831321 -0.0115064
-0.0194546 0.0107534 -0.0107158
-0.0221712 0.0112783 -0.0111064
-0.0123603 0.0105956 -0.00342919
-0.012236 0.0105277 -0.00170301
-0.0168447 0.00973028 -0.0079043
-0.0209664 0.00826643 -0.0101334
-0.0179086 0.011119 -0.00794517
-0.0217558 0.0113159 -0.00984085
-0.017312 0.0114643 -0.00612411
-0.0212011 0.0118877 -0.00645058
-0.0167072 0.0115688 -0.00413131
-0.0206473 0.0122572 -0.00222737
-0.0122203 0.010529 0.00173842
-0.0123035 0.0106009 0.00343622
-0.016247 0.0115995 2.58889e-05
-0.0205192 0.0123881 2.46847e-05
-0.0145842 0.0102295 0.00694119
-0.0156274 0.00995988 0.00857192
-0.0168116 0.0097986 0.00789939
-0.0210551 0.00831333 0.0101872
-0.0165683 0.0116237 0.00408271
-0.0205545 0.0123073 0.00223549
-0.0172674 0.011472 0.00605009
-0.0212426 0.011939 0.00636685
-0.0178661 0.0111807 0.00790798
-0.021712 0.011342 0.00989016
-0.0186563 0.00956106 0.0108372
-0.0214806 0.00836049 0.0115702
-0.0194975 0.0108809 0.0106795
-0.022152 0.011301 0.0111551
-0.0250128 -0.0114091 -0.00995493
-0.0250365 -0.0115581 -0.00833285
-0.024921 -0.00999588 -0.0113024
-0.0248722 -0.00843419 -0.0114553
-0.0277173 -0.0112819 -0.0110317
-0.0304696 -0.010741 -0.0106621
-0.0281563 -0.0112854 -0.00977814
-0.0319403 -0.0110551 -0.00789753
-0.0250905 -0.01215 -0.00450605
-0.0251278 -0.012513 -0.00231401
-0.0250843 -0.0101773 -0.00834065
-0.0249973 -0.00835579 -0.0100889
-0.0251017 -0.00855999 -0.00852059
-0.0249826 -0.00443666 -0.0107198
-0.0286659 -0.0117565 -0.00638584
-0.032395 -0.0113422 -0.00603517
-0.0294491 -0.00844374 -0.00839484
-0.0342469 -0.00406931 -0.0100259
-0.0250073 -0.0125976 0.0022333
-0.024994 -0.012338 0.0044481
-0.025112 -0.00910345 -0.00457416
-0.0249352 -0.00462369 -0.00902411
-0.0249374 -0.00896837 0.00457161
-0.0250122 -0.00454794 0.009028
-0.0292266 -0.0121094 -0.00226996
-0.0329932 -0.0114393 -0.00413815
-0.0293279 -0.0123467 -7.46138e-06
-0.0336748 -0.0117179 1.84989e-05
-0.0293627 -0.0123114 0.0022216
-0.0332482 -0.0116274 0.00416684
-0.0303392 -0.00882073 -0.00439748
-0.0353114 -0.00410567 -0.00824822
-0.0301983 -0.00870919 0.00438946
-0.0353878 -0.00406569 0.00819147
-0.0359485 -0.00814768 1.93236e-05
-0.0461872 -0.00269396 5.90762e-05
-0.035784 -0.00817754 0.00207372
-0.045864 -0.00284081 0.00275691
-0.0250736 -0.0115435 0.00835641
-0.0249792 -0.0113556 0.00999335
-0.025107 -0.0101736 0.00840231
-0.0250067 -0.00828164 0.0101805
-0.0250613 -0.00843904 0.00869447
-0.0250716 -0.00436948 0.0108248
-0.0289251 -0.0116907 0.00643725
-0.0326932 -0.0112586 0.00615203
-0.0294833 -0.00837868 0.00841338
-0.0343222 -0.00400474 0.00998893
-0.0249261 -0.00995021 0.0113461
-0.0248809 -0.00837751 0.0115089
-0.0281559 -0.0112128 0.0098462
-0.032041 -0.011004 0.00796797
-0.027714 -0.0111842 0.0111121
-0.0304757 -0.0106456 0.0107252
-0.0249634 -0.00459603 -0.0120037
-0.0249723 -0.00238099 -0.0124378
-0.0285136 -0.00834753 -0.0114542
-0.0313172 -0.00941668 -0.0107872
-0.0289862 -0.0082839 -0.0100564
-0.0329546 -0.00971529 -0.0078697
-0.0287953 -0.00650391 -0.0116774
-0.0325256 -0.006111 -0.0112449
-0.0290065 -0.0044926 -0.0119107
-0.0335362 -0.00218101 -0.0117023
-0.0249878 -0.00453283 0.0120894
-0.0249879 -0.00234373 0.0124816
-0.028983 -0.00822014 0.0100841
-0.0329986 -0.00964403 0.00792074
-0.0285153 -0.00827208 0.0114881
-0.0312974 -0.00932904 0.010819
-0.0288291 -0.00644394 0.0117215
-0.0325797 -0.00605789 0.011256
-0.0290433 -0.00442632 0.011926
-0.0336685 -0.0021308 0.0116463
-0.024937 0.00232636 -0.0127299
-0.0250406 0.00458432 -0.0123161
-0.0246963 0.00460265 -0.00900302
-0.0248285 0.00906233 -0.00452655
-0.0293904 -1.68834e-05 -0.0125395
-0.0338733 -1.02686e-05 -0.0118834
-0.0300697 0.00442111 -0.00881691
-0.0352635 0.00828303 -0.00413554
-0.035917 -2.405e-05 -0.00821344
-0.0461541 4.56971e-06 -0.00262729
-0.035733 0.00207153 -0.00822996
-0.0458631 0.00278024 -0.00279896
-0.0249286 0.00224384 0.0126085
-0.0250281 0.00446832 0.0121849
-0.0250342 0.00459149 0.00897133
-0.0248462 0.00903014 0.00448501
-0.0249161 0.00440975 0.0107962
-0.0248155 0.00854386 0.00853435
-0.0293629 -9.91606e-06 0.0124507
-0.0338843 1.60955e-05 0.0117955
-0.0303469 0.00440397 0.00875389
-0.0352639 0.00820745 0.00410547
-0.0297027 0.00429945 0.010594
-0.0338866 0.00801953 0.00798673
-0.0360384 2.63602e-06 0.00812185
-0.0460064 -2.13656e-05 0.00261504
-0.0353481 9.95851e-06 0.0100994
-0.0452284 -1.09075e-05 0.0058431
-0.0359687 0.00202427 0.00821364
-0.0457436 0.00269361 0.00275601
-0.0350648 0.00204856 0.0100498
-0.0448581 0.00272973 0.00596121
-0.0250491 0.00853273 -0.0114866
-0.0249194 0.0100708 -0.0112812
-0.0249977 0.00855455 -0.0101117
-0.024911 0.0102626 -0.00827616
-0.0248938 0.00878833 -0.00841546
-0.0249054 0.010874 -0.00435281
-0.0290284 0.00451545 -0.012117
-0.0335672 0.00211719 -0.0117218
-0.028883 0.00652368 -0.0118629
-0.032596 0.0061308 -0.0114255
-0.0285391 0.00828781 -0.0114328
-0.0312415 0.00946197 -0.0108095
-0.0289642 0.00829716 -0.0101358
-0.0328078 0.00974261 -0.00788874
-0.029372 0.00847913 -0.00843196
-0.0342094 0.0100788 -0.00406871
-0.0346496 0.00615214 -0.00810434
-0.045343 0.0043203 -0.00278123
-0.0250514 0.0083551 0.0101656
-0.0249738 0.0101728 0.00840638
-0.0250529 0.00832434 0.0114343
-0.0249395 0.00991409 0.0113194
-0.0290965 0.00445677 0.0120226
-0.0336891 0.00208005 0.0116597
-0.0289568 0.00652305 0.0117855
-0.0327904 0.00615317 0.0113956
-0.028914 0.00822045 0.0101611
-0.0328703 0.00974722 0.0079212
-0.0285825 0.00826285 0.0114941
-0.0312416 0.00945563 0.0108461
-0.0338476 0.00610392 0.00990022
-0.0441595 0.00417754 0.00594019
-0.024891 0.0114106 -0.0099098
-0.0248926 0.0115619 -0.00830622
-0.0276621 0.0112688 -0.0111014
-0.0304023 0.0107911 -0.0106956
-0.0280532 0.0112884 -0.00983193
-0.0319027 0.0110621 -0.0078825
-0.0249889 0.0120991 -0.004492
-0.0249188 0.0124695 -0.00228567
-0.0287402 0.0117944 -0.0064417
-0.0326333 0.0113337 -0.0061249
-0.0249351 0.0124886 0.00220356
-0.0249656 0.0122219 0.00441314
-0.0292283 0.0121916 -0.00226043
-0.033299 0.0115598 -0.00410642
-0.0292227 0.0124229 2.52763e-05
-0.0336338 0.0117315 3.40834e-05
-0.0292066 0.0121599 0.00226673
-0.0332951 0.0115061 0.00415384
-0.035795 0.00814989 5.40988e-06
-0.0460351 0.00267949 1.04109e-05
-0.0351103 0.0101238 1.30473e-05
-0.0451465 0.00590297 8.36717e-06
-0.024958 0.0115541 0.00838648
-0.0249156 0.0113775 0.0100222
-0.0289456 0.0117307 0.00647223
-0.0327139 0.0113255 0.00613708
-0.0281231 0.0112433 0.00989258
-0.0319714 0.011097 0.00796296
-0.027715 0.0111937 0.0111637
-0.0304061 0.0107624 0.0107183
-0.034267 -0.00998191 -0.00868326
-0.0351827 -0.0103493 -0.00701406
-0.034265 -0.00866175 -0.0100593
-0.0354532 -0.007151 -0.0102927
-0.0347322 -0.00847729 -0.0083672
-0.0376848 -0.00552477 -0.00666656
-0.0372037 -0.00718192 -0.00882594
-0.0430217 -0.00280202 -0.00682167
-0.0372806 -0.0108906 -0.00345055
-0.0377652 -0.010853 -0.00166452
-0.0369643 -0.00894723 -0.0071806
-0.0369451 -0.00718629 -0.00897176
-0.0386977 -0.00722996 -0.00729752
-0.0389056 -0.00342126 -0.00913332
-0.0388133 -0.0085693 -0.00577187
-0.043764 -0.00690223 -0.0050002
-0.0401319 -0.0088665 -0.00403019
-0.0453435 -0.00686319 -0.00236684
-0.0406788 -0.00873182 -0.00264571
-0.0456267 -0.00686141 -0.000786422
-0.0415499 -0.00721049 -0.00591165
-0.0464183 -0.00339702 -0.0052396
-0.0430692 -0.00733113 -0.0041274
-0.0478282 -0.00345444 -0.00244885
-0.0437817 -0.00750203 -0.00279366
-0.0482599 -0.00351159 -0.000766102
-0.0442802 -0.00568695 -0.00427254
-0.048555 -0.0016483 -0.00241105
-0.0447894 -0.00571538 -0.00269684
-0.0488994 -0.00144637 -0.000750345
-0.0378953 -0.0106642 0.00184359
-0.0375741 -0.0106817 0.00362991
-0.0404559 -0.00730906 -0.00353308
-0.04028 -0.0035317 -0.0072751
-0.0418947 -0.00914197 -3.13399e-06
-0.0464523 -0.00658311 -3.25913e-05
-0.0439723 -0.00758861 6.02442e-06
-0.0482189 -0.0036528 -5.70868e-06
-0.0449961 -0.00590332 1.27034e-05
-0.0488779 -0.00153106 -4.84066e-05
-0.0449162 -0.00590331 0.00135493
-0.0486996 -0.00154592 0.00153593
-0.0353188 -0.0102464 0.00708905
-0.0343288 -0.00991066 0.00871478
-0.0369564 -0.00883717 0.00720761
-0.0369332 -0.00710386 0.00892846
-0.0385948 -0.00716881 0.00727533
-0.0389455 -0.00345905 0.00904796
-0.040788 -0.00881161 0.00269429
-0.0456042 -0.00695975 0.000736091
-0.0401742 -0.008987 0.00407571
-0.0452849 -0.00698594 0.00238275
-0.0388153 -0.00865511 0.00580863
-0.0436983 -0.00694094 0.00506705
-0.04369 -0.00760258 0.00278246
-0.0481567 -0.00364112 0.000735465
-0.0429504 -0.00748085 0.00415419
-0.0477423 -0.00353846 0.00247949
-0.0414596 -0.0073011 0.00594848
-0.0463581 -0.00342374 0.00525212
-0.0440877 -0.00585279 0.00421737
-0.048472 -0.00148852 0.00250061
-0.0342497 -0.00859955 0.0100569
-0.0354553 -0.00708843 0.0102501
-0.0347485 -0.00848883 0.00839877
-0.0376768 -0.00550965 0.00674772
-0.0371951 -0.00719505 0.00883432
-0.0430051 -0.00280153 0.00683399
-0.0372243 -0.0035557 -0.0109036
-0.0376797 -0.00174418 -0.0108458
-0.0408093 -0.00395025 -0.00936767
-0.0457184 -0.00214738 -0.00679567
-0.0428269 -0.00404789 -0.00754175
-0.0477278 -0.00238492 -0.0035892
-0.0433808 -0.00257316 -0.00746972
-0.0481104 -0.000709751 -0.00346455
-0.037338 -0.00347238 0.010742
-0.0377971 -0.00166878 0.0107037
-0.042775 -0.00407354 0.00757923
-0.0476897 -0.00240386 0.00366177
-0.0408165 -0.00398956 0.00939282
-0.0456853 -0.00214308 0.00686369
-0.0433597 -0.00259408 0.00753822
-0.0480449 -0.000717537 0.00361823
-0.0378611 0.00183617 -0.0106965
-0.0373173 0.00363056 -0.0105749
-0.0409306 -0.001181 -0.00891593
-0.0453849 -0.00146722 -0.00695624
-0.0410419 0.000154421 -0.00859745
-0.0453841 2.246e-06 -0.00712503
-0.0441025 3.93835e-05 -0.00758712
-0.0482223 -4.12996e-07 -0.00352463
-0.0450727 3.31129e-05 -0.00587166
-0.0489599 -1.14865e-05 -0.00152155
-0.0413946 0.00124977 -0.00908759
-0.0457849 0.000914271 -0.00698739
-0.0439385 0.0012859 -0.00752925
-0.0480514 0.00148972 -0.0036364
-0.0450947 0.00130525 -0.00593244
-0.0487789 0.00149122 -0.00150475
-0.0379782 0.00179161 0.0106404
-0.037447 0.00353479 0.0105747
-0.0411299 -0.00112895 0.00893799
-0.0453777 -0.00149616 0.00709331
-0.0439657 6.48883e-05 0.00739474
-0.0481416 -7.9388e-06 0.0036015
-0.04117 0.000158708 0.0085761
-0.0453798 -1.18462e-05 0.00721536
-0.0438485 0.00131843 0.00743334
-0.0479828 0.00152584 0.00374072
-0.0415097 0.0012221 0.00906296
-0.0457839 0.000938467 0.00707566
-0.0354754 0.0071532 -0.0102322
-0.0342638 0.00865884 -0.0100772
-0.0369051 0.00714228 -0.00887702
-0.0368943 0.00892993 -0.0071729
-0.0385197 0.0072681 -0.00721834
-0.0388671 0.00918135 -0.00354152
-0.0406952 0.00400143 -0.00935811
-0.0453694 0.0021199 -0.00680176
-0.0427815 0.00416658 -0.00754284
-0.0476673 0.00235791 -0.00379435
-0.0439814 0.00417282 -0.00590777
-0.0484926 0.00236087 -0.0015329
-0.0369832 0.00707301 0.00884697
-0.0369734 0.00882333 0.00708231
-0.0355253 0.00705873 0.0102178
-0.0342966 0.00859394 0.0100669
-0.0426064 0.00410626 0.00751457
-0.0475644 0.00238617 0.00380894
-0.0407119 0.00397792 0.00934349
-0.0452789 0.00218131 0.00690076
-0.03419 0.00997008 -0.00869765
-0.0351361 0.0103427 -0.00707584
-0.0371717 0.00718409 -0.00890643
-0.0428652 0.00289603 -0.00686818
-0.0347038 0.00847712 -0.00851845
-0.0376189 0.00555037 -0.00682909
-0.0372815 0.0108858 -0.00350098
-0.0376776 0.0108329 -0.00167991
-0.041407 0.00734782 -0.0060206
-0.0463545 0.00353687 -0.00525499
-0.0426303 0.00744274 -0.0041951
-0.0476453 0.00342713 -0.0025338
-0.0433558 0.00757255 -0.00275237
-0.0480395 0.00348785 -0.000708879
-0.0387053 0.00868505 -0.00588621
-0.0436102 0.00700838 -0.0051336
-0.0399557 0.00904344 -0.00414808
-0.045174 0.00706421 -0.00244956
-0.0404903 0.00887495 -0.00268314
-0.0454344 0.00706669 -0.000764349
-0.0376415 0.0108224 0.00174088
-0.0373247 0.0108914 0.0034911
-0.0437508 0.00740179 2.54892e-05
-0.0481614 0.00369793 1.39356e-05
-0.0418644 0.00908529 4.73686e-05
-0.0464082 0.00672999 1.33552e-05
-0.03524 0.0102334 0.00698056
-0.0342219 0.00989998 0.00864603
-0.0433107 0.00743779 0.0028318
-0.0480329 0.0034237 0.000764608
-0.0425992 0.00730969 0.00426377
-0.0475988 0.00342038 0.00260744
-0.0414782 0.00723609 0.0060364
-0.0463101 0.00356453 0.0053284
-0.0405321 0.00881234 0.002761
-0.0454233 0.00705274 0.000811683
-0.0401557 0.00899283 0.00420701
-0.0452313 0.00706206 0.0024999
-0.0388527 0.0086094 0.00587918
-0.04362 0.00702062 0.00513289
-0.0372504 0.00715482 0.00890479
-0.0428385 0.0029733 0.00693098
-0.0348093 0.00845454 0.00850392
-0.0377306 0.00559577 0.00684673
-0.05 0 0
-0.05 0 0
-0.05 0 0
-0.05 0 0
-0.05 0 0
-0.05 0 0
-0.05 0 0
-0.05 0 0
-0.05 0 0
-0.05 0 0
-0.05 0 0
-0.05 0 0
-0.05 0 0
-0.05 0 0
-0.05 0 0
-0.05 0 0
-0.05 0 0
-0.05 0 0
-0.05 0 0
-0.05 0 0
-0.05 0 0
-0.05 0 0
-0.05 0 0
-0.05 0 0
-0.05 0 0
-0.05 0 0
-0.05 0 0
-0.05 0 0
-0.05 0 0
-0.05 0 0
-0.05 0 0
-0.05 0 0
-0.05 0 0
-0.05 0 0
-0.05 0 0
-0.05 0 0
-0.05 0 0
-0.05 0 0
-0.05 0 0
-0.05 0 0
-0.05 0 0
-0.05 0 0
-0.05 0 0
-0.05 0 0
-0.05 0 0
-0.05 0 0
-0.05 0 0
-0.05 0 0
-0.05 0 0
-0.05 0 0
-0.05 0 0
-0.05 0 0
-0.05 0 0
-0.05 0 0
-0.05 0 0
-0.05 0 0
-0.05 0 0
-0.05 0 0
-0.05 0 0
-0.05 0 0
-0.05 0 0
-0.05 0 0
-0.05 0 0
-0.05 0 0
-0.05 0 0
-0.05 0 0
-0.05 0 0
-0.05 0 0
-0.05 0 0
-0.05 0 0
-0.05 0 0
-0.05 0 0
-0.05 0 0
-0.05 0 0
-0.05 0 0
-0.05 0 0
-0.05 0 0
-0.05 0 0
-0.05 0 0
-0.05 0 0
-0.05 0 0
-0.05 0 0
-0.05 0 0
-0.05 0 0
-0.05 0 0
-0.05 0 0
-0.05 0 0
-0.05 0 0
-0.05 0 0
-0.05 0 0
-0.05 0 0
-0.05 0 0
-0.05 0 0
-0.05 0 0
-0.05 0 0
-0.05 0 0
-0.05 0 0
-0.05 0 0
-0.05 0 0
-0.05 0 0
-0.05 0 0
-0.05 0 0
-0.05 0 0
-0.05 0 0
-0.05 0 0
-0.05 0 0
-0.05 0 0
-0.05 0 0
-0.05 0 0
-0.05 0 0
-0.05 0 0
-0.05 0 0
-0.0368122 0.00868617 -0.00772949
-0.040762 0.00451842 -0.00692782
-0.0214991 -0.0115442 0.00837746
-0.0444144 0.00712743 -0.00357576
-0.05 0 0
-0.0452494 0.00505019 -0.00520357
0 0 0
-0.05 0 0
0 0 0
-0.0163481 0.0116089 -0.00202867
-0.05 0 0
-0.0456344 -1.88773e-05 0.0041987
-0.0187343 0.0108304 -0.00941041
-0.0217469 0.00994114 -0.011241
-0.05 0 0
-0.0411638 -0.00243283 0.0092149
-0.0471798 -0.00139015 0.00518412
-0.0129704 -0.0086164 -0.00767565
-0.0091812 -0.00459065 -0.00688553
-0.0206526 -0.00218397 -0.0122725
-0.0320213 -0.00789361 -0.0109974
-0.0217832 -0.00990488 -0.011318
-0.0188853 -0.0107611 -0.00950018
-0.00859555 0.00894977 0.00152627
-0.00284382 -0.0035662 -0.00368844
-0.0179626 -0.00787863 -0.0111558
-0.0179242 -0.00947764 -0.00956856
0 0 0
-0.0471168 -0.000750271 0.00519915
-0.05 0 0
-0.0453494 -0.000671443 0.00716405
-0.0104533 0.005681 -0.00914733
0 0 0
-0.0047173 -0.00509766 -0.00516551
-0.0054626 -0.00711565 -0.00350985
-0.00369103 -0.00506626 -0.00363172
-0.0213843 0.0115512 -0.00828756
-0.02139 0.00995859 -0.00987903
-0.0046232 -0.00285751 -0.00427671
-0.05 0 0
-0.00507263 -0.00571207 -0.00137084
0 0 0
-0.00452757 0.000781601 -0.00701754
0 0 0
-0.0319307 0.00793281 -0.0110346
-0.0410397 0.00547615 0.00359692
-0.0207762 -0.0121759 0.00436741
-0.0392103 0.00569151 0.00922936
-0.0311268 0.010812 0.00942014
-0.0281315 0.00986446 0.011265
-0.020976 0.0101784 -0.00825625
-0.00881983 -0.00246146 -0.00910119
-0.00336253 -0.00235832 -0.00530836
-0.0105311 0.00575324 0.00916246
0 0 0
-0.00541337 -0.00709123 0.00347165
0 0 0
-0.00365332 -0.00504676 0.00363132
-0.05 0 0
-0.0101524 0.00716237 -0.00774203
-0.0129184 0.00861644 -0.00762385
-0.00896109 0.00442771 -0.00689017
-0.00463981 0.00496311 -0.00517559
-0.00545498 0.00706977 -0.00356428
-0.0036728 0.00502037 -0.00366002
0 0 0
0 0 0
-0.00295834 0.0024494 -0.00513342
-0.00282311 0.00355747 -0.00369199
-0.00829097 0.00570297 -0.00760968
0 0 0
0 0 0
-0.00282947 -0.00139536 -0.00513302
0 0 0
-0.00266165 -0.000580495 -0.00497005
-0.00273147 6.81192e-05 -0.00499105
-0.00443937 -0.000457659 -0.0070199
0 0 0
-0.00454386 0.000777042 0.00700618
-0.0215413 -0.011549 -0.00838252
-0.0211059 -0.010203 -0.00836455
-0.0214749 -0.00993881 -0.0099713
-0.00899945 0.00447081 0.00687562
-0.0101674 0.00719711 0.00772413
-0.0129525 0.00865031 0.00756969
-0.0333301 0.00415999 0.0115482
0 0 0
-0.00322895 0.00512475 -0.00245321
0 0 0
-0.0029283 0.00505977 -0.00149692
-0.00466832 0.00709171 -0.00155341
-0.0481121 0.0007461 0.00366097
0 0 0
-0.0046397 -0.00707328 -0.00151863
-0.0141445 0.00826931 0.00205819
-0.00876381 0.00255783 0.00906217
-0.00275458 0.00148327 0.0050966
-0.00275842 0.000784075 0.00504135
-0.00860216 -0.00890226 -0.00144584
-0.00275324 -0.00504879 -0.000739496
-0.00890666 -0.00249849 0.00916371
0 0 0
-0.00274711 0.00505809 0.000810228
-0.00464063 0.00704924 0.00158192
0 0 0
-0.00289758 0.00499989 0.00152775
-0.00202073 0.00362567 0.00161887
-0.00320186 0.0050768 0.00247544
-0.0104181 -0.00892772 -0.00170491
-0.0164291 -0.0116063 -0.00202459
-0.00627966 -0.00727303 -0.00128083
-0.00868279 0.00255346 -0.00905058
-0.00273859 0.00150662 -0.00509564
-0.00276585 0.000822174 -0.00509579
-0.00832683 0.00573502 0.00761985
-0.00299567 0.00244087 0.00516391
-0.00674661 0.00576604 0.00584281
-0.00281324 0.00353094 0.00373358
0 0 0
-0.00464386 0.00497736 0.00516421
-0.00544571 0.00706392 0.0035346
-0.00366204 0.00500377 0.00365863
-0.00281444 -0.00356553 0.00375474
-0.00337327 -0.002397 0.00534535
-0.0046949 -0.00511893 0.00514674
-0.00916091 -0.00465719 0.00685971
-0.0128915 -0.00864573 0.00761291
-0.0466931 0.00502376 0.00252772
-0.05 0 0
-0.00458871 0.00415591 0.00131063
0 0 0
-0.00449184 0.00266982 0.00268966
-0.0413892 0.00565796 0.00773474
-0.0471015 0.00343756 0.00381545
-0.010795 -0.00563932 -0.00920428
-0.00859092 -0.00562722 -0.00772004
-0.0142296 -0.00853219 -0.00874542
-0.0103049 -0.00713646 -0.00783792
-0.0311874 -0.0107158 0.00941145
-0.0281448 -0.00985394 0.0112363
-0.0409148 8.07469e-06 -0.0072662
-0.00288857 -0.0014261 0.00519171
-0.0018648 -0.000730084 0.0036239
0 0 0
-0.045336 -0.00066265 -0.00707037
-0.05 0 0
-0.0102714 -0.00176143 -0.00897107
-0.0048594 -0.00136604 -0.00582813
-0.00182725 -0.000725855 -0.0036108
-0.0114067 0.00895184 -0.00536979
-0.0208853 0.0120779 -0.00440759
-0.0167277 -0.00409457 0.0116329
-0.00668573 -0.00271478 0.00747077
0 0 0
-0.0020483 -0.0036293 -0.00154723
-0.00322657 -0.00513281 -0.00243472
-0.00291798 -0.00504565 -0.00147903
-0.05 0 0
-0.05 0 0
-0.0451967 0.00709018 -0.00159863
-0.00853492 -0.00885777 0.00155963
-0.00256091 -0.00504275 5.14968e-05
-0.0187948 -0.0107856 0.00947979
-0.0214404 -0.00991066 0.00998293
-0.0217697 -0.00990319 0.0113475
-0.00315816 -0.00504802 0.00247292
0 0 0
-0.017861 -0.00950547 0.00957385
-0.0179783 -0.00792613 0.0112056
-0.0109193 -0.00358454 0.0090743
-0.0104472 -0.00176907 0.00904865
-0.0207587 -0.00221816 0.0123114
-0.0116872 -0.00532258 0.00909158
-0.0169445 -0.00789413 0.00984954
-0.00688571 -0.00566046 0.00595568
-0.0444754 0.00587257 -0.00281183
-0.0444547 0.00711485 0.00359259
-0.05 0 0
-0.0462553 0.00502262 0.00371157
-0.0329946 -0.00787641 -0.00966654
-0.0330071 -0.0041696 -0.0114778
0 0 0
-0.00449769 -0.000440095 0.00706857
-0.00273135 6.28064e-05 0.00494898
-0.0027033 -0.000579349 0.00501403
-0.0217722 0.00997667 0.0112889
-0.01872 0.0109143 0.00937832
0 0 0
-0.00270543 -0.00499346 0.000838908
-0.00456698 -0.00699184 0.00158123
-0.00285086 -0.00494355 0.00154391
-0.0281455 -0.00994432 -0.0111824
-0.031155 -0.0107827 -0.0093501
-0.0320669 -0.00950628 -0.00942264
-0.0400921 0.0073806 -0.00359892
-0.0411144 0.00558827 -0.00361576
-0.0396981 0.00904021 1.88162e-05
-0.0290018 -0.0119739 -0.00440445
-0.0103042 -0.00888767 0.00178727
-0.0102516 -0.00889281 5.31127e-05
-0.00620472 -0.00722563 0.0013707
-0.0163106 -0.0116046 0.00208388
-0.0155101 -0.00408294 0.0101294
-0.0157722 -0.0079999 0.00815924
-0.0210567 -0.0101684 0.00833637
-0.0112147 -0.00710876 0.00732067
-0.0139841 -0.0042026 0.00620581
-0.0150408 -0.00613275 0.00821232
-0.0146209 -0.0041621 0.00820406
-0.00506164 -0.00142405 0.00580758
-0.00442611 -0.00267844 0.00278365
0 0 0
-0.0141027 -0.00822101 0.00208055
-0.00455076 -0.00410143 0.00135022
-0.0148237 -0.0100848 0.00212225
-0.00508136 -0.0042401 0.00440458
-0.00477877 -0.00419932 0.00281118
0 0 0
-0.00517258 -0.005803 0.00287609
-0.0112304 -0.00883546 0.0054346
-0.0106491 -0.00894467 0.00360561
-0.00199781 -0.00357034 0.00166408
-0.0392377 0.00356829 0.00903771
-0.0292418 0.00221982 0.01225
-0.0397363 0.00176424 0.00903658
-0.0345554 0.00410401 0.00999889
-0.05 0 0
-0.0471928 -8.82568e-07 0.00507497
-0.0472651 0.000625918 0.00507157
-0.0455027 0.000515 0.007133
-0.0392768 -0.00574444 0.00922473
-0.0396417 -0.00719688 0.00776921
-0.0408511 -0.00445255 0.00687257
-0.0369003 -0.00865401 0.00763108
-0.032012 0.00954654 0.00949096
-0.0357302 0.0086277 0.00869484
-0.0319555 0.00795106 0.0111016
-0.047143 0.00140906 0.00521024
-0.0412253 0.00249371 0.00916877
-0.0434431 0.00267008 0.0074729
-0.0467294 0.00232148 0.0053862
-0.0414623 -0.0056964 0.00764794
-0.0469761 -0.00234148 0.00516093
-0.0453072 -0.00496507 0.00514946
-0.05 0 0
-0.0445064 -0.00707345 0.00351058
-0.0462967 -0.00498104 0.00360887
-0.05 0 0
-0.047195 -0.00346838 0.00368915
-0.0468197 -0.00499622 0.00241349
-0.0213596 0.0115676 0.0082971
-0.0214129 0.00998818 0.00992237
-0.0114407 0.00539708 0.00895758
-0.00205211 0.00156985 0.00363389
-0.00533858 0.00282469 0.00578627
-0.0149636 0.00618184 0.00809431
-0.0143806 0.00623351 0.00611646
-0.0140079 0.00420411 0.00622326
-0.0166258 0.00418025 0.0115703
-0.0107264 0.00359217 0.00897384
-0.00624157 0.0013281 0.00724625
-0.0206021 0.00229967 0.0123455
-0.010345 0.00178473 0.00896567
-0.0101404 3.05514e-05 0.00900237
-0.0142011 0.00212878 0.00830075
-0.00441966 0.00136183 0.00421764
-0.0148552 0.00213107 0.0101651
-0.00421496 -1.13212e-05 0.00421872
-0.00480303 0.00423806 0.00277195
0 0 0
-0.00520838 0.00588299 0.00281755
-0.00508826 0.00427238 0.00432368
-0.0284808 0.0098786 0.00991933
-0.024961 0.00997813 0.010001
-0.0285155 0.0114431 0.00831555
-0.0180069 0.00802187 0.0111164
-0.0140902 0.00871356 0.00862265
-0.0169056 0.00800097 0.00974271
-0.017812 0.00964457 0.00948502
-0.0140655 0.00862816 -0.00863786
-0.0179004 0.00788283 -0.0110581
-0.0177802 0.00952355 -0.00946309
-0.0292643 -0.00225871 0.0121729
-0.0292953 -0.00632756 0.0102789
-0.0250714 -0.00644534 0.0104985
-0.0320055 -0.00782681 0.0110207
-0.0357071 -0.00866989 0.00874438
-0.0320796 -0.00942881 0.00945997
-0.0340573 -0.00798206 0.00801492
-0.029072 -0.0119599 0.0043957
-0.02968 -0.00433095 0.0104733
-0.0298785 -0.00856913 0.0064796
-0.0248714 -0.00874512 0.00672912
-0.0209874 0.0102086 0.0082742
-0.015687 0.00806536 0.00804528
-0.0112201 0.00895138 0.00536944
-0.0110945 0.00722905 0.00719369
-0.00625187 0.00733625 0.00134454
-0.010288 0.0089608 2.8238e-05
-0.0163038 0.0116369 0.00205405
-0.0435866 0.00752587 -0.00130163
-0.0412273 0.00907002 -0.0014706
-0.0471534 0.00506952 -0.000779151
-0.0135258 0.00424121 0.00420618
-0.034763 0.00815948 0.00606481
-0.030131 0.00871726 0.00440822
-0.0334855 0.011618 0.0021039
-0.0383407 0.00534195 0.00900225
-0.0429986 0.00564792 0.00591617
-0.0328976 0.00793193 0.00971669
-0.0385671 0.00716587 0.00719143
-0.028878 0.0100845 0.00833536
-0.0292928 0.00638487 0.0103773
-0.0248825 0.00648856 0.0104629
-0.0210153 -0.0121243 -0.00444128
-0.011555 -0.00886939 -0.00541077
-0.0108436 -0.00894595 -0.00358177
-0.03689 -0.00859873 -0.00760443
-0.0408602 -0.00444738 -0.0068342
-0.00860629 0.00896869 -0.00147652
-0.00258915 0.00510566 1.75608e-05
-0.00627379 0.00735264 -0.00130603
-0.00276442 0.00508957 -0.000770114
-0.0361305 -0.004111 0.0062324
-0.0399279 2.16103e-05 0.00902588
-0.0302456 -0.00439081 0.00869416
-0.0446752 -0.0059551 0.00272842
-0.0336588 -0.0115986 0.00209556
-0.0402711 -0.00723838 0.00360892
-0.041088 -0.003572 0.00549106
-0.034814 -0.00807561 0.00613717
-0.044506 -0.00270484 0.005836
-0.0436399 -0.00122226 0.00741575
-0.0439939 -0.00419216 0.00585478
-0.0479059 -0.00146783 0.00363309
-0.0431372 -0.00575319 0.00585206
-0.0104087 0.00898231 -0.00173103
-0.0107689 0.00899692 -0.00357585
-0.0020353 0.00366222 -0.00155569
-0.0411765 0.00901157 0.00155293
-0.0473899 0.00513696 6.76895e-06
-0.043498 0.00744706 0.00136621
-0.02482 0.00879111 0.0065831
-0.0291606 0.0119654 0.00442725
-0.0297508 0.00862443 0.00650414
-0.0292983 0.00844622 0.00845142
-0.0452176 0.00707829 0.0016536
-0.0470381 0.00492265 0.00156567
-0.05 0 0
-0.0471253 0.00503327 0.000819572
-0.0458695 0.00131836 0.0026706
-0.0365955 0.00414447 0.00420858
-0.0360641 0.00621787 0.00417328
-0.0471891 -0.000706413 -0.00504398
-0.0410626 -0.00244429 -0.00916929
-0.0360414 0.0062932 -0.0041774
-0.0460311 0.00137424 -0.00270403
-0.0456192 0.0042749 1.21335e-06
-0.0356642 0.00871282 -0.00874124
-0.0391829 0.00572479 -0.00922992
-0.0413718 0.00572891 -0.00770992
-0.0395886 0.00723595 -0.00785835
-0.0108021 -0.00572192 0.00923338
-0.0141509 -0.00856819 0.00873228
-0.00856347 -0.00567172 0.00775564
-0.0102403 -0.00717099 0.00781873
-0.0139771 0.00202328 -0.00815668
-0.0462483 0.00501784 -0.00366566
-0.05 0 0
-0.0471394 0.00343849 -0.00374137
-0.039697 -0.00715398 -0.00775415
-0.0357237 -0.00874807 -0.00874916
-0.0392836 -0.00572598 -0.00921808
-0.033532 0.0116589 -0.00206546
-0.0455302 0.00134824 0.00423951
-0.0451123 0.00133673 0.00590725
-0.05 0 0
-0.013376 0.00418839 -0.00417194
-0.0365562 0.00421194 -0.0041956
-0.0249462 0.0048708 1.80843e-05
-0.0435295 0.00266804 -0.00754129
-0.0411724 0.00253591 -0.00917722
-0.0468565 0.00228869 -0.00527941
-0.0471974 0.00139213 -0.00510553
-0.05 0 0
-0.038214 0.00913901 -0.00539692
-0.0338722 0.00808006 -0.00798727
-0.0328777 0.00792692 -0.00968478
-0.0336163 0.00997319 -0.00601572
-0.0366744 -0.00415263 0.00418926
-0.0250762 9.79776e-06 0.00482138
-0.0134996 -0.00420699 0.00420183
-0.0396541 0.00716187 0.00785562
-0.036941 0.00862968 0.00769706
-0.0452297 0.00507619 0.00523649
-0.0408004 0.00457405 0.00694797
-0.0470577 0.00492514 -0.00150965
-0.0467117 0.00500771 -0.00247413
-0.05 0 0
-0.029229 0.0103627 -0.00637462
-0.0290617 0.0120186 -0.00442028
-0.0319862 0.00955549 -0.00946018
-0.0280716 0.00992227 -0.0112219
-0.0311158 0.0108334 -0.0093794
-0.00435087 -0.00415618 -1.41094e-05
-0.013933 -0.00616643 -0.00421324
-0.04792 0.00340306 -0.00157289
-0.0481618 0.00235175 -0.00256502
-0.0430308 0.00577535 -0.00592555
-0.0439383 0.00582619 -0.00431271
-0.0460304 -0.00277135 0.00138075
-0.0407053 -0.00728548 0.00179927
-0.0480074 -0.00355554 0.00153925
-0.05 0 0
-0.0481714 -0.00238645 0.0025234
-0.0484231 -0.0024608 0.00156528
-0.0288224 0.0101526 -0.00823226
-0.0249114 0.0100841 -0.00992392
-0.0284322 0.00993342 -0.00985771
-0.0284502 0.0115262 -0.00827961
-0.0478996 0.0033877 0.00163802
-0.0397222 0.00542225 0.00723852
-0.0453913 0.00272844 0.00432941
-0.0405103 0.00548597 0.0053837
-0.011116 0.00716068 -0.0071803
-0.00675187 0.00577704 -0.0058469
-0.0168146 0.00785768 -0.00968898
-0.0156693 0.00799968 -0.00801517
-0.0249705 0.0105475 -0.00641629
-0.0153884 0.0100304 -0.00408412
-0.0108103 -0.00354838 -0.0090158
-0.00660083 -0.00268521 -0.00740651
-0.0166095 -0.00406517 -0.0115793
-0.0165034 0.00405542 -0.0115201
-0.00620491 0.00133442 -0.0073031
-0.0138673 0.0061455 -0.0041927
-0.00430617 0.00422631 -2.02713e-05
-0.0149264 0.00807573 -0.00614223
-0.0144988 0.00811699 -0.00416327
-0.00503338 0.00579976 -0.00140042
-0.00440067 0.00276704 -0.00273718
-0.00453271 0.0013396 -0.00419934
0 0 0
-0.00504172 0.00433258 -0.00428938
-0.00475055 0.00277273 -0.00426487
0 0 0
-0.01061 0.00351161 -0.0089684
-0.0112584 0.00530984 -0.0088605
-0.0051786 0.00282241 -0.00586968
-0.00203624 0.00164841 -0.00365502
0 0 0
-0.00412848 -0.00134845 -0.00271127
-0.00439475 1.40001e-05 -0.00422178
-0.00444705 -0.00139141 -0.00423322
-0.0331915 0.00421528 -0.0115626
-0.039523 0.00542135 -0.00723211
-0.0447126 0.00266356 -0.00593915
-0.0484905 0.00151998 -0.0024498
-0.0481746 0.000752504 -0.00352713
-0.05 0 0
-0.0486372 -0.00240052 -0.000782111
-0.0285768 -0.0114282 0.00829371
-0.0250171 -0.00996073 0.00999763
-0.0290313 -0.0100701 0.0082914
-0.0285529 -0.00985205 0.00986829
-0.010044 2.67132e-05 -0.00899315
-0.0205319 0.00226759 -0.012256
-0.014751 0.00203899 -0.0100116
-0.0102549 0.00172768 -0.00894616
-0.0291539 0.00225364 -0.0123455
-0.040779 0.00177019 -0.00730321
-0.0353129 0.00413953 -0.00820368
-0.040326 0.00358369 -0.00729223
-0.0133558 -0.00415348 -0.00422654
-0.0248872 1.93421e-05 -0.00478992
-0.0366376 -0.00422157 -0.00417811
-0.0251216 -0.00482809 -2.70954e-05
-0.0416278 -0.00355613 -0.00357176
-0.0408691 -0.00726726 4.99329e-05
-0.0116426 -0.00527828 -0.00903954
-0.0113674 -0.00707953 -0.00727389
-0.0169757 -0.0078641 -0.00980898
-0.00697499 -0.00565023 -0.00590328
-0.0250158 -0.0100206 -0.00994671
-0.0285091 -0.0114776 -0.00823285
-0.0285317 -0.00992811 -0.00981703
-0.0485735 0.000784523 -0.00238875
-0.0488234 0.000716698 -0.00146403
-0.05 0 0
-0.05 0 0
-0.0472265 -0.0013871 -0.00504507
-0.0300738 0.00876342 -0.00442616
-0.0246893 0.00677368 -0.008749
-0.0297094 0.00654264 -0.00864637
-0.0295684 0.0105387 -0.00434308
-0.05 0 0
-0.0336735 -0.00602701 -0.00985147
-0.0340304 -0.00804313 -0.00799381
-0.0290013 -0.0101374 -0.00825346
-0.0207221 0.0121728 0.00432958
-0.0106859 0.00904398 0.00356725
-0.0148971 0.0101171 0.00211069
-0.010372 0.00897849 0.00177483
-0.0154842 -0.0100457 -0.00412159
-0.014318 -0.00616215 -0.0062656
-0.0382806 -0.00537151 -0.00916483
-0.0436561 -0.00120542 -0.00740893
-0.05 0 0
-0.0453745 -0.00691163 -0.00155371
-0.0329894 -0.00781174 0.00968217
-0.0382727 -0.00533045 0.00907148
-0.0331463 -0.00412243 0.0114687
-0.0337518 -0.00598084 0.00984858
-0.05 0 0
-0.0468914 -0.00486343 -0.0023943
-0.0472177 -0.00479978 -0.00146857
-0.0449944 -0.00579611 -0.00130577
-0.0458692 -0.00267425 -0.00277748
-0.048799 -0.00158045 -0.00150406
-0.0454745 -0.00275615 -0.00429009
-0.0446672 -0.00273808 -0.00580852
-0.0486092 2.5357e-05 -0.00241537
-0.0453358 -0.00702532 0.00153529
-0.05 0 0
-0.0471467 -0.00495435 0.00147434
-0.0150176 -0.0061242 -0.00821697
-0.0158782 -0.00802067 -0.00814462
-0.0153763 -0.00402862 -0.0100841
-0.034896 -0.00819424 -0.00604561
-0.0355067 -0.00820221 -0.00405
-0.0398305 -0.00731511 -0.00540545
-0.0334112 -0.0115719 -0.00207129
-0.0299052 -0.00865335 -0.0064872
-0.0250954 -0.00883642 -0.00665437
-0.0301062 -0.00447527 -0.00875329
-0.0295962 -0.00439904 -0.0105022
-0.0250432 -0.00652636 -0.0103692
-0.0292756 -0.00640961 -0.0102644
-0.0292198 -0.00231227 -0.0122068
-0.0485444 -0.00245762 0.000763827
-0.0485582 -0.00242466 -4.00949e-07
-0.05 0 0
-0.0488178 -0.00152439 0.000715522
-0.0414021 -0.00896758 -0.0015036
-0.0473319 -0.00489714 -0.000774054
-0.0439513 -0.0074838 -0.00133184
-0.0472687 -0.00504963 0.000750709
-0.0475041 -0.00502867 -2.07112e-05
-0.0438754 -0.00756883 0.00132662
-0.0414405 -0.0090466 0.00152226
-0.0479629 -0.00146542 -0.00351482
-0.0441574 -0.00414429 -0.00584564
-0.05 0 0
-0.0472568 1.4153e-05 -0.00495918
-0.0455182 0.000524197 -0.00703272
-0.0473508 0.000604202 -0.00492081
-0.0484965 -0.00238744 -0.00153182
-0.0482763 -0.00243343 -0.002494
-0.0481007 -0.00343569 -0.0015304
-0.05 0 0
-0.0415272 -0.00565787 -0.00763909
-0.0432808 -0.00567464 -0.00586786
-0.047005 -0.00234123 -0.00508383
-0.047276 -0.00341312 -0.0036557
-0.05 0 0
-0.0445704 -0.00698193 -0.00347074
-0.0453701 -0.00491365 -0.00511261
-0.0463625 -0.00486723 -0.00359173

CELL_DATA 236
TENSORS stress float
-8372.07 909.794 -1314.26
909.794 -3739.89 143.168
-1314.26 143.168 -648.872

-8056.36 216.579 -130.398
216.579 462.69 460.103
-130.398 460.103 1182.22

-10333.8 -787.828 1164.15
-787.828 -3812.66 -2608.44
1164.15 -2608.44 -5786.33

-9572.43 -2.42594 -95.9823
-2.42594 -1588.04 -3.54153
-95.9823 -3.54153 -1477.38

-9913.76 -1582.26 -1556.86
-1582.26 -4245.12 1444.82
-1556.86 1444.82 -5247.75

-9906.01 765.12 -1766.93
765.12 -6783.15 -629.302
-1766.93 -629.302 -4090.31

-9272.43 -577.785 -795.622
-577.785 -4043.93 223.571
-795.622 223.571 -3683.07

-8769.6 -463.042 -25.1103
-463.042 -358.944 5.5502
-25.1103 5.5502 372.04

-9464.37 -23.081 96.3713
-23.081 -1637.68 -93.9693
96.3713 -93.9693 -1330.38

-8112.44 -329.275 -542.178
-329.275 -3308.4 139.58
-542.178 139.58 -2847.12

-7782.6 -288.9 269.609
-288.9 498.704 311.655
269.609 311.655 464.845

-9599.64 -637.568 -1907.92
-637.568 -6901.31 529.112
-1907.92 529.112 -3852.38

-9379.61 346.984 -3.01803
346.984 -3764.08 -231.761
-3.01803 -231.761 -1220.09

-8441.41 925.955 1296.31
925.955 -3754.87 -146.855
1296.31 -146.855 -720.665

-8793.78 97.6087 443.358
97.6087 1273.77 -16.8689
443.358 -16.8689 -252.811

-7998.3 -453.412 -523.895
-453.412 972.3 -464.055
-523.895 -464.055 292.316

-7731.07 332.253 238.081
332.253 474.822 -325.427
238.081 -325.427 490.503

-9496.73 36.1889 33.9926
36.1889 -1847.73 181.215
33.9926 181.215 -3927.82

-9237.96 -41.3022 -66.6955
-41.3022 25.6209 -344.992
-66.6955 -344.992 411.211

-9870.48 -232.958 -176.066
-232.958 -3434.97 519.774
-176.066 519.774 -2253.76

-8078.06 422.988 456.118
422.988 847.23 -412.113
456.118 -412.113 230.885

-9829.79 848.872 -1774.75
848.872 -6705.81 -648.042
-1774.75 -648.042 -4212.48

-9790.18 176.892 -1460.61
176.892 -7948.42 -446.392
-1460.61 -446.392 -2258.88

-8155.45 -600.471 866.92
-600.471 142.192 -127.951
866.92 -127.951 692.794

-9352.62 -112.23 -139.169
-112.23 -284.864 -160.445
-139.169 -160.445 -251.207

-10258.3 -849.872 -1180.4
-849.872 -3701.26 2582.65
-1180.4 2582.65 -5706.39

-8072.93 -131.156 192.332
-131.156 285.042 434.523
192.332 434.523 998.533

-9679.26 588.745 -365.125
588.745 -3080.9 -182.937
-365.125 -182.937 -4040.33

-9334.35 -190.212 -111.619
-190.212 -999.586 18.2751
-111.619 18.2751 -1158.69

-9853.42 -1564.11 -1654.34
-1564.11 -4148.16 1488.7
-1654.34 1488.7 -5194.58

-9569.1 -151.605 -144.85
-151.605 -1906.11 50.1761
-144.85 50.1761 -2029.98

-8749.5 331.3 280.368
331.3 121.893 -371.204
280.368 -371.204 523.515

-9840.38 242.792 -1453.8
242.792 -7897.98 -494.003
-1453.8 -494.003 -2525.63

-9307.99 151.131 62.1118
151.131 -390.307 -66.7241
62.1118 -66.7241 -912.286

-9879.99 -1586.15 1574.23
-1586.15 -4275.25 -1460.58
1574.23 -1460.58 -5270.09

-8086.24 432.43 -458.817
432.43 805.586 459.799
-458.817 459.799 149.031

-9228.54 251.118 182.388
251.118 -26.9945 -166.051
182.388 -166.051 13.2967

-8719.56 444.178 -97.7536
444.178 -322.836 203.947
-97.7536 203.947 1249.64

-8185.84 504.788 922.358
504.788 238.072 127.828
922.358 127.828 667.103

-7721.59 354.671 236.687
354.671 473.732 -307.982
236.687 -307.982 506.76

-8805.28 -396.798 304.022
-396.798 50.8209 317.871
304.022 317.871 305.419

-9577.56 -404.328 63.4512
-404.328 -3512.8 271.809
63.4512 271.809 -1726.37

-8159.63 -556.383 -903.826
-556.383 180.268 140.624
-903.826 140.624 709.71

-9370.03 -36.6105 -115.671
-36.6105 -1270.06 86.9101
-115.671 86.9101 -1307.16

-9865.24 1573.05 -1573.96
1573.05 -4258.52 -1420.65
-1573.96 -1420.65 -5139.64

-10251.1 -866.779 1179.9
-866.779 -3681.45 -2581.3
1179.9 -2581.3 -5751.92

-8789.74 776.283 628.907
776.283 -5554.35 207.847
628.907 207.847 -5895.83

-8511.98 -889.969 1248.86
-889.969 -3726.61 153.976
1248.86 153.976 -904.545

-10262.6 830.623 -1203.86
830.623 -3801.52 -2477.62
-1203.86 -2477.62 -5631.62

-9936.27 792.438 1741.31
792.438 -6829.4 704.379
1741.31 704.379 -4337.16

-8843.32 -291.642 -452.151
-291.642 -18.4733 -124.211
-452.151 -124.211 -383.384

-9723.92 204.37 -338.769
204.37 -3366.38 -535.019
-338.769 -535.019 -2034.75

-9870.14 1568.74 1584.92
1568.74 -4281.71 1408.71
1584.92 1408.71 -5195.8

-9714.83 -607.797 -1846.53
-607.797 -6959.56 488.466
-1846.53 488.466 -4101.79

-9954.66 -219.711 -1424.59
-219.711 -8174.3 181.994
-1424.59 181.994 -2444.6

-9856.74 231.806 1414.82
231.806 -7971.11 491.351
1414.82 491.351 -2499.42

-7991.06 206.396 178.789
206.396 476.225 -450.285
178.789 -450.285 1170.81

-8467.62 -891.457 -1305.91
-891.457 -3646.85 -141.033
-1305.91 -141.033 -825.427

-8790.83 94.9017 469.133
94.9017 292.317 26.9555
469.133 26.9555 -388.667

-9973.14 1645.83 -767.618
1645.83 -4476.55 -740.071
-767.618 -740.071 -6951.69

-9817.29 1509.7 -377.206
1509.7 -2278.22 -609.476
-377.206 -609.476 -7710.12

-9206.89 -121.307 -143.131
-121.307 -2097.49 146.786
-143.131 146.786 -1577.8

-9822.85 -1507.05 -371.6
-1507.05 -2286.7 597.659
-371.6 597.659 -7661.11

-9372.94 123.692 -99.7993
123.692 -1429.72 -27.1306
-99.7993 -27.1306 -1244.9

-9425.07 389.712 -32.7477
389.712 -3858.82 267.412
-32.7477 267.412 -1408.59

-9527.05 -23.1754 -5.15693
-23.1754 -1852.14 207.534
-5.15693 207.534 -3925.92

-9575.78 -434.139 -60.2723
-434.139 -3463 -274.999
-60.2723 -274.999 -1736.19

-9494.72 39.05 221.961
39.05 -2022.09 35.2171
221.961 35.2171 -2130.42

-9797.54 1506.08 395.836
1506.08 -2281.27 603.146
395.836 603.146 -7696.82

-9865.02 1645.64 804.549
1645.64 -4378.83 721.359
804.549 721.359 -6783.66

-8777.14 468.193 8.20893
468.193 -362.417 20.1859
8.20893 20.1859 421.774

-9382.76 398.806 6.49412
398.806 -3834.95 -189.156
6.49412 -189.156 -1427.5

-9710.76 244.545 312.174
244.545 -3277.82 582.311
312.174 582.311 -2009.93

-10285.9 822.199 1184.25
822.199 -3809.77 2469.6
1184.25 2469.6 -5726.66

-9860.09 -262.809 158.472
-262.809 -3443.13 -560.101
158.472 -560.101 -2310.15

-8444.94 920.966 -1303.95
920.966 -3765.37 127.957
-1303.95 127.957 -772.069

-8943.96 272.351 320.008
272.351 556.625 -197.933
320.008 -197.933 -184.203

-9602.15 -1624.95 -811.179
-1624.95 -3812.35 741.644
-811.179 741.644 -6343.52

-7974.82 516.692 418.563
516.692 -2671.99 222.968
418.563 222.968 -2884.5

-9910.48 -200.395 -162.458
-200.395 -3431.31 588.92
-162.458 588.92 -2307.83

-8179.22 532.006 911.922
532.006 234.706 122.643
911.922 122.643 655.223

-7773.24 -303.325 293.941
-303.325 415.781 269.905
293.941 269.905 459.094

-9313.81 -45.5453 166.82
-45.5453 -1979.95 -4.19609
166.82 -4.19609 -1534.59

-9289.46 -206.29 229.541
-206.29 -2491.93 -80.2744
229.541 -80.2744 -2165.21

-9834.01 -598.011 1836.55
-598.011 -7047.51 -537.321
1836.55 -537.321 -4173.01

-9873.94 163.613 1372.02
163.613 -7984.23 389.869
1372.02 389.869 -2470.11

-9312.45 -102.718 -124.416
-102.718 -2184.79 -1.82337
-124.416 -1.82337 -1829.21

-8645.2 -419.415 106.021
-419.415 -35.2417 54.2783
106.021 54.2783 1476.27

-8810.99 60.9378 -463.506
60.9378 324.233 -22.12
-463.506 -22.12 -396.263

-10049.4 -1633.1 -749.209
-1633.1 -4522.13 736.949
-749.209 736.949 -7011.27

-9881.36 1629.03 -769.306
1629.03 -4280.83 -678.66
-769.306 -678.66 -6697.61

-10017.9 -1379.29 374.775
-1379.29 -2401.24 -551.06
374.775 -551.06 -7950.37

-9144.1 156.749 -140.568
156.749 -342.958 150.488
-140.568 150.488 -786.021

-9504.64 -27.2874 46.4252
-27.2874 -1837.75 -186.188
46.4252 -186.188 -3936.86

-7749.45 342.001 -259.436
342.001 459.122 317.933
-259.436 317.933 509.145

-9838.55 -1651.43 834.088
-1651.43 -4355.24 -725.234
834.088 -725.234 -6739.43

-8096.58 407.953 -491.59
407.953 807.416 423.067
-491.59 423.067 223.065

-8690.31 57.4094 -395.545
57.4094 1497.26 40.6295
-395.545 40.6295 -76.4329

-8804.29 226.719 -454.052
226.719 -54.9668 165.615
-454.052 165.615 -302.667

-9434.8 34.8958 15.5252
34.8958 -1165.02 -6.87518
15.5252 -6.87518 -1727.39

-10271.6 -823.978 -1179.21
-823.978 -3718.77 2643.43
-1179.21 2643.43 -5763.07

-8183.69 -364.197 -820.661
-364.197 2121.61 -149.167
-820.661 -149.167 790.162

-9960.51 -201.624 1408.83
-201.624 -8195 -239.109
1408.83 -239.109 -2388.06

-7743.53 -321.762 -270.14
-321.762 478.485 -323.843
-270.14 -323.843 527.59

-9805.66 -1503.19 416.704
-1503.19 -2328.79 -603.713
416.704 -603.713 -7676.38

-7743.2 -325.492 -271.127
-325.492 449.975 -288.101
-271.127 -288.101 521.618

-9258.7 157.329 -142.785
157.329 181.208 261.086
-142.785 261.086 -387.423

-9262.5 247.084 -158.906
247.084 -85.6212 85.0015
-158.906 85.0015 70.9528

-8583.88 -417.796 -323.2
-417.796 498.02 -376.254
-323.2 -376.254 1890.48

-8767.8 486.901 80.4659
486.901 -344.004 12.6184
80.4659 12.6184 284.386

-8715.18 142.592 -274.813
142.592 1263.44 350.936
-274.813 350.936 451.314

-8728.31 399.645 -438.907
399.645 170.499 371.568
-438.907 371.568 596.588

-9295.76 53.9221 -59.7021
53.9221 -68.4027 318.134
-59.7021 318.134 286.573

-9512.51 46.8386 87.8574
46.8386 -1575.34 33.4157
87.8574 33.4157 -1386.45

-9209.75 -88.5729 125.671
-88.5729 -1156.43 44.6837
125.671 44.6837 -727.257

-8033.27 -496.212 465.289
-496.212 -2813.83 -207.891
465.289 -207.891 -2911.79

-9367.73 -150.17 -57.6904
-150.17 -1384.79 37.4491
-57.6904 37.4491 -1174.84

-9522.9 -740.798 661.249
-740.798 -4000.7 -308.003
661.249 -308.003 -3994.04

-9393.25 -49.9139 203.418
-49.9139 -1919.75 -5.54779
203.418 -5.54779 -1920.73

-8823.25 124.801 445.435
124.801 1295.2 -23.1816
445.435 -23.1816 -231.531

-9864.7 -243.909 -1468.19
-243.909 -8191.17 245.403
-1468.19 245.403 -2182.56

-8204.96 -533.633 826.159
-533.633 163.344 -123.959
826.159 -123.959 707.674

-8413.36 -864.547 1299.03
-864.547 -3692.75 152.101
1299.03 152.101 -750.624

-8101.97 429.219 436.533
429.219 791.957 -407.4
436.533 -407.4 273.25

-9566.65 -451.647 29.3793
-451.647 -3618.55 320.597
29.3793 320.597 -1748.75

-9924.01 169.992 -213.609
169.992 -3425.17 -520.113
-213.609 -520.113 -2203.43

-10329.8 805.485 -1161.34
805.485 -3802.69 -2477.86
-1161.34 -2477.86 -5682.03

-9781.55 1549.89 -1572.67
1549.89 -4199.15 -1392.74
-1572.67 -1392.74 -5079.53

-8039.34 -176.499 -145.553
-176.499 439.759 -462.928
-145.553 -462.928 1169.91

-9409.4 143.9 104.905
143.9 -1973.65 90.5551
104.905 90.5551 -1787.44

-9253.31 29.6628 36.5125
29.6628 -1396.74 -43.7831
36.5125 -43.7831 -1120.01

-9114.02 -117.453 -63.7975
-117.453 851.7 -332.307
-63.7975 -332.307 97.3906

-8756.24 -70.6126 -444.011
-70.6126 244.015 -9.26286
-444.011 -9.26286 -392.58

-8702.71 -60.815 -453.029
-60.815 1397.43 -168.401
-453.029 -168.401 -189.771

-9480.47 -78.3591 144.563
-78.3591 -1505.71 -108.887
144.563 -108.887 -1831.68

-9429.77 762.278 676.29
762.278 -3758.26 297.676
676.29 297.676 -3951.38

-8001.58 178.984 197.032
178.984 457.021 -446.553
197.032 -446.553 1031.78

-8125.76 -395.146 -515.133
-395.146 889.713 -402.537
-515.133 -402.537 229.514

-8123.08 -429.391 503.097
-429.391 954.336 378.015
503.097 378.015 222.906

-8612.13 -318.594 474.979
-318.594 1015.95 441.341
474.979 441.341 511.364

-8624.39 -140.321 252.001
-140.321 2083.12 416.698
252.001 416.698 -237.387

-8014.96 -440.695 515.308
-440.695 898.363 402.487
515.308 402.487 241.619

-8554.94 -318.893 271.153
-318.893 700.593 393.698
271.153 393.698 1958.27

-8867.26 -111.996 110.524
-111.996 1334.29 583.172
110.524 583.172 1090.89

-8719.03 -423.696 -420.341
-423.696 249.7 -324.044
-420.341 -324.044 491.096

-8768.1 -470.528 68.4799
-470.528 -354.816 -15.9842
68.4799 -15.9842 287.407

-9563.94 -72.0887 -78.6601
-72.0887 -1963.89 -157.838
-78.6601 -157.838 -4049.23

-9514.76 2.19689 -18.1202
2.19689 -29.6109 -192.797
-18.1202 -192.797 -46.3602

-8765.56 438.311 161.136
438.311 653.623 -224.747
161.136 -224.747 1754.94

-8895.63 317.676 419.679
317.676 -78.8872 -151.08
419.679 -151.08 -290.892

-8457.58 155.052 132.222
155.052 1444.03 -698.339
132.222 -698.339 934.169

-8693 407.581 147.419
407.581 -117.176 -123.412
147.419 -123.412 1493.58

-8412.5 -879.243 -1327.93
-879.243 -3667.19 -110.085
-1327.93 -110.085 -678.915

-9505.96 34.5141 -19.7767
34.5141 -1850.47 -190.782
-19.7767 -190.782 -3935.86

-9196.44 -212.733 230.373
-212.733 89.9738 177.157
230.373 177.157 4.66536

-9063.56 -303.382 -50.7943
-303.382 -660.464 -17.5
-50.7943 -17.5 -28.2442

-9377.74 -109.025 58.8454
-109.025 -1074.81 71.7529
58.8454 71.7529 -570.361

-9518.01 28.9272 76.4399
28.9272 -1992.33 -50.8764
76.4399 -50.8764 -1454.3

-9618.9 442.819 -573.374
442.819 -3310.11 -324.405
-573.374 -324.405 -2765.53

-9528.87 132.985 -186.837
132.985 -1908.57 -28.8631
-186.837 -28.8631 -2061.7

-9590.17 -70.2868 77.0983
-70.2868 -1910.85 125.225
77.0983 125.225 -4016.77

-8602.81 146.643 158.64
146.643 651.908 -546.294
158.64 -546.294 2022.6

-9900.22 -1404.39 -411.67
-1404.39 -2211.75 589.844
-411.67 589.844 -7778

-9946.08 -168.299 158.781
-168.299 -3486.42 -527.012
158.781 -527.012 -2408.48

-9461.44 -103.912 -10.3701
-103.912 -1352.49 -27.4449
-10.3701 -27.4449 -1523.25

-9332.05 354.299 -37.21
354.299 -3691.59 225.597
-37.21 225.597 -1145.72

-9538.26 -532.158 475.502
-532.158 -3752.39 -349.712
475.502 -349.712 -3040.08

-9426.52 -107.978 27.3279
-107.978 -1260.48 -31.4152
27.3279 -31.4152 -1416.08

-8121.87 519.291 -894.759
519.291 367.661 -122.373
-894.759 -122.373 798.866

-8165.79 506.63 -943.221
506.63 240.321 -114.564
-943.221 -114.564 651.526

-9281.34 -42.7742 60.5248
-42.7742 274.926 348.306
60.5248 348.306 -1.4166

-9782.91 -1537.96 1620.11
-1537.96 -4055.53 -1476.6
1620.11 -1476.6 -5066.52

-8257.97 -487.294 -837.49
-487.294 87.8798 130.434
-837.49 130.434 667.654

-8510.67 402.414 -178.021
402.414 236.119 284.023
-178.021 284.023 2162.9

-9288.94 -588.373 -820.241
-588.373 -4253.28 283.538
-820.241 283.538 -3624.55

-9529.95 4.68156 -3.74147
4.68156 -121.897 166.084
-3.74147 166.084 -110.554

-9515.73 -499.183 -44.662
-499.183 -3515.82 -356.588
-44.662 -356.588 -1737.39

-9691.02 -611.756 1845.76
-611.756 -6928.82 -509.981
1845.76 -509.981 -4029.09

-8423.09 658.193 -482.779
658.193 970.988 401.745
-482.779 401.745 1218.33

-9531.35 12.9632 11.2427
12.9632 -114.747 168.378
11.2427 168.378 -70.625

-8424.32 920.142 1311.89
920.142 -3773.84 -139.715
1311.89 -139.715 -764.843

-9917.38 -1568.93 765.578
-1568.93 -4176.5 -713.136
765.578 -713.136 -6681.15

-8486.9 181.692 -183.174
181.692 -168.047 419.707
-183.174 419.707 1906.33

-7725.68 333.568 -253.934
333.568 482.427 331.746
-253.934 331.746 524.601

-9487.41 -89.755 10.2796
-89.755 -1479.95 -25.6557
10.2796 -25.6557 -1503.96

-9626.26 -614.636 369.602
-614.636 -2989.34 -318.387
369.602 -318.387 -3276.32

-9077.01 194.48 -202.256
194.48 -2036.7 -62.4918
-202.256 -62.4918 -2267.54

-9492.35 1058.31 -1007.68
1058.31 -5688.68 -289.863
-1007.68 -289.863 -6140.21

-7963.2 168.278 -185.587
168.278 450.663 409.278
-185.587 409.278 1185.86

-9459.26 -312.63 -188.586
-312.63 -1770.8 73.7879
-188.586 73.7879 -2106.72

-8875.4 -395.057 435.83
-395.057 -9.57843 86.8197
435.83 86.8197 -391.052

-8727.14 -255.916 175.107
-255.916 386.1 371.162
175.107 371.162 1262.16

-8783.44 103.85 460.177
103.85 338.092 33.566
460.177 33.566 -371.757

-8787.79 -79.2691 472.506
-79.2691 81.9216 3.10012
472.506 3.10012 -488.873

-9533.05 106.176 20.6238
106.176 -1512.12 69.6333
20.6238 69.6333 -1620.63

-9268.89 128.444 -86.6899
128.444 -931.869 119.598
-86.6899 119.598 -1193.56

-8283.66 468.839 -515.294
468.839 -3186.17 -172.101
-515.294 -172.101 -3002.84

-9483.79 662.474 -739.869
662.474 -4027.17 -287.442
-739.869 -287.442 -3924.09

-9258.84 188.036 -58.9399
188.036 -1866.72 -12.7806
-58.9399 -12.7806 -1783.31

-8378.78 -348.977 -558.052
-348.977 -3405.93 130.996
-558.052 130.996 -3077.36

-9148.04 55.9827 -336.726
55.9827 -227.527 50.0703
-336.726 50.0703 -858.24

-9542.78 -755.323 1123.4
-755.323 -6610.92 -271.244
1123.4 -271.244 -5607.07

-9859.19 527.477 143.027
527.477 -3128.06 45.0224
143.027 45.0224 -4417.1

-7999.21 -183.615 234.319
-183.615 449.734 421.986
234.319 421.986 1040.09

-8607.85 -46.1487 502.535
-46.1487 1421.4 172.242
502.535 172.242 182.83

-8935.42 59.1199 -225.622
59.1199 1060.24 119.145
-225.622 119.145 -270.126

-9526.23 22.8137 -15.2141
22.8137 -86.8614 -130.648
-15.2141 -130.648 -130.8

-9560.54 -32.5267 -9.00363
-32.5267 -1324.12 -25.5008
-9.00363 -25.5008 -1175.59

-8824.55 273.311 380.408
273.311 -20.1726 -167.47
380.408 -167.47 -288.221

-8008.53 -221.727 -170.939
-221.727 382.538 -411.539
-170.939 -411.539 1004.59

-8027.72 -386.935 769.485
-386.935 -5150.51 -94.1599
769.485 -94.1599 -4495.3

-9724.23 779.074 1749.26
779.074 -6578.48 665.792
1749.26 665.792 -4008.98

-8803.81 85.8038 -106.214
85.8038 1291.61 597.227
-106.214 597.227 1505.88

-9774.49 1521.3 1564.72
1521.3 -4295.25 1394.53
1564.72 1394.53 -5062.17

-8586.17 -330.795 -472.8
-330.795 1051.02 -497.977
-472.8 -497.977 516.675

-8737.55 -405.909 -64.6534
-405.909 -306.347 -194.95
-64.6534 -194.95 1132.18

-9006.96 179.186 127.094
179.186 427.547 -401.788
127.094 -401.788 899.105

-9470.5 80.7189 -65.8287
80.7189 -2126.58 -28.0109
-65.8287 -28.0109 -1482.36

-9808.46 1392.12 396.72
1392.12 -2385.25 532.39
396.72 532.39 -7684.86

-8287.71 -389.627 754.883
-389.627 1806.16 158.03
754.883 158.03 535.997

-9746.15 1584.9 779.569
1584.9 -4240.31 660.236
779.569 660.236 -6559.73

-9550.3 116.688 117.193
116.688 -1926.84 68.8103
117.193 68.8103 -2058.01

-9894.64 261.823 542.426
261.823 -4378.99 111.513
542.426 111.513 -3784.42

-9842.2 1454.23 -384.82
1454.23 -2395.87 -537.551
-384.82 -537.551 -7728

-8766.72 187.099 271.636
187.099 1221.65 -379.134
271.636 -379.134 283.521

-8765.61 -616.448 -259.174
-616.448 433.778 -55.9083
-259.174 -55.9083 1498.94

-8858.52 -83.887 -162.655
-83.887 1250.97 -679.587
-162.655 -679.587 926.875

-8382.15 -135.146 -278.112
-135.146 2680.85 -471.668
-278.112 -471.668 225.477

-8325.32 776.486 -404.417
776.486 -4880.69 -116.357
-404.417 -116.357 -5498.79

-9368.67 77.0429 -11.3116
77.0429 -1832.95 55.157
-11.3116 55.157 -3830.43

-9444.25 73.3717 -16.2137
73.3717 -2023.68 -195.565
-16.2137 -195.565 -3907.17

-9684.83 454.627 550.797
454.627 -3505.87 316.704
550.797 316.704 -2974.31

-9959.76 -239.307 1377.21
-239.307 -8266.33 -233.773
1377.21 -233.773 -2442.23

-9869.15 1051.61 951.019
1051.61 -6099.26 356.204
951.019 356.204 -6504.03

-9871.99 175.261 217.575
175.261 -3377.01 576.121
217.575 576.121 -2149.1

-10365.9 796.498 1155.38
796.498 -3790.84 2462.3
1155.38 2462.3 -5743.09

