# vtk DataFile Version 3.0
vtk output at time 0.9
ASCII
DATASET UNSTRUCTURED_GRID
POINTS 1524 float
0 0 0 0 0 0.05 0 0 0.1 
0 0 0.15 0 0 0.2 0 0.05 0 
0 0.05 0.05 0 0.05 0.1 0 0.05 0.15 
0 0.05 0.2 0 0.1 0 0 0.1 0.05 
0 0.1 0.1 0 0.1 0.15 0 0.1 0.2 
0 0.15 0 0 0.15 0.05 0 0.15 0.1 
0 0.15 0.15 0 0.15 0.2 0 0.2 0 
0 0.2 0.05 0 0.2 0.1 0 0.2 0.15 
0 0.2 0.2 0.0353289 -0.0088766 -0.00952538 0.0380885 -0.00966458 0.045029 
0.039088 -0.00962035 0.100036 0.0382063 -0.00966127 0.15497 0.0353724 -0.00893642 0.209482 
0.0381235 0.0451496 -0.00971449 0.0380879 0.045118 0.209753 0.0392875 0.100016 -0.00993248 
0.0392678 0.100038 0.209918 0.0382058 0.154829 -0.00962617 0.0381153 0.154888 0.209674 
0.0354438 0.208887 -0.00946604 0.038137 0.209701 0.045033 0.0390971 0.209667 0.100012 
0.0381958 0.209718 0.154935 0.0354177 0.209002 0.209399 0.0775622 -0.0104398 -0.0104204 
0.0774827 -0.0108243 0.0440453 0.0774339 -0.0117438 0.0999834 0.0772434 -0.0109586 0.155916 
0.077576 -0.0104321 0.210405 0.07766 0.0439704 -0.0106994 0.0776467 0.044013 0.210746 
0.0774664 0.100037 -0.0119037 0.0775834 0.0999684 0.211819 0.0771186 0.156053 -0.0108327 
0.0771986 0.155886 0.210754 0.0775522 0.210427 -0.0103865 0.0775374 0.210784 0.0440298 
0.0776334 0.211767 0.0999974 0.0774109 0.210943 0.15594 0.0775912 0.210385 0.210466 
0.119595 -0.00893322 -0.00948269 0.117144 -0.00991508 0.045077 0.115825 -0.0100156 0.100039 
0.116909 -0.00980593 0.155029 0.119572 -0.00889897 0.209485 0.117204 0.0450969 -0.00992633 
0.117135 0.0451357 0.209803 0.115587 0.10007 -0.0101171 0.115572 0.10009 0.210003 
0.116992 0.154945 -0.00971895 0.11687 0.154899 0.209682 0.119671 0.208953 -0.00946927 
0.117144 0.209872 0.0450067 0.11584 0.209867 0.100036 0.116938 0.209943 0.15487 
0.119668 0.208968 0.209443 0.155 0 0 0.155 0 0.05 
0.155 0 0.1 0.155 0 0.15 0.155 0 0.2 
0.155 0.05 0 0.155 0.05 0.05 0.155 0.05 0.1 
0.155 0.05 0.15 0.155 0.05 0.2 0.155 0.1 0 
0.155 0.1 0.05 0.155 0.1 0.1 0.155 0.1 0.15 
0.155 0.1 0.2 0.155 0.15 0 0.155 0.15 0.05 
0.155 0.15 0.1 0.155 0.15 0.15 0.155 0.15 0.2 
0.155 0.2 0 0.155 0.2 0.05 0.155 0.2 0.1 
0.155 0.2 0.15 0.155 0.2 0.2 0 0 0.0166667 
0 0 0.0333333 0 0.0166667 0 0 0.0333333 0 
0.00655078 -0.00525196 -0.00656145 0.0202711 -0.0078485 -0.00792134 0.0112578 -0.0064329 0.0119879 
0.0235851 -0.00794205 0.0279145 0 0 0.0666667 0 0 0.0833333 
0 0.0166667 0.0333333 0 0.0333333 0.0166667 0 0.0166667 0.05 
0 0.0333333 0.05 0 0.0166667 0.0666667 0 0.0333333 0.0833333 
0.0125852 -0.00650711 0.0477445 0.0247905 -0.00827971 0.0461857 0 0 0.116667 
0 0 0.133333 0 0.0166667 0.1 0 0.0333333 0.1 
0.0128058 -0.00650639 0.0825948 0.0252591 -0.00811066 0.0641982 0.0134521 -0.00614601 0.100057 
0.0260817 -0.00833033 0.100051 0.0128436 -0.00645584 0.117507 0.0253296 -0.00805184 0.135862 
0 0 0.166667 0 0 0.183333 0 0.0166667 0.133333 
0 0.0333333 0.116667 0 0.0166667 0.15 0 0.0333333 0.15 
0 0.0166667 0.166667 0 0.0333333 0.183333 0.012646 -0.0064267 0.15225 
0.0248641 -0.00821672 0.153834 0 0.0166667 0.2 0 0.0333333 0.2 
0.011289 -0.00642998 0.187972 0.023651 -0.00791779 0.172067 0.0065889 -0.0052819 0.206515 
0.0203136 -0.00788692 0.207874 0 0.05 0.0166667 0 0.05 0.0333333 
0 0.0666667 0 0 0.0833333 0 0 0.0666667 0.0166667 
0 0.0833333 0.0333333 0.0105469 0.0305608 -0.0063392 0.0222951 0.0100685 -0.00822868 
0.0135451 0.0300137 0.0118793 0.0259359 0.00998929 0.0278345 0.0125303 0.0479799 -0.00630926 
0.0251129 0.0463641 -0.00863174 0.0129579 0.0657863 -0.00648735 0.025662 0.0822216 -0.00835825 
0 0.05 0.0666667 0 0.05 0.0833333 0 0.0666667 0.05 
0 0.0833333 0.05 0.0145944 0.0299576 0.0477433 0.0270203 0.00987636 0.0461559 
0.0143897 0.0477127 0.0299117 0.0267401 0.0462077 0.00975281 0.0148951 0.0652663 0.0299086 
0.0278403 0.0821341 0.00981694 0.027868 0.0280776 0.0460628 0.0522923 0.00750325 0.0443788 
0.028486 0.0279867 0.0641225 0.0530799 0.00734592 0.0814429 0.0279868 0.0461064 0.0278923 
0.0523427 0.0444762 0.00741885 0.028587 0.0640562 0.0279194 0.0531437 0.0815084 0.00735588 
0 0.05 0.116667 0 0.05 0.133333 0 0.0666667 0.0833333 
0 0.0833333 0.0666667 0 0.0666667 0.1 0 0.0833333 0.1 
0 0.0666667 0.116667 0 0.0833333 0.133333 0.0149417 0.0299999 0.0826934 
0.027542 0.00980008 0.0641347 0.0149956 0.0299648 0.100047 0.0276921 0.00991916 0.100037 
0.0149952 0.0300176 0.117418 0.0276489 0.00981694 0.135954 0.0289408 0.0280275 0.10001 
0.0534154 0.0072929 0.100054 0.0288232 0.0279769 0.117969 0.0529899 0.00742137 0.137076 
0.0293945 0.0640545 0.0640727 0.0539211 0.0814863 0.025781 0 0.05 0.166667 
0 0.05 0.183333 0 0.0666667 0.15 0 0.0833333 0.15 
0.0146635 0.0300102 0.152364 0.0271705 0.00992511 0.153902 0.0144192 0.0477121 0.170117 
0.0267368 0.0461904 0.190289 0.0148465 0.0652436 0.170121 0.0277596 0.0821329 0.190214 
0.0282516 0.0280226 0.154042 0.0524936 0.00757166 0.155555 0.0280154 0.0461057 0.172143 
0.0522897 0.0444436 0.192611 0.0284707 0.0640731 0.172103 0.0530491 0.0814375 0.192683 
0 0.0666667 0.183333 0 0.0833333 0.166667 0 0.0666667 0.2 
0 0.0833333 0.2 0.0135556 0.0299941 0.188153 0.0260287 0.0100011 0.172166 
0.0105448 0.0305155 0.206365 0.0223263 0.010021 0.208214 0.0125118 0.0479458 0.206328 
0.0250856 0.0463299 0.208664 0.0129166 0.0657684 0.206517 0.0256021 0.0822324 0.208387 
0 0.1 0.0166667 0 0.1 0.0333333 0 0.116667 0 
0 0.133333 0 0.0126469 0.100084 -0.00658859 0.0253718 0.0999395 -0.0079398 
0 0.1 0.0666667 0 0.1 0.0833333 0 0.116667 0.0333333 
0 0.133333 0.0166667 0 0.116667 0.05 0 0.133333 0.05 
0 0.116667 0.0666667 0 0.133333 0.0833333 0.0150096 0.100021 0.0299549 
0.0279948 0.100009 0.00975764 0.0149351 0.117441 0.0299503 0.0275241 0.135865 0.009813 
0.0290032 0.100011 0.0278718 0.053471 0.0999981 0.00731871 0.0288333 0.117933 0.0278686 
0.0529777 0.136996 0.00745963 0 0.1 0.116667 0 0.1 0.133333 
0 0.116667 0.1 0 0.133333 0.1 0.0296546 0.0641753 0.0999854 
0.0538825 0.0258175 0.0999807 0.0294582 0.0642832 0.117899 0.053661 0.025812 0.137066 
0.0295731 0.100008 0.0641888 0.0540086 0.100021 0.025841 0.0299071 0.0999864 0.135835 
0.0539069 0.0999825 0.174252 0.0294581 0.117902 0.0642275 0.0537093 0.13698 0.0258567 
0.0295883 0.117867 0.135828 0.0536008 0.137188 0.174203 0.0297836 0.135837 0.0999924 
0.0538867 0.174212 0.0999543 0.0295238 0.135779 0.117841 0.0536339 0.174227 0.137075 
0.0555688 0.100009 0.0999732 0.0995135 0.100012 0.100019 0 0.1 0.166667 
0 0.1 0.183333 0 0.116667 0.133333 0 0.133333 0.116667 
0 0.116667 0.15 0 0.133333 0.15 0 0.116667 0.166667 
0 0.133333 0.183333 0.0150287 0.100006 0.169942 0.0279918 0.100022 0.19017 
0.0149624 0.117371 0.169957 0.0275104 0.135823 0.190172 0.029049 0.0640582 0.154005 
0.0532233 0.0258741 0.15561 0.0290042 0.0999668 0.172025 0.0534081 0.100013 0.192756 
0.0288465 0.117914 0.172025 0.0528984 0.137114 0.192604 0.0290233 0.13588 0.153931 
0.0532537 0.174154 0.155581 0 0.116667 0.2 0 0.133333 0.2 
0.0126491 0.100101 0.206578 0.0253626 0.0999599 0.20792 0 0.15 0.0166667 
0 0.15 0.0333333 0 0.166667 0 0 0.183333 0 
0 0.166667 0.0166667 0 0.183333 0.0333333 0.0127127 0.134797 -0.00644405 
0.0255023 0.117828 -0.00820317 0.0130428 0.152021 -0.00623091 0.0255338 0.153666 -0.00855943 
0.0107942 0.169298 -0.00628913 0.0224079 0.189938 -0.00815832 0.0135871 0.169859 0.0118675 
0.0260015 0.190074 0.0278832 0 0.15 0.0666667 0 0.15 0.0833333 
0 0.166667 0.05 0 0.183333 0.05 0.0146396 0.152346 0.0299184 
0.0271648 0.153848 0.00982811 0.014622 0.17005 0.0477536 0.0270689 0.190161 0.0461817 
0.0282374 0.153962 0.0279576 0.0524731 0.155446 0.00758219 0.0280525 0.172021 0.046066 
0.0523873 0.192497 0.044423 0.0285601 0.17207 0.0641009 0.0530816 0.19262 0.0814318 
0 0.15 0.116667 0 0.15 0.133333 0 0.166667 0.0833333 
0 0.183333 0.0666667 0 0.166667 0.1 0 0.183333 0.1 
0 0.166667 0.116667 0 0.183333 0.133333 0.0149547 0.170018 0.0826792 
0.0275741 0.190246 0.0641257 0.0150079 0.170072 0.100014 0.02769 0.190137 0.100014 
0.0149807 0.170015 0.117368 0.0276166 0.190248 0.135924 0.029071 0.153975 0.0640395 
0.0532687 0.155504 0.0259027 0.0289758 0.172035 0.0999977 0.0533871 0.192712 0.100038 
0.028793 0.172067 0.117932 0.0529483 0.192616 0.137074 0 0.15 0.166667 
0 0.15 0.183333 0 0.166667 0.15 0 0.183333 0.15 
0.0146132 0.15228 0.170088 0.0270893 0.15383 0.190213 0.0146537 0.169996 0.15232 
0.0271334 0.190126 0.153863 0.0281335 0.153913 0.172063 0.0523446 0.155598 0.192497 
0.028313 0.172061 0.15397 0.0525013 0.192475 0.155524 0 0.166667 0.183333 
0 0.183333 0.166667 0 0.166667 0.2 0 0.183333 0.2 
0.0127019 0.134771 0.20644 0.0254752 0.117829 0.208166 0.0130018 0.152011 0.206257 
0.025458 0.153675 0.208593 0.0135907 0.16985 0.188144 0.0260406 0.190049 0.172113 
0.0107783 0.169308 0.206301 0.0223916 0.189982 0.208146 0 0.2 0.0166667 
0 0.2 0.0333333 0.00661896 0.205126 -0.00656781 0.0203177 0.207843 -0.00785857 
0.0113063 0.20634 0.0119672 0.0235883 0.207977 0.0279406 0 0.2 0.0666667 
0 0.2 0.0833333 0.0125688 0.206495 0.0477273 0.0247612 0.20829 0.0462182 
0 0.2 0.116667 0 0.2 0.133333 0.0127964 0.206523 0.0825667 
0.0252643 0.208139 0.0642005 0.0134282 0.206171 0.100024 0.0260684 0.208378 0.100022 
0.0128075 0.206495 0.117482 0.0252781 0.208112 0.13583 0 0.2 0.166667 
0 0.2 0.183333 0.0125952 0.20645 0.15227 0.0247843 0.208256 0.153789 
0.0113093 0.206338 0.188009 0.0236004 0.207958 0.172034 0.00660047 0.205142 0.206541 
0.0202895 0.207884 0.207816 0.0361599 -0.00911739 0.00858642 0.0370114 -0.00938882 0.0268402 
0.0361954 0.00880299 -0.00937179 0.0372223 0.0268986 -0.00947583 0.0492894 -0.00989449 -0.00998215 
0.0634587 -0.0103556 -0.0103266 0.0500548 0.00801006 -0.0100845 0.0642114 0.025716 -0.010663 
0.0388791 -0.00976072 0.063519 0.0389863 -0.0097079 0.081777 0.0385619 0.00861966 0.0267488 
0.038544 0.0268846 0.00845596 0.0505824 -0.0102361 0.0259626 0.0637581 -0.0104046 0.00751881 
0.0510811 -0.0105384 0.044358 0.0642231 -0.0109532 0.0440637 0.0515865 -0.0106931 0.062842 
0.0646473 -0.0113595 0.081254 0.0515084 0.00772703 0.0259792 0.0645211 0.0257307 0.00727316 
0.0390399 -0.00969453 0.118281 0.0389896 -0.00973532 0.136505 0.0520479 -0.0107126 0.100031 
0.0648096 -0.0114311 0.10002 0.0370884 -0.00938804 0.173135 0.0362131 -0.00914112 0.191376 
0.0386872 0.00861155 0.173237 0.0385855 0.0268538 0.191574 0.0517774 -0.0106826 0.137086 
0.0647914 -0.0113652 0.118728 0.0511057 -0.0105202 0.155586 0.0640777 -0.0109412 0.155839 
0.0506592 -0.0102465 0.174001 0.0638069 -0.0104016 0.192446 0.0516155 0.00772361 0.173985 
0.0645169 0.0257436 0.192736 0.0362323 0.00874697 0.209361 0.0372289 0.0268478 0.209504 
0.0493341 -0.00994548 0.209945 0.0634957 -0.0103742 0.210298 0.0500851 0.00795928 0.21008 
0.0642164 0.0257043 0.210685 0.038736 0.0634662 -0.00976591 0.039082 0.0817578 -0.00979256 
0.0513523 0.0444229 -0.0106122 0.0645117 0.0440527 -0.0109418 0.0386698 0.0634522 0.209804 
0.0390119 0.0817618 0.20982 0.0513058 0.0443918 0.210649 0.0644666 0.0440414 0.21098 
0.0391296 0.118269 -0.00973932 0.0387888 0.136529 -0.0097049 0.051986 0.0815045 -0.0107833 
0.0646736 0.0626721 -0.0111434 0.0520287 0.10002 -0.0108624 0.0647185 0.100053 -0.0114984 
0.0520816 0.11855 -0.0107197 0.0647025 0.137367 -0.0111127 0.0390844 0.118303 0.209726 
0.0387367 0.136556 0.209711 0.0519107 0.0814844 0.210809 0.064601 0.0626452 0.211177 
0.0519998 0.100031 0.210859 0.0647393 0.100022 0.211488 0.0520218 0.118607 0.21077 
0.0646812 0.137424 0.211179 0.0373321 0.173166 -0.00940026 0.0362803 0.191258 -0.00928332 
0.0387166 0.173183 0.00855227 0.0386921 0.191477 0.0268109 0.0511912 0.155487 -0.0105187 
0.0641565 0.155813 -0.0109478 0.0386824 0.173241 0.191467 0.0387355 0.191492 0.173161 
0.0372701 0.173246 0.20942 0.0362433 0.191356 0.209271 0.0511226 0.155605 0.210577 
0.0641409 0.155911 0.210959 0.0362525 0.209167 0.00862916 0.0370868 0.209467 0.0268613 
0.0501341 0.192 -0.0100252 0.0641097 0.174238 -0.0106241 0.0493975 0.209928 -0.00993119 
0.0635137 0.210356 -0.0102797 0.0389319 0.209801 0.0635089 0.0390259 0.209748 0.081757 
0.0516311 0.192298 0.0260492 0.0645044 0.17421 0.00732848 0.0507187 0.210268 0.0260083 
0.0638629 0.210395 0.0075818 0.051197 0.210592 0.0443672 0.0643127 0.210946 0.04407 
0.0516894 0.210692 0.062863 0.0647556 0.211293 0.0812793 0.0390317 0.209756 0.118258 
0.0389667 0.209812 0.136484 0.0520685 0.210719 0.100012 0.0648694 0.211406 0.100011 
0.0370987 0.209477 0.173076 0.0362288 0.209218 0.191301 0.0516575 0.192353 0.173924 
0.0644478 0.174273 0.192695 0.0517924 0.210733 0.137067 0.0648353 0.211327 0.118702 
0.0512117 0.210593 0.155544 0.0642644 0.210991 0.155822 0.0507395 0.210317 0.173934 
0.0638915 0.210439 0.192417 0.0500945 0.192126 0.210025 0.0641012 0.174309 0.21066 
0.0493646 0.210044 0.209878 0.0635292 0.210409 0.210278 0.0775012 -0.0105056 0.00751195 
0.0774851 -0.0106388 0.0256931 0.0775699 0.00749956 -0.0104184 0.0776083 0.0256224 -0.0105438 
0.0915902 -0.0103923 -0.0101918 0.105663 -0.00992522 -0.00987621 0.0912213 -0.0103936 0.00766157 
0.104405 -0.0102084 0.0260644 0.0774302 -0.0111506 0.062565 0.0773861 -0.0114687 0.0812348 
0.0774334 0.0073369 0.0256903 0.0775004 0.0256946 0.00740444 0.0774104 0.0255163 0.0255394 
0.0775068 0.0626391 0.0068608 0.0907963 -0.0108194 0.0441521 0.104042 -0.0104734 0.0444545 
0.0901129 0.0256072 0.025633 0.102485 0.0629452 0.00741174 0.0774769 -0.0115281 0.118689 
0.077492 -0.0112952 0.13737 0.0774125 0.025031 0.062499 0.0775497 0.0624687 0.025094 
0.0775519 0.0251356 0.137479 0.0774867 0.0625152 0.174895 0.090351 -0.0111445 0.0812596 
0.103566 -0.0105712 0.0628644 0.0902872 -0.011372 0.09999 0.103038 -0.0108456 0.100006 
0.0902315 -0.0113235 0.118685 0.10334 -0.0107487 0.137137 0.089407 0.0252459 0.0626486 
0.101597 0.0629016 0.0257299 0.0895253 0.025339 0.137323 0.101523 0.0629329 0.174209 
0.101105 0.025829 0.100007 0.125208 0.0641456 0.100047 0.101224 0.0257965 0.118558 
0.12546 0.0640232 0.135897 0.0774515 -0.0106222 0.17428 0.0775265 -0.0104659 0.19247 
0.0774188 0.00733972 0.174317 0.0774954 0.0257485 0.192634 0.0774445 0.025615 0.174583 
0.0774337 0.0626795 0.193218 0.0905938 -0.0107692 0.155866 0.103802 -0.0104088 0.155626 
0.0900974 0.0256583 0.174358 0.102418 0.0629975 0.192546 0.0775637 0.00752113 0.210414 
0.0776025 0.0256538 0.210554 0.0912194 -0.010342 0.192361 0.104328 -0.0101737 0.173975 
0.0915817 -0.0103269 0.210224 0.105648 -0.00985811 0.209907 0.077524 0.062492 -0.0110095 
0.0775121 0.0811736 -0.0113879 0.0909016 0.0257015 -0.0105639 0.104929 0.0079998 -0.00998816 
0.0905046 0.0257528 0.00742078 0.103528 0.00772119 0.0260936 0.0906753 0.0440671 -0.0107594 
0.103932 0.0444053 -0.0103985 0.0905177 0.0625792 -0.0109602 0.103125 0.081338 -0.0108112 
0.0775066 0.0625281 0.211073 0.0775061 0.081193 0.211423 0.0905116 0.025798 0.192578 
0.103499 0.00777416 0.17393 0.090895 0.0257507 0.210569 0.104936 0.00805949 0.209996 
0.0906453 0.0441043 0.21078 0.103881 0.0444396 0.210396 0.0904827 0.0626234 0.210962 
0.103 0.0813809 0.210756 0.0775263 0.11875 -0.0116454 0.0774433 0.137461 -0.0112697 
0.0777235 0.137496 0.0250974 0.0776091 0.174923 0.0625192 0.0902204 0.0999933 -0.0115325 
0.10286 0.099992 -0.0109812 0.0896105 0.137348 0.0252516 0.101595 0.174285 0.0628755 
0.101117 0.0999791 0.0257747 0.125235 0.100006 0.0641881 0.101251 0.11856 0.0257582 
0.125458 0.135921 0.0640584 0.0775492 0.118686 0.211529 0.0774585 0.137378 0.211145 
0.0774659 0.137507 0.174856 0.0775995 0.174903 0.137418 0.0775656 0.137338 0.193196 
0.0776376 0.174464 0.174453 0.0902378 0.0999953 0.211447 0.102837 0.100016 0.2109 
0.0893937 0.137345 0.174678 0.10161 0.174219 0.137072 0.0899199 0.137237 0.193053 
0.102731 0.174039 0.173993 0.101012 0.0999975 0.174135 0.125361 0.0999735 0.13579 
0.101585 0.100009 0.192646 0.12601 0.0999724 0.172105 0.101052 0.118518 0.174218 
0.12556 0.135836 0.135891 0.101813 0.118542 0.192597 0.126313 0.135839 0.17218 
0.0774562 0.174404 -0.0105525 0.0775644 0.192502 -0.0104022 0.0774906 0.174424 0.00739377 
0.0775641 0.19269 0.0257408 0.0775702 0.174651 0.0256326 0.0775512 0.193263 0.0626832 
0.0904942 0.137426 -0.0111554 0.103108 0.118593 -0.0108301 0.0906223 0.155922 -0.0109295 
0.103875 0.155594 -0.0105653 0.0908839 0.174213 -0.0105477 0.104985 0.192034 -0.0100078 
0.0905305 0.174232 0.00734685 0.103641 0.192306 0.0260763 0.0901861 0.174404 0.0256007 
0.10249 0.19262 0.062938 0.102106 0.155631 0.025869 0.125888 0.154006 0.0640911 
0.0774573 0.174292 0.192626 0.0775222 0.192645 0.174337 0.0774604 0.174263 0.210484 
0.0775554 0.192414 0.210399 0.0904223 0.137397 0.211056 0.102993 0.118569 0.210768 
0.0905349 0.155956 0.210838 0.103701 0.155635 0.210515 0.0905754 0.174189 0.19265 
0.103595 0.192316 0.173928 0.0908418 0.174226 0.210578 0.104987 0.192041 0.210016 
0.102789 0.155588 0.192444 0.126875 0.153837 0.172143 0.0775852 0.210458 0.00753351 
0.0775845 0.210599 0.0256987 0.0916092 0.210349 -0.0102614 0.105698 0.209962 -0.00990245 
0.0912761 0.210368 0.0076061 0.10441 0.210211 0.0260777 0.0774819 0.211088 0.0625534 
0.0775353 0.211427 0.0812407 0.0907003 0.210834 0.0440948 0.103804 0.210456 0.0443763 
0.077521 0.211436 0.118668 0.0775011 0.211194 0.137353 0.0902982 0.211201 0.0812603 
0.103261 0.21066 0.0628987 0.0903164 0.211415 0.100013 0.103015 0.210829 0.100023 
0.0903254 0.211168 0.118722 0.103282 0.210611 0.137118 0.101178 0.174158 0.0999927 
0.125359 0.135847 0.0999999 0.101742 0.192656 0.1 0.126092 0.172151 0.0999985 
0.0775336 0.210616 0.174327 0.0775684 0.210462 0.192517 0.0905553 0.210787 0.155899 
0.103761 0.210452 0.155606 0.0912342 0.210356 0.19241 0.104371 0.21025 0.173966 
0.0915774 0.21032 0.210277 0.105707 0.209951 0.209896 0.118839 -0.0092454 0.00860537 
0.118072 -0.00958743 0.026862 0.118844 0.00867026 -0.00933566 0.117862 0.0267544 -0.00953174 
0.134839 -0.00788708 -0.00784241 0.148536 -0.00516726 -0.00649797 0.132755 0.0100116 -0.00818899 
0.144317 0.0307255 -0.00629223 0.116369 -0.0100911 0.0634841 0.11599 -0.0100685 0.0817837 
0.116522 0.00840739 0.0267205 0.11654 0.0267286 0.00837356 0.115078 0.0266722 0.0266067 
0.114955 0.063525 0.00819711 0.13153 -0.00792813 0.0279621 0.14371 -0.0063348 0.0120266 
0.130391 -0.00824097 0.0462629 0.142392 -0.00633086 0.0477813 0.129977 -0.00815994 0.064206 
0.142201 -0.00639273 0.0825671 0.12907 0.00997809 0.027906 0.141411 0.0301986 0.0118921 
0.12784 0.00986598 0.0461993 0.140271 0.0301306 0.0477352 0.127263 0.00968784 0.0640948 
0.139922 0.0300422 0.0826216 0.126806 0.0280528 0.0460589 0.139653 0.0651314 0.0477442 
0.12639 0.0280045 0.0641721 0.139364 0.0652927 0.0826334 0.11588 -0.00989225 0.118342 
0.116122 -0.0099014 0.13665 0.113644 0.0265669 0.0634046 0.113789 0.0634089 0.026591 
0.128965 -0.00852756 0.0999884 0.141545 -0.0061373 0.0999698 0.127118 0.00959256 0.0999978 
0.139958 0.0299037 0.0999929 0.126224 0.0278265 0.100007 0.139379 0.0651983 0.0999632 
0.126282 0.0278336 0.11791 0.139526 0.0652004 0.134765 0.117966 -0.00950688 0.173189 
0.118796 -0.00919382 0.191409 0.116528 0.00849625 0.173292 0.116546 0.0267916 0.191584 
0.115159 0.026715 0.17336 0.114905 0.0634819 0.191721 0.129877 -0.00822057 0.135822 
0.142213 -0.006475 0.117385 0.130343 -0.00834178 0.153763 0.142428 -0.00643146 0.152227 
0.131523 -0.00799775 0.172058 0.143752 -0.00636129 0.188023 0.12733 0.00960314 0.135881 
0.140005 0.029926 0.117347 0.12793 0.00973576 0.153814 0.140337 0.0300646 0.152286 
0.129133 0.00990333 0.172117 0.141452 0.0301835 0.188108 0.126955 0.0279068 0.153882 
0.139715 0.0652784 0.152326 0.118849 0.00871306 0.209324 0.117852 0.0267985 0.209489 
0.134822 -0.0078919 0.207861 0.148539 -0.0051492 0.206558 0.132756 0.0100062 0.208187 
0.144319 0.030734 0.206292 0.116432 0.0634023 -0.0101028 0.116069 0.0817275 -0.0100665 
0.129784 0.0463428 -0.00868771 0.142072 0.0480078 -0.00626609 0.128033 0.0462639 0.00967964 
0.140346 0.0477939 0.0300128 0.127595 0.0642873 0.00972214 0.140042 0.0826671 0.0300893 
0.116321 0.0634746 0.209961 0.115953 0.0817974 0.20994 0.12806 0.0462413 0.190337 
0.140369 0.0477835 0.170039 0.129763 0.0463088 0.208691 0.142088 0.0480159 0.206314 
0.127594 0.0642652 0.190322 0.140091 0.0826558 0.170034 0.115917 0.118344 -0.0099151 
0.116341 0.136657 -0.00979943 0.129786 0.0822336 -0.00832374 0.142393 0.0652916 -0.00644777 
0.129727 0.100138 -0.00804019 0.142417 0.100002 -0.00662645 0.126999 0.100035 0.00958781 
0.13995 0.0999969 0.0300243 0.126155 0.100026 0.0278504 0.139308 0.0999973 0.0651996 
0.129382 0.117827 -0.0084747 0.142047 0.134218 -0.00646813 0.127133 0.117851 0.0096499 
0.140089 0.134722 0.0299548 0.126126 0.117866 0.0278016 0.139457 0.134728 0.0652307 
0.11581 0.118312 0.209856 0.116228 0.136581 0.209788 0.129593 0.0822795 0.20832 
0.142377 0.0652707 0.206555 0.127105 0.100046 0.190221 0.140015 0.0999784 0.170034 
0.129599 0.100135 0.207995 0.142405 0.0999841 0.206692 0.127194 0.117867 0.190241 
0.140138 0.134731 0.170139 0.129259 0.117792 0.208424 0.142034 0.134226 0.206538 
0.117838 0.173244 -0.0094749 0.118835 0.191328 -0.00934582 0.116564 0.173227 0.00846032 
0.116555 0.191575 0.026735 0.115202 0.173352 0.026682 0.114948 0.19183 0.063425 
0.129862 0.153693 -0.00867023 0.142354 0.151979 -0.00625787 0.128049 0.15383 0.00968807 
0.140385 0.152183 0.0298453 0.127025 0.153843 0.0278735 0.139696 0.152206 0.0652358 
0.116502 0.173168 0.191497 0.116491 0.191481 0.173167 0.117795 0.173167 0.209451 
0.11881 0.191276 0.209323 0.12818 0.153771 0.19028 0.140469 0.152192 0.170178 
0.129837 0.153665 0.20864 0.142417 0.152022 0.206337 0.118892 0.209238 0.00859996 
0.118101 0.209586 0.026815 0.132763 0.189983 -0.00823783 0.144427 0.169364 -0.00632354 
0.134834 0.207887 -0.00794218 0.148561 0.205199 -0.00660765 0.116343 0.210078 0.0634517 
0.116029 0.210038 0.0817871 0.129151 0.190121 0.0278324 0.141447 0.169924 0.0118938 
0.128162 0.190211 0.0461572 0.140403 0.169833 0.0476697 0.127572 0.190355 0.0641439 
0.140092 0.169931 0.0826619 0.131588 0.208009 0.02789 0.143803 0.206419 0.0119386 
0.130494 0.208365 0.0461835 0.142497 0.206477 0.0477293 0.130094 0.208256 0.0641887 
0.142332 0.20655 0.0825832 0.116056 0.210026 0.118256 0.116307 0.210087 0.136522 
0.1273 0.190215 0.100018 0.140022 0.170114 0.100008 0.128964 0.20845 0.100037 
0.141577 0.206247 0.100008 0.118029 0.20949 0.173079 0.118881 0.209178 0.191337 
0.127633 0.190231 0.13591 0.1401 0.169846 0.117375 0.128198 0.19009 0.153889 
0.140443 0.169813 0.152386 0.129086 0.190012 0.172168 0.141479 0.169935 0.188169 
0.130076 0.2082 0.13586 0.142347 0.206535 0.117448 0.130337 0.208314 0.153854 
0.14245 0.206472 0.152311 0.131468 0.207931 0.172086 0.143787 0.206418 0.188054 
0.132698 0.189954 0.208226 0.144443 0.169421 0.206377 0.13475 0.207864 0.207914 
0.148473 0.205232 0.2066 0.155 0 0.0166667 0.155 0 0.0333333 
0.155 0.0166667 0 0.155 0.0333333 0 0.155 0 0.0666667 
0.155 0 0.0833333 0.155 0.0166667 0.0333333 0.155 0.0333333 0.0166667 
0.155 0.0166667 0.05 0.155 0.0333333 0.05 0.155 0.0166667 0.0666667 
0.155 0.0333333 0.0833333 0.155 0 0.116667 0.155 0 0.133333 
0.155 0.0166667 0.1 0.155 0.0333333 0.1 0.155 0 0.166667 
0.155 0 0.183333 0.155 0.0166667 0.133333 0.155 0.0333333 0.116667 
0.155 0.0166667 0.15 0.155 0.0333333 0.15 0.155 0.0166667 0.166667 
0.155 0.0333333 0.183333 0.155 0.0166667 0.2 0.155 0.0333333 0.2 
0.155 0.05 0.0166667 0.155 0.05 0.0333333 0.155 0.0666667 0 
0.155 0.0833333 0 0.155 0.0666667 0.0166667 0.155 0.0833333 0.0333333 
0.155 0.05 0.0666667 0.155 0.05 0.0833333 0.155 0.0666667 0.05 
0.155 0.0833333 0.05 0.155 0.05 0.116667 0.155 0.05 0.133333 
0.155 0.0666667 0.0833333 0.155 0.0833333 0.0666667 0.155 0.0666667 0.1 
0.155 0.0833333 0.1 0.155 0.0666667 0.116667 0.155 0.0833333 0.133333 
0.155 0.05 0.166667 0.155 0.05 0.183333 0.155 0.0666667 0.15 
0.155 0.0833333 0.15 0.155 0.0666667 0.183333 0.155 0.0833333 0.166667 
0.155 0.0666667 0.2 0.155 0.0833333 0.2 0.155 0.1 0.0166667 
0.155 0.1 0.0333333 0.155 0.116667 0 0.155 0.133333 0 
0.155 0.1 0.0666667 0.155 0.1 0.0833333 0.155 0.116667 0.0333333 
0.155 0.133333 0.0166667 0.155 0.116667 0.05 0.155 0.133333 0.05 
0.155 0.116667 0.0666667 0.155 0.133333 0.0833333 0.155 0.1 0.116667 
0.155 0.1 0.133333 0.155 0.116667 0.1 0.155 0.133333 0.1 
0.155 0.1 0.166667 0.155 0.1 0.183333 0.155 0.116667 0.133333 
0.155 0.133333 0.116667 0.155 0.116667 0.15 0.155 0.133333 0.15 
0.155 0.116667 0.166667 0.155 0.133333 0.183333 0.155 0.116667 0.2 
0.155 0.133333 0.2 0.155 0.15 0.0166667 0.155 0.15 0.0333333 
0.155 0.166667 0 0.155 0.183333 0 0.155 0.166667 0.0166667 
0.155 0.183333 0.0333333 0.155 0.15 0.0666667 0.155 0.15 0.0833333 
0.155 0.166667 0.05 0.155 0.183333 0.05 0.155 0.15 0.116667 
0.155 0.15 0.133333 0.155 0.166667 0.0833333 0.155 0.183333 0.0666667 
0.155 0.166667 0.1 0.155 0.183333 0.1 0.155 0.166667 0.116667 
0.155 0.183333 0.133333 0.155 0.15 0.166667 0.155 0.15 0.183333 
0.155 0.166667 0.15 0.155 0.183333 0.15 0.155 0.166667 0.183333 
0.155 0.183333 0.166667 0.155 0.166667 0.2 0.155 0.183333 0.2 
0.155 0.2 0.0166667 0.155 0.2 0.0333333 0.155 0.2 0.0666667 
0.155 0.2 0.0833333 0.155 0.2 0.116667 0.155 0.2 0.133333 
0.155 0.2 0.166667 0.155 0.2 0.183333 0.132959 0.208098 0.00959626 
0.146061 0.187526 -0.00645377 0.0640854 -0.010645 0.174312 0.143118 0.206534 0.0300397 
0.155 0.183333 0.0166667 0.142377 0.187947 0.0119175 0 0.0333333 0.0333333 
0.155 0.0666667 0.166667 0 0.0666667 0.0666667 0.0519811 0.210723 0.0814579 
0.155 0.116667 0.116667 0.125667 0.0999669 0.153919 0.0500122 0.209991 0.00796598 
0.063861 0.192422 -0.0103922 0.155 0.133333 0.166667 0.129514 0.064402 0.208558 
0.14082 0.0653678 0.188121 0.0221931 -0.00804225 0.00963773 0.00896955 0.0124141 -0.00642993 
0.0647457 0.0813382 -0.0112995 0.104336 0.0260948 -0.0101747 0.0638428 0.00755985 -0.0104403 
0.0498921 -0.00995091 0.00791376 0.0256536 0.208331 0.118064 0.0141957 0.030046 0.0299519 
0.0506718 0.0260871 -0.0103098 0.0507258 0.00792194 0.00785179 0 0.133333 0.0333333 
0.140892 0.0826255 0.18815 0.155 0.0833333 0.183333 0.142418 0.0826929 0.206646 
0.0241483 0.171907 -0.00847832 0 0.0166667 0.0166667 0.0126409 0.0120103 0.0119341 
0.0119695 -0.00653255 0.0300819 0.0134729 0.0120273 0.0299978 0.0641829 0.210625 0.0256987 
0.0641588 0.192453 0.00755695 0.0291154 0.0640008 0.0460276 0.155 0.166667 0.166667 
0.0287176 0.0280173 0.0820661 0 0.116667 0.0166667 0.012668 0.117394 -0.00652407 
0 0.0333333 0.166667 0.10442 0.173932 -0.0102124 0.113124 0.155062 0.136626 
0.0646533 -0.0112059 0.1373 0.131088 0.1719 0.208534 0.1051 0.209983 0.192001 
0.0912256 0.192392 0.210371 0.0645136 0.19267 0.0257354 0.0254938 0.0643717 -0.00846345 
0.0137518 0.0478119 0.0117841 0.0241074 0.171939 0.208488 0 0.166667 0.0333333 
0.0120088 -0.0064992 0.169894 0 0.0166667 0.183333 0.0135054 0.0120583 0.170006 
0.155 0.0833333 0.0833333 0.0245482 0.189969 0.00955351 0.0222171 0.208046 0.00967663 
0.00911656 0.187446 -0.00641184 0.0127029 0.187877 0.0119388 0.0119764 0.206495 0.0300515 
0.0134898 0.187932 0.0299831 0 0.183333 0.0166667 0 0.133333 0.166667 
0.0140742 0.152256 0.0119467 0.0142149 0.169944 0.029956 0.026063 0.171929 0.00964894 
0 0.166667 0.166667 0 0.0666667 0.0333333 0.0141496 0.0653472 0.0119082 
0 0.0833333 0.0166667 0.0142856 0.082772 0.0120429 0.0142189 0.100052 0.0120219 
0.0127443 0.0828747 -0.0065277 0 0.116667 0.183333 0.0126717 0.117382 0.2065 
0.0640624 -0.0106492 0.0256447 0.0644293 0.00728335 0.0256634 0.0641054 0.00752653 0.00749737 
0.00910745 0.187459 0.206403 0.0245518 0.189971 0.190433 0.0222034 0.208051 0.190285 
0.10327 0.137139 0.210657 0 0.166667 0.0666667 0.0138445 0.188045 0.0477503 
0 0.183333 0.0833333 0.0140849 0.188009 0.0652981 0.0125898 0.206564 0.0652095 
0.140031 0.117341 0.17008 0 0.0166667 0.0833333 0.0126025 -0.00656035 0.0652269 
0.0538637 0.17427 0.118539 0.0255486 0.13568 0.208417 0.0142373 0.134697 0.18804 
0.014215 0.117386 0.188005 0.0256447 -0.00830618 0.0819943 0.0142172 0.0119656 0.0826513 
0.0254443 0.0643589 0.208504 0 0.183333 0.116667 0.0142316 0.188019 0.117411 
0.0126114 0.20652 0.134825 0 0.166667 0.133333 0.014112 0.187947 0.134737 
0.0148714 0.170028 0.134826 0.0138726 0.187985 0.152276 0.0406119 0.00839398 0.0817618 
0.0519172 -0.0107272 0.081465 0.0276876 0.00989259 0.0821545 0.0255841 0.135696 -0.00842298 
0.0142414 0.13473 0.0119534 0.0141991 0.117427 0.0119359 0.0260512 0.171929 0.190357 
0.0140547 0.15223 0.188074 0.0273818 0.171968 0.172047 0.0142321 0.169901 0.170083 
0 0.183333 0.183333 0.0127087 0.187867 0.188054 0.0119903 0.206472 0.169932 
0.0135044 0.187899 0.170019 0.0142261 0.0300627 0.170112 0.0137532 0.047795 0.188244 
0.012664 0.0120092 0.188054 0.00898829 0.0123778 0.206412 0.0222498 -0.00804837 0.190321 
0.141215 0.187932 0.152308 0.155 0.166667 0.133333 0.0291628 0.153872 0.117883 
0 0.116667 0.116667 0.0292536 0.135818 0.135837 0.129173 0.171873 0.190444 
0.140838 0.169816 0.170144 0.0239003 0.0281257 -0.00852673 0.0258336 0.0281288 0.00955378 
0.0374896 0.00877236 0.0085815 0.0244464 0.0100512 0.00947299 0.105056 -0.00990747 0.191998 
0.0912112 0.00760275 0.210341 0.113266 0.100001 0.0265993 0.0141116 0.0653323 0.188131 
0.0149887 0.0826535 0.170042 0 0.0666667 0.166667 0.142447 0.0827026 -0.00657718 
0.155 0.0833333 0.0166667 0.0407139 0.0816981 0.00834483 0.0289162 0.0820566 0.0279054 
0.0150152 0.0826533 0.0299571 0.0398272 0.191611 0.0450639 0.0645654 0.211125 0.0626189 
0.0516903 0.0629095 0.210736 0.027383 0.0641693 0.190256 0 0.0333333 0.0666667 
0.0148384 0.0299437 0.0652448 0.0138419 0.0119399 0.0477571 0.0140852 0.0119875 0.0653058 
0.155 0.0333333 0.133333 0.155 0.183333 0.0833333 0.142517 0.206555 0.0651567 
0.0256878 -0.00827195 0.118095 0.0143585 0.0119395 0.100046 0.0499574 -0.00997462 0.192046 
0.0641311 0.00754234 0.192476 0.0638634 0.00754388 0.210433 0.0139007 0.012029 0.152282 
0 0.0333333 0.133333 0.0507754 0.00789342 0.192135 0.050671 0.0260405 0.210342 
0.0402208 0.0633729 0.191717 0.0406059 0.0816994 0.1917 0.0646854 0.0813027 0.211326 
0.0396022 0.0451079 0.19173 0.0515602 0.0260721 0.192396 0.0272687 0.0281087 0.172152 
0.126617 0.17211 0.0640794 0.14308 0.206511 0.16997 0.155 0.183333 0.183333 
0.141558 0.187911 0.170052 0.10349 0.0261058 0.0077483 0.103556 0.0628524 -0.0106113 
0 0.0833333 0.183333 0.0127128 0.0828991 0.206558 0.0142301 0.100047 0.187926 
0.0142609 0.0827788 0.187983 0.0638579 0.192485 0.210403 0.0500146 0.210063 0.191981 
0 0.0166667 0.116667 0.0142555 0.0120188 0.11744 0.0126581 -0.00648156 0.134834 
0.0141424 0.0120899 0.134756 0.0912191 0.00754236 -0.0103237 0.105081 -0.00995332 0.00803247 
0.104289 0.0079145 0.00797032 0.113904 0.17349 0.0633571 0.113048 0.155162 0.0633365 
0.114283 0.191702 0.100008 0.0905218 -0.0110177 0.0626438 0.0406974 0.00841391 0.118295 
0.0407336 0.00841021 0.100039 0.0277417 0.00992574 0.117919 0.0520068 -0.0107351 0.118561 
0.0527451 0.0629234 0.192663 0.0525474 0.0259713 0.17415 0.0644565 0.00730899 0.174277 
0.0400197 0.0267789 0.173402 0.0540199 0.0628051 0.155687 0.0531522 0.0443664 0.174207 
0.0534943 0.0628451 0.174207 0.0287525 0.0820116 0.172049 0.0293081 0.0641548 0.135918 
0 0.0833333 0.116667 0.0538907 0.025764 0.118551 0.0291855 0.0461532 0.117917 
0.053284 0.00735704 0.118589 0.028751 0.046072 0.154067 0.0290082 0.046084 0.135933 
0 0.0666667 0.133333 0.0286717 0.0279389 0.135983 0.0399682 0.0084885 0.154978 
0.0404193 0.00837059 0.13663 0.0148848 0.0300083 0.13487 0.114658 0.136601 0.191684 
0.0903246 0.118689 0.211267 0.114261 0.118281 0.191697 0.102213 0.137086 0.192543 
0.155 0.116667 0.183333 0.140838 0.0999915 0.188043 0.140769 0.11725 0.188037 
0.142289 0.117158 0.206617 0.131041 0.0280435 0.208543 0.130605 0.0100061 0.190471 
0.146002 0.0125442 0.206414 0.132914 -0.00807512 0.190338 0.104331 0.192127 0.192066 
0.117538 0.191292 0.191358 0.104392 0.173962 0.210248 0.140864 0.134646 0.188149 
0.129458 0.135634 0.208508 0.127517 0.135779 0.19026 0.141164 0.152138 0.188276 
0.129127 0.0280781 0.190382 0.140975 0.0478425 0.188074 0.142344 0.0121289 0.188048 
0.155 0.0166667 0.183333 0.143064 -0.00649879 0.169921 0.141543 0.0121021 0.169981 
0.155 0.0333333 0.166667 0.140773 0.0301417 0.170044 0.141126 0.0120658 0.152226 
0.064191 0.210647 0.174268 0.0641474 0.1925 0.192447 0.0398 0.154941 0.19162 
0.0148423 0.134771 0.170034 0.0285312 0.135919 0.172027 0.0532026 0.155657 0.174119 
0.0536824 0.155712 0.15562 0.0539927 0.137174 0.155715 0.0517533 0.137139 0.210691 
0.040376 0.136613 0.19164 0.0277308 0.117874 0.190069 0.0648117 0.11875 0.211354 
0.0406803 0.118282 0.191636 0.0408585 0.100012 0.191665 0.0538287 0.118599 0.174301 
0.0292982 0.117917 0.153924 0.0532763 0.118599 0.192701 0.0294492 0.0999773 0.153928 
0.0289921 0.153929 0.135899 0 0.133333 0.133333 0.0286471 0.172111 0.135929 
0.0287517 0.153935 0.153994 0.0909352 0.192405 0.192432 0.0775323 0.19247 0.192491 
0.0908986 0.210535 0.174271 0.0506321 0.174018 0.210281 0.0375933 0.191357 0.191319 
0.0515796 0.174 0.192322 0.050808 0.192204 0.192078 0.0376006 0.191303 0.00866333 
0.0506903 0.173893 -0.0102426 0.0508242 0.192099 0.00792176 0.090305 0.0812749 0.211192 
0.0902573 0.0442137 0.192759 0.0774323 0.0441097 0.192921 0.104341 0.0261381 0.21018 
0.117568 0.00866243 0.191415 0.104278 0.0079689 0.192043 0.10261 0.0259912 0.174023 
0.0904601 -0.0110082 0.137331 0.0899416 0.0627145 0.192942 0.0897726 0.0254783 0.155908 
0.0775963 0.0253427 0.156113 0.0645038 0.192709 0.174246 0.0526049 0.174068 0.174066 
0.0399805 0.191595 0.154926 0.0401131 0.173309 0.173296 0.0277179 0.190146 0.117895 
0.0407212 0.191631 0.100019 0.0520147 0.21075 0.118542 0.127411 0.190329 0.0821408 
0.129486 0.208448 0.0819799 0.140851 0.188037 0.082609 0.0543906 0.137207 0.137185 
0.102017 0.17417 0.155548 0.0895512 0.174645 0.137344 0.103132 0.210716 0.118579 
0.115378 0.154899 0.191641 0.127825 0.171866 0.172099 0.103578 0.173945 0.192275 
0.115159 0.173261 0.173275 0.0905995 0.192586 0.174286 0.0902556 0.155823 0.192848 
0.0775897 0.155905 0.192893 0.0644823 -0.0111724 0.0626119 0.0397132 0.00845736 0.0450345 
0.0402808 0.00838268 0.0633742 0.132915 -0.0080361 0.00967703 0.146002 0.01254 -0.00638819 
0.0256527 0.208345 0.0819748 0.0143473 0.188092 0.100017 0.027706 0.190155 0.0821364 
0.0142191 0.188048 0.0826295 0.100902 0.0628836 0.155725 0.114103 0.100011 0.191702 
0.0894768 0.0626524 0.174629 0.126477 0.0277979 0.135843 0.10303 -0.0107256 0.118573 
0.113797 0.0266256 0.136643 0.11309 0.0633625 0.155076 0.10199 0.0258957 0.155618 
0.126603 0.0641603 0.172083 0.127375 0.0821918 0.190232 0.127019 0.0461224 0.172079 
0.140198 0.0653016 0.170032 0.127732 0.0280211 0.172054 0.0406319 0.19164 0.08174 
0.0403453 0.191653 0.0633778 0.014856 0.170069 0.0652414 0.129535 0.208394 0.11808 
0.140683 0.188123 0.100002 0.1275 0.190253 0.117904 0.0776246 0.174687 0.156001 
0.090361 0.210992 0.137358 0.0898581 0.174557 0.155929 0.0902393 0.174395 0.174391 
0.142504 0.206541 0.134884 0.14094 0.187866 0.134759 0.155 0.183333 0.116667 
0.140879 0.187993 0.117416 0.125454 0.117894 0.135832 0.100514 0.137131 0.137178 
0.100946 0.155712 0.137139 0.140841 0.0826694 0.0119749 0.129622 0.0643923 -0.00853731 
0.100953 0.155776 0.0628353 0.125313 0.117951 0.0641266 0.125702 0.153981 0.0999914 
0.117587 0.191363 0.00858434 0.131117 0.171934 -0.00854111 0.129191 0.171942 0.0095711 
0.130626 0.190021 0.00946351 0.0239056 0.0280757 0.208554 0.0375544 0.00874882 0.191406 
0.0258652 0.0281088 0.190479 0.0245011 0.0100409 0.190518 0.05397 0.118507 0.0258124 
0.141569 0.187922 0.0299822 0.155 0.166667 0.0333333 0.14081 0.169832 0.0299144 
0.130566 0.0100392 0.00953299 0.117556 0.00860509 0.00857199 0.131046 0.0280553 -0.00854838 
0.103083 0.210758 0.0814365 0.125737 0.117902 0.15395 0.126095 0.117884 0.172153 
0.155 0.133333 0.133333 0.0544957 0.137159 0.0628293 0.100534 0.137187 0.0628133 
0.0775276 0.137773 0.100006 0.127456 0.135788 0.00966335 0.129521 0.135681 -0.00853335 
0.141068 0.15212 0.0118185 0.140825 0.134641 0.0119399 0.155 0.133333 0.0333333 
0.115472 0.191774 0.0450507 0.102754 0.174078 0.0259806 0.103593 0.173932 0.00773077 
0.102973 0.192517 0.0444757 0.100462 0.0628477 0.137167 0.0774487 0.100001 0.13773 
0.0544185 0.0628031 0.137169 0.130573 0.189948 0.190524 0.132863 0.208036 0.19036 
0.142385 0.187955 0.188107 0.146031 0.187565 0.206464 0.14092 0.187881 0.0652791 
0.141198 0.187925 0.0477303 0.155 0.166667 0.0666667 0.090288 0.192823 0.0441612 
0.0904299 0.211039 0.0626198 0.104345 0.192126 0.00793648 0.0912729 0.192407 -0.0103637 
0.105087 0.209992 0.0080082 0.0293119 0.04611 0.099984 0.0540467 0.0443182 0.0628029 
0.140181 0.169832 0.0652094 0.13997 0.152187 0.0476292 0.1278 0.171989 0.0278901 
0.127049 0.172048 0.0460339 0.125323 0.0640793 0.117951 0.113439 0.0265867 0.118311 
0.140123 0.0300217 0.134758 0.155 0.0666667 0.133333 0.13997 0.047786 0.152333 
0.139764 0.0476934 0.134786 0.0906333 0.192626 0.025776 0.0775653 0.192522 0.00754159 
0.0909672 0.192425 0.00759276 0.090935 0.210588 0.0257251 0.140201 0.169798 0.134839 
0.114208 0.154983 0.173329 0.125857 0.13585 0.154009 0.11356 0.155063 0.154943 
0.0400802 0.173271 0.0267109 0.0273659 0.172006 0.0279505 0.0516324 0.173874 0.00771086 
0.0526117 0.17402 0.025946 0.0775015 0.192959 0.0441244 0.0528408 0.192586 0.062912 
0.0402903 0.0633906 0.00832 0.0274347 0.064178 0.00978464 0.0517698 0.0629336 -0.0107017 
0.0518108 0.137032 -0.0106646 0.0277398 0.11789 0.00985569 0.0540956 0.155641 0.0628063 
0.0293748 0.153931 0.0999791 0.0532292 0.174097 0.0443473 0.0535776 0.174138 0.0628356 
0.0287714 0.17204 0.0820429 0.029319 0.1359 0.0641094 0.0291926 0.117901 0.0460718 
0 0.116667 0.0833333 0.028772 0.154007 0.046035 0.0290206 0.135895 0.0460285 
0 0.133333 0.0666667 0.0404328 0.136555 0.00834559 0.0399151 0.154882 0.00845762 
0.0286545 0.135937 0.0278842 0.0148498 0.134854 0.0299414 0 0.0833333 0.0833333 
0.0295365 0.0820658 0.0641225 0.0292984 0.100006 0.0460456 0.0292693 0.0820315 0.0460448 
0.103402 0.137169 -0.0106848 0.114377 0.154978 0.0266576 0.126435 0.135789 0.0278167 
0.139709 0.134754 0.0477026 0.139987 0.117365 0.0300305 0.155 0.133333 0.0666667 
0.139591 0.0477388 0.082608 0.090865 -0.0105331 0.174246 0.0774892 0.00752158 0.192475 
0.0904771 0.00741541 0.174242 0.090879 0.00760745 0.192381 0.0408967 0.10001 0.00831015 
0.0648254 0.118719 -0.0112853 0.0533188 0.118523 0.00741164 0.0407203 0.118239 0.00835199 
0.0904012 0.118713 -0.0113598 0.113372 0.11829 0.0265731 0.101569 0.137117 0.02578 
0.113731 0.13662 0.0265934 0.05451 0.0628485 0.0627899 0.077582 0.100004 0.0622779 
0.100518 0.0627926 0.0628249 0.0774164 0.0622461 0.0999627 0.112668 0.0633778 0.0633517 
0.113312 0.0265991 0.100033 0.0396275 0.0451351 0.00830932 0.0398877 0.026795 0.0266361 
0.0515331 0.0261015 0.00762785 0.0271878 0.0281002 0.0278968 0.0774904 0.00747518 0.00752305 
0.0909188 -0.0105674 0.025775 0.0908954 0.00755289 0.00763238 0.13964 0.117397 0.0477368 
0.139422 0.117344 0.0652564 0.155 0.116667 0.0833333 0.155 0.0666667 0.0333333 
0.140791 0.0653705 0.0119881 0.0895889 0.174682 0.0626151 0.0777292 0.156138 0.0253306 
0.0898997 0.155957 0.0254073 0.0900131 0.192991 0.0626928 0.155 0.0333333 0.0333333 
0.102939 0.0444801 0.0075735 0.102624 0.025945 0.0259758 0.0904918 0.00736363 0.0257622 
0.0646915 0.211198 0.137285 0.0403958 0.191696 0.136601 0.0532325 0.192661 0.118588 
0.0406556 0.191644 0.118285 0.0527741 0.00739374 0.0628899 0.0537438 0.044326 0.0442462 
0.115453 0.0450736 0.00819104 0.127382 0.0822152 0.00975825 0.155 0.0166667 0.0833333 
0.142402 -0.00642668 0.0651875 0.103495 0.0261513 0.192249 0.115448 0.0450998 0.191722 
0.103431 0.0628873 0.210594 0.102873 0.044513 0.19241 0.155 0.0333333 0.0666667 
0.141073 0.0121749 0.0477846 0.140811 0.0122033 0.0653069 0.126228 0.0279267 0.0821218 
0.125474 0.0641704 0.0640766 0.139445 0.0651858 0.0652543 0.125803 0.0641077 0.0460098 
0.126485 0.0641306 0.0279315 0.139611 0.100023 0.0477061 0.142426 -0.00652085 0.134792 
0.155 0.0166667 0.116667 0.140864 0.012072 0.134692 0.0531771 0.0443704 0.0257737 
0.0524683 0.0259513 0.0258485 0.0528364 0.0629697 0.00736579 0.101915 0.0257935 0.0444416 
0.101437 0.0257752 0.0629422 0.114146 0.0265746 0.045017 0.10324 -0.0106998 0.0814236 
0.0897438 0.0254096 0.0440624 0.0774201 0.0252709 0.0439309 0.0895955 0.0625865 0.0253036 
0.0900093 0.0626621 0.00701961 0.0774564 0.0440552 0.0071665 0.0902691 0.0441518 0.00723345 
0.0903496 0.0812382 -0.0112285 0.139666 0.0476787 0.117374 0.139658 0.0476995 0.0999997 
0.155 0.0833333 0.116667 0.139428 0.0652106 0.117339 0.129373 -0.00838031 0.0819393 
0.140723 0.0120937 0.0826149 0.127136 0.00969333 0.0821026 0.140772 0.0119622 0.117359 
0.140584 0.0119548 0.0999793 0.127193 0.0096201 0.117877 0.129333 -0.00844462 0.118063 
0.140158 0.0653024 0.0300589 0.126896 0.0461637 0.0279147 0.155 0.116667 0.0166667 
0.140792 0.100012 0.0120472 0.142292 0.117175 -0.00654162 0.140706 0.11724 0.0120852 
0.139707 0.0477662 0.065241 0.139889 0.0477388 0.047686 0.140048 0.030128 0.0652469 
0.155 0.0666667 0.0666667 0.129083 0.0281089 0.00961237 0.127625 0.028088 0.0279195 
0.140961 0.0478376 0.0119812 0.140714 0.0301821 0.0299761 0.155 0.0166667 0.0166667 
0.143024 -0.00642735 0.0301058 0.142302 0.0121644 0.0119759 0.141498 0.012192 0.0300266 

CELLS 236 4956
20 69 93 88 68 814 815 925 924 808 809 801 800 805 804 803 802 956 957 1317 961 
20 28 47 45 44 422 423 549 548 420 421 418 419 541 540 539 538 1160 1418 958 1119 
20 93 69 88 94 815 814 808 809 925 924 948 949 816 817 926 927 959 1323 960 961 
20 43 49 86 85 522 523 600 601 536 537 534 535 598 599 909 908 1345 967 1366 1279 
20 5 1 26 6 109 108 114 115 150 151 142 143 110 111 161 160 962 1111 980 991 
20 82 86 81 63 892 893 891 890 889 888 749 748 751 750 747 746 972 1290 1198 963 
20 7 11 48 6 176 177 240 241 192 193 157 156 159 158 173 172 964 1103 994 1409 
20 37 17 54 38 327 326 334 335 480 481 472 473 328 329 485 484 1277 1254 965 1292 
20 55 13 12 51 285 284 245 244 263 262 625 624 282 283 258 259 1211 1221 1212 1087 
20 90 86 49 85 915 914 601 600 603 602 911 910 909 908 598 599 966 967 1306 1330 
20 37 52 50 36 476 477 607 606 474 475 467 466 471 470 469 468 968 969 1237 993 
20 91 92 65 86 940 941 779 778 777 776 917 916 919 918 772 773 970 1184 1047 1193 
20 82 65 86 63 771 770 772 773 892 893 749 748 745 744 751 750 971 1288 972 984 
20 25 5 0 26 149 148 101 100 103 102 388 389 150 151 104 105 1093 989 973 974 
20 46 32 6 48 441 440 165 164 171 170 554 555 442 443 172 173 975 1102 1483 1386 
20 57 46 58 62 557 556 558 559 668 669 670 671 560 561 678 679 976 1135 1327 1149 
20 26 41 25 46 400 401 393 392 389 388 406 407 502 503 394 395 1037 977 982 978 
20 22 38 39 17 376 377 482 483 378 379 323 322 329 328 331 330 1276 1253 1058 979 
20 55 49 12 54 591 590 255 254 263 262 649 648 588 589 260 261 1298 1259 1050 1213 
20 26 5 6 30 151 150 142 143 161 160 398 399 152 153 162 163 1091 1008 1438 980 
20 25 30 26 46 390 391 399 398 388 389 394 395 432 433 406 407 981 1437 982 1092 
20 11 15 16 34 230 231 290 291 232 233 238 239 298 299 308 309 1068 1023 1405 983 
20 82 65 87 86 771 770 774 775 894 895 892 893 772 773 913 912 984 1183 985 986 
20 15 34 36 37 298 299 454 455 300 301 302 303 456 457 466 467 1025 1235 1015 987 
20 43 85 64 48 534 535 761 760 530 531 520 521 583 582 579 578 1431 1096 1490 1433 
20 1 5 26 0 108 109 150 151 114 115 99 98 101 100 105 104 988 989 990 991 
20 52 37 50 53 477 476 474 475 607 606 638 639 478 479 608 609 992 1006 1373 993 
20 60 80 59 86 722 723 705 704 699 698 728 729 886 887 708 709 1371 1495 1282 1504 
20 48 7 6 43 193 192 157 156 173 172 521 520 188 189 168 169 1361 996 1460 994 
20 92 71 96 91 833 832 836 837 944 945 941 940 830 831 943 942 1089 1083 995 1134 
20 26 7 43 6 183 182 188 189 404 405 161 160 157 156 169 168 1110 996 1272 1064 
20 6 26 46 42 160 161 406 407 170 171 166 167 402 403 511 510 1271 1036 1482 1436 
20 32 15 10 11 297 296 225 224 227 226 237 236 231 230 222 223 1069 997 1031 998 
20 90 71 70 49 829 828 821 820 823 822 603 602 597 596 595 594 1379 1260 1001 1297 
20 28 9 8 3 215 214 195 194 199 198 135 134 133 132 131 130 1013 999 1121 1078 
20 68 69 50 66 800 801 619 618 617 616 781 780 783 782 614 615 1314 1343 1000 1357 
20 49 90 54 70 602 603 659 658 588 589 594 595 823 822 652 653 1001 1152 1261 1308 
20 28 43 7 44 416 417 189 188 187 186 418 419 518 519 190 191 1002 1170 1176 1154 
20 92 72 71 67 841 840 827 826 833 832 799 798 795 794 793 792 1003 1191 1088 1348 
20 71 56 51 72 665 664 627 626 633 632 826 827 666 667 634 635 1004 1005 1190 1228 
20 50 37 16 53 475 474 311 310 313 312 608 609 478 479 314 315 1006 1105 1383 1380 
20 5 6 30 32 142 143 162 163 152 153 154 155 164 165 430 431 1028 1387 1007 1008 
20 39 19 35 40 359 358 356 357 461 460 486 487 360 361 462 463 1039 1009 1232 1070 
20 12 11 50 48 229 228 242 243 256 257 252 253 240 241 575 574 1408 1423 1322 1397 
20 21 15 37 16 295 294 302 303 370 371 307 306 290 291 311 310 1010 1024 1043 1020 
20 28 4 9 3 139 138 136 137 215 214 135 134 127 126 133 132 1011 1012 1013 1080 
20 80 84 58 85 882 883 695 694 693 692 884 885 900 901 696 697 1014 1474 1416 1512 
20 15 36 20 37 300 301 365 364 292 293 302 303 466 467 366 367 1015 1016 1018 1017 
20 15 20 21 37 292 293 362 363 294 295 302 303 366 367 370 371 1018 1019 1020 1021 
20 19 18 35 13 339 338 342 343 356 357 273 272 271 270 277 276 1022 1209 1052 1071 
20 39 51 35 18 488 489 465 464 461 460 345 344 347 346 343 342 1252 1208 1072 1233 
20 15 34 37 16 298 299 456 457 302 303 290 291 309 308 311 310 1023 1381 1024 1025 
20 19 23 39 18 350 351 382 383 358 359 339 338 341 340 345 344 1026 1063 1073 1077 
20 5 6 32 11 142 143 164 165 154 155 146 147 158 159 237 236 1027 1104 1030 1028 
20 10 5 32 11 145 144 154 155 226 227 222 223 146 147 237 236 1029 1030 1031 1032 
20 19 33 14 13 354 355 289 288 287 286 273 272 275 274 267 266 1053 1139 1033 1034 
20 26 41 46 42 400 401 502 503 406 407 402 403 500 501 511 510 1035 1439 1036 1037 
20 24 19 39 40 353 352 358 359 384 385 386 387 360 361 486 487 1038 1039 1040 1075 
20 51 91 67 65 636 637 797 796 630 631 628 629 777 776 769 768 1178 1195 1041 1263 
20 17 21 37 16 320 321 370 371 326 327 305 304 307 306 311 310 1042 1043 1294 1045 
20 37 22 21 17 375 374 369 368 371 370 327 326 323 322 321 320 1278 1044 1045 1046 
20 49 91 65 86 604 605 777 776 592 593 600 601 917 916 772 773 1331 1047 1280 1180 
20 7 1 26 2 113 112 114 115 182 183 119 118 106 107 121 120 1048 1049 1055 1112 
20 17 55 12 54 336 337 263 262 247 246 334 335 649 648 260 261 1457 1050 1392 1085 
20 19 33 13 35 354 355 275 274 273 272 356 357 446 447 276 277 1051 1216 1052 1053 
20 7 2 26 27 119 118 120 121 182 183 184 185 122 123 396 397 1117 1054 1066 1055 
20 33 9 8 31 221 220 195 194 203 202 435 434 218 219 200 201 1056 1079 1108 1097 
20 55 18 39 17 349 348 344 345 493 492 337 336 319 318 331 330 1226 1062 1456 1251 
20 23 22 39 17 373 372 378 379 382 383 325 324 323 322 331 330 1057 1058 1061 1059 
20 18 23 39 17 340 341 382 383 344 345 319 318 325 324 331 330 1060 1061 1062 1063 
20 26 7 27 43 183 182 184 185 396 397 404 405 188 189 410 411 1064 1155 1065 1066 
20 32 15 11 34 297 296 231 230 237 236 438 439 298 299 238 239 1067 1068 1390 1069 
20 39 19 18 35 359 358 339 338 345 344 461 460 356 357 342 343 1070 1071 1072 1073 
20 23 19 39 24 351 350 358 359 382 383 380 381 352 353 385 384 1074 1075 1076 1077 
20 28 9 31 8 215 214 218 219 414 415 199 198 195 194 201 200 1078 1079 1130 1320 
20 28 4 29 9 139 138 140 141 412 413 215 214 136 137 217 216 1080 1081 1321 1082 
20 51 91 49 71 636 637 605 604 587 586 632 633 831 830 596 597 1266 1377 1268 1181 
20 96 71 90 91 837 836 828 829 939 938 943 942 830 831 932 933 1083 1376 1084 1303 
20 13 55 12 17 284 285 263 262 245 244 268 269 337 336 246 247 1224 1085 1086 1087 
20 92 71 91 67 833 832 830 831 941 940 799 798 793 792 797 796 1088 1264 1196 1089 
20 25 5 26 30 149 148 150 151 388 389 390 391 152 153 398 399 1090 1091 1092 1093 
20 47 61 45 60 568 569 553 552 549 548 566 567 711 710 550 551 1243 1094 1420 1095 
20 33 49 8 13 450 451 209 208 203 202 275 274 281 280 196 197 1219 1165 1098 1126 
20 85 90 64 48 910 911 767 766 761 760 583 582 585 584 579 578 1312 1426 1096 1443 
20 13 9 8 33 211 210 195 194 197 196 274 275 220 221 202 203 1140 1097 1098 1099 
20 78 64 84 83 755 754 758 759 874 875 872 873 756 757 897 896 1100 1509 1101 1309 
20 6 32 11 48 164 165 237 236 158 159 172 173 442 443 240 241 1102 1421 1103 1104 
20 16 37 54 53 310 311 480 481 316 317 314 315 478 479 645 644 1105 1106 1385 1293 
20 47 33 8 31 449 448 203 202 207 206 437 436 435 434 200 201 1107 1108 1128 1125 
20 1 7 26 6 112 113 182 183 114 115 110 111 157 156 161 160 1109 1110 1111 1112 
20 76 80 60 81 862 863 723 722 719 718 864 865 880 881 724 725 1113 1368 1205 1480 
20 90 94 69 95 934 935 817 816 813 812 936 937 950 951 818 819 1114 1115 1258 1352 
20 90 50 70 66 623 622 620 621 823 822 791 790 614 615 785 784 1411 1342 1131 1150 
20 7 2 27 28 119 118 122 123 184 185 186 187 124 125 408 409 1144 1116 1156 1117 
20 29 28 47 45 413 412 422 423 428 429 426 427 420 421 549 548 1118 1119 1120 1123 
20 3 7 8 28 128 129 174 175 130 131 134 135 186 187 198 199 1146 1177 1121 1122 
20 29 28 31 47 413 412 414 415 424 425 428 429 422 423 436 437 1123 1129 1124 1319 
20 47 33 49 8 449 448 450 451 564 565 207 206 203 202 209 208 1125 1126 1158 1127 
20 28 8 31 47 199 198 200 201 414 415 422 423 206 207 436 437 1161 1128 1129 1130 
20 90 70 69 66 823 822 807 806 813 812 791 790 785 784 783 782 1131 1341 1365 1256 
20 71 97 92 96 838 839 947 946 832 833 836 837 955 954 944 945 1132 1133 1134 1350 
20 58 46 64 62 559 558 562 563 680 681 678 679 560 561 737 736 1135 1136 1461 1452 
20 13 9 33 14 211 210 220 221 274 275 266 267 212 213 289 288 1137 1138 1139 1140 
20 39 56 40 51 494 495 499 498 486 487 488 489 627 626 496 497 1207 1141 1234 1142 
20 3 7 28 2 128 129 186 187 134 135 117 116 119 118 125 124 1143 1144 1145 1146 
20 46 57 58 41 556 557 668 669 558 559 503 502 505 504 507 506 1147 1148 1441 1149 
20 90 50 48 70 623 622 575 574 585 584 823 822 620 621 580 581 1150 1449 1151 1427 
20 90 54 70 48 659 658 652 653 823 822 585 584 577 576 581 580 1311 1447 1151 1152 
20 58 43 64 42 525 524 530 531 680 681 515 514 509 508 517 516 1153 1488 1453 1484 
20 28 43 27 7 416 417 411 410 409 408 187 186 189 188 185 184 1154 1155 1156 1157 
20 8 49 47 44 208 209 565 564 206 207 204 205 543 542 541 540 1163 1240 1159 1158 
20 28 8 47 44 199 198 206 207 422 423 418 419 204 205 541 540 1175 1159 1160 1161 
20 43 49 12 44 522 523 255 254 249 248 518 519 543 542 250 251 1248 1162 1168 1347 
20 12 49 13 44 254 255 281 280 244 245 250 251 543 542 278 279 1162 1164 1166 1223 
20 49 8 13 44 209 208 196 197 281 280 543 542 204 205 278 279 1163 1171 1164 1165 
20 12 13 7 44 244 245 181 180 179 178 250 251 278 279 190 191 1166 1172 1169 1167 
20 43 12 7 44 249 248 179 178 189 188 518 519 250 251 190 191 1168 1169 1170 1360 
20 13 8 7 44 197 196 175 174 181 180 278 279 204 205 190 191 1171 1174 1172 1173 
20 7 8 28 44 174 175 198 199 186 187 190 191 204 205 418 419 1174 1175 1176 1177 
20 91 51 49 65 637 636 587 586 605 604 777 776 628 629 592 593 1178 1179 1180 1181 
20 92 87 65 86 921 920 775 774 779 778 919 918 913 912 772 773 1182 1183 1184 1185 
20 63 61 60 82 731 730 711 710 713 712 748 749 734 735 726 727 1186 1187 1197 1242 
20 60 61 77 82 710 711 732 733 720 721 726 727 734 735 868 869 1187 1188 1199 1189 
20 67 51 72 71 631 630 634 635 794 795 792 793 632 633 827 826 1265 1190 1191 1192 
20 91 92 67 65 940 941 799 798 797 796 777 776 779 778 769 768 1193 1194 1195 1196 
20 63 60 81 82 713 712 724 725 746 747 748 749 726 727 888 889 1197 1204 1198 1291 
20 76 60 77 82 719 718 720 721 860 861 866 867 726 727 868 869 1202 1199 1200 1201 
20 60 76 81 82 718 719 864 865 724 725 726 727 866 867 888 889 1202 1203 1204 1205 
20 39 56 51 55 494 495 627 626 488 489 492 493 661 660 624 625 1206 1229 1249 1207 
20 18 35 13 51 342 343 277 276 271 270 346 347 464 465 282 283 1208 1215 1210 1209 
20 55 13 51 18 285 284 282 283 625 624 349 348 270 271 347 346 1227 1210 1250 1211 
20 49 55 12 51 590 591 263 262 255 254 586 587 625 624 258 259 1269 1212 1220 1213 
20 35 33 13 51 447 446 275 274 277 276 464 465 452 453 282 283 1214 1218 1215 1216 
20 33 49 13 51 450 451 281 280 275 274 452 453 586 587 282 283 1217 1222 1218 1219 
20 49 12 13 51 255 254 244 245 281 280 586 587 258 259 282 283 1220 1221 1222 1223 
20 55 13 18 17 285 284 270 271 349 348 337 336 268 269 319 318 1224 1225 1226 1227 
20 71 56 55 51 665 664 661 660 663 662 633 632 627 626 625 624 1228 1229 1267 1230 
20 51 40 39 35 497 496 487 486 489 488 465 464 463 462 461 460 1231 1232 1233 1234 
20 37 36 50 34 467 466 468 469 474 475 457 456 455 454 459 458 1235 1236 1382 1237 
20 47 60 44 65 566 567 545 544 541 540 572 573 714 715 546 547 1468 1244 1239 1419 
20 49 47 44 65 565 564 541 540 543 542 592 593 572 573 546 547 1238 1239 1246 1240 
20 47 61 60 63 568 569 711 710 566 567 570 571 730 731 712 713 1241 1242 1465 1243 
20 43 44 60 65 518 519 544 545 528 529 532 533 546 547 714 715 1247 1244 1286 1245 
20 43 49 44 65 522 523 543 542 518 519 532 533 592 593 546 547 1281 1246 1247 1248 
20 39 51 18 55 488 489 347 346 345 344 492 493 624 625 348 349 1249 1250 1251 1252 
20 54 39 38 17 491 490 483 482 485 484 335 334 331 330 329 328 1458 1253 1254 1255 
20 90 70 95 69 823 822 824 825 936 937 813 812 807 806 819 818 1256 1257 1258 1296 
20 49 12 54 85 255 254 260 261 588 589 598 599 264 265 656 657 1346 1335 1307 1259 
20 71 49 54 70 597 596 588 589 655 654 821 820 594 595 652 653 1260 1261 1262 1300 
20 51 91 71 67 636 637 831 830 632 633 630 631 797 796 793 792 1263 1264 1265 1266 
20 49 55 51 71 590 591 625 624 586 587 596 597 662 663 632 633 1301 1267 1268 1269 
20 6 43 26 42 168 169 405 404 160 161 166 167 509 508 402 403 1459 1270 1271 1272 
20 73 58 78 57 683 682 688 689 846 847 673 672 669 668 675 674 1273 1326 1274 1522 
20 37 22 17 38 375 374 323 322 327 326 472 473 376 377 328 329 1275 1276 1277 1278 
20 43 49 65 86 522 523 592 593 532 533 536 537 600 601 772 773 1279 1280 1285 1281 
20 59 43 60 86 527 526 528 529 698 699 708 709 536 537 728 729 1367 1284 1282 1283 
20 60 43 65 86 529 528 532 533 714 715 728 729 536 537 772 773 1284 1285 1287 1286 
20 63 60 65 86 713 712 714 715 744 745 750 751 728 729 772 773 1289 1287 1288 1466 
20 60 63 81 86 712 713 746 747 724 725 728 729 750 751 890 891 1289 1290 1370 1291 
20 37 17 16 54 327 326 305 304 311 310 480 481 334 335 316 317 1292 1395 1293 1294 
20 71 95 90 70 834 835 937 936 828 829 821 820 825 824 823 822 1295 1296 1297 1305 
20 49 55 71 54 590 591 662 663 596 597 588 589 649 648 655 654 1298 1299 1300 1301 
20 95 71 90 96 835 834 828 829 937 936 952 953 836 837 938 939 1302 1303 1304 1305 
20 88 69 66 89 809 808 783 782 787 786 922 923 810 811 788 789 1325 1364 1338 1316 
20 90 49 54 85 603 602 588 589 659 658 911 910 598 599 656 657 1306 1307 1313 1308 
20 78 64 62 84 755 754 737 736 739 738 874 875 758 759 742 743 1309 1462 1446 1310 
20 90 66 89 64 791 790 788 789 929 928 767 766 753 752 765 764 1412 1336 1413 1363 
20 54 90 85 48 658 659 911 910 656 657 577 576 585 584 583 582 1311 1312 1334 1313 
20 69 68 88 66 801 800 802 803 808 809 783 782 781 780 787 786 1314 1315 1316 1317 
20 9 29 28 31 216 217 413 412 214 215 218 219 424 425 414 415 1318 1319 1320 1321 
20 54 12 50 48 261 260 256 257 611 610 577 576 252 253 575 574 1333 1322 1448 1391 
20 88 69 89 94 809 808 810 811 922 923 926 927 816 817 930 931 1323 1353 1324 1325 
20 78 58 62 57 689 688 678 679 739 738 675 674 669 668 671 670 1326 1327 1328 1516 
20 69 54 50 70 651 650 611 610 619 618 806 807 652 653 620 621 1329 1450 1344 1355 
20 90 86 91 49 915 914 916 917 932 933 603 602 601 600 605 604 1330 1331 1378 1332 
20 12 54 85 48 260 261 656 657 264 265 252 253 577 576 583 582 1333 1334 1430 1335 
20 89 66 88 64 789 788 786 787 923 922 765 764 753 752 763 762 1336 1337 1339 1338 
20 88 84 89 64 903 902 904 905 922 923 763 762 759 758 765 764 1511 1414 1339 1340 
20 69 70 50 66 806 807 621 620 619 618 783 782 785 784 614 615 1341 1342 1343 1344 
20 49 43 12 85 523 522 249 248 255 254 598 599 534 535 264 265 1345 1432 1346 1347 
20 92 72 97 71 841 840 842 843 946 947 833 832 827 826 839 838 1348 1349 1350 1351 
20 90 94 89 69 934 935 931 930 929 928 813 812 817 816 811 810 1352 1353 1362 1354 
20 69 54 53 50 651 650 645 644 647 646 619 618 611 610 609 608 1355 1384 1372 1356 
20 68 69 52 50 800 801 643 642 641 640 617 616 619 618 607 606 1357 1374 1358 1359 
20 48 7 43 12 193 192 188 189 521 520 253 252 178 179 249 248 1407 1360 1429 1361 
20 69 90 66 89 812 813 791 790 783 782 810 811 929 928 788 789 1362 1363 1364 1365 
20 59 43 86 85 527 526 536 537 708 709 706 707 534 535 909 908 1434 1366 1498 1367 
20 60 80 86 81 722 723 886 887 728 729 724 725 880 881 891 890 1368 1369 1370 1371 
20 69 53 52 50 647 646 639 638 643 642 619 618 609 608 607 606 1372 1373 1374 1375 
20 90 71 49 91 829 828 597 596 603 602 932 933 830 831 604 605 1376 1377 1378 1379 
20 50 37 34 16 475 474 457 456 459 458 313 312 311 310 309 308 1380 1381 1403 1382 
20 54 16 53 50 317 316 314 315 645 644 611 610 312 313 609 608 1393 1383 1384 1385 
20 46 32 30 6 441 440 431 430 433 432 171 170 165 164 163 162 1386 1387 1435 1388 
20 32 34 11 50 438 439 239 238 237 236 444 445 458 459 242 243 1389 1402 1424 1390 
20 12 17 54 50 246 247 334 335 260 261 256 257 332 333 611 610 1396 1394 1391 1392 
20 17 16 54 50 305 304 316 317 334 335 332 333 312 313 611 610 1399 1393 1394 1395 
20 11 17 12 50 234 235 247 246 228 229 242 243 332 333 256 257 1400 1396 1397 1398 
20 11 16 17 50 232 233 304 305 234 235 242 243 312 313 332 333 1404 1399 1400 1401 
20 11 34 16 50 238 239 309 308 232 233 242 243 458 459 312 313 1402 1403 1404 1405 
20 11 7 48 12 177 176 192 193 240 241 228 229 178 179 253 252 1406 1407 1408 1409 
20 64 50 90 66 613 612 622 623 766 767 752 753 614 615 791 790 1410 1411 1412 1428 
20 90 89 84 64 929 928 905 904 907 906 767 766 765 764 759 758 1413 1414 1442 1415 
20 85 59 58 80 707 706 677 676 697 696 885 884 704 705 692 693 1496 1501 1416 1472 
20 60 45 47 44 551 550 548 549 567 566 545 544 539 538 541 540 1417 1418 1419 1420 
20 11 32 50 48 236 237 444 445 242 243 240 241 442 443 575 574 1421 1422 1423 1424 
20 50 64 90 48 612 613 766 767 622 623 575 574 579 578 585 584 1425 1426 1427 1428 
20 43 12 85 48 249 248 264 265 534 535 520 521 252 253 583 582 1429 1430 1431 1432 
20 59 43 85 64 527 526 534 535 706 707 700 701 530 531 761 760 1485 1433 1473 1434 
20 30 6 26 46 163 162 160 161 399 398 432 433 170 171 406 407 1435 1436 1437 1438 
20 46 41 58 42 503 502 506 507 558 559 511 510 500 501 515 514 1439 1440 1454 1441 
20 90 84 85 64 907 906 900 901 911 910 767 766 759 758 761 760 1442 1477 1443 1444 
20 84 62 78 79 743 742 738 739 875 874 879 878 740 741 870 871 1506 1518 1445 1446 
20 70 54 50 48 653 652 611 610 621 620 581 580 577 576 575 574 1447 1448 1449 1450 
20 78 74 79 58 851 850 852 853 870 871 689 688 685 684 691 690 1523 1470 1519 1451 
20 58 46 42 64 559 558 511 510 515 514 680 681 562 563 516 517 1452 1493 1453 1454 
20 54 39 17 55 491 490 331 330 335 334 648 649 492 493 336 337 1455 1456 1457 1458 
20 43 6 48 42 169 168 172 173 520 521 509 508 166 167 513 512 1459 1481 1489 1460 
20 84 64 62 58 759 758 737 736 743 742 695 694 681 680 679 678 1476 1461 1507 1462 
20 58 80 75 74 692 693 859 858 686 687 684 685 855 854 849 848 1471 1463 1464 1500 
20 47 60 65 63 566 567 714 715 572 573 570 571 712 713 745 744 1465 1466 1467 1468 
20 58 80 74 79 692 693 855 854 684 685 690 691 877 876 852 853 1514 1469 1470 1471 
20 85 59 64 58 707 706 700 701 761 760 697 696 677 676 681 680 1472 1486 1475 1473 
20 84 85 64 58 900 901 761 760 759 758 695 694 697 696 681 680 1474 1475 1476 1477 
20 60 75 80 76 716 717 858 859 722 723 718 719 856 857 863 862 1478 1479 1480 1502 
20 48 6 46 42 173 172 170 171 555 554 513 512 166 167 511 510 1481 1482 1492 1483 
20 58 43 59 64 525 524 526 527 676 677 680 681 530 531 700 701 1484 1485 1486 1487 
20 64 43 48 42 531 530 520 521 579 578 517 516 509 508 513 512 1488 1489 1491 1490 
20 64 48 46 42 579 578 555 554 563 562 517 516 513 512 511 510 1491 1492 1493 1494 
20 86 59 85 80 709 708 706 707 909 908 887 886 704 705 885 884 1495 1496 1497 1498 
20 59 58 80 75 677 676 692 693 704 705 702 703 686 687 859 858 1499 1500 1503 1501 
20 60 75 59 80 716 717 703 702 699 698 722 723 858 859 704 705 1502 1503 1504 1505 
20 62 84 58 79 742 743 695 694 679 678 740 741 879 878 690 691 1506 1513 1517 1507 
20 88 84 64 83 903 902 759 758 763 762 899 898 897 896 756 757 1508 1509 1510 1511 
20 80 84 79 58 882 883 879 878 877 876 693 692 695 694 691 690 1512 1513 1514 1515 
20 78 58 79 62 689 688 690 691 870 871 739 738 678 679 741 740 1516 1517 1518 1519 
20 78 74 58 73 851 850 685 684 689 688 847 846 845 844 682 683 1520 1521 1522 1523 

CELL_TYPES 236
-1
-1
-1
-1
-1
-1
-1
-1
-1
-1
-1
-1
-1
-1
-1
-1
-1
-1
-1
-1
-1
-1
-1
-1
-1
-1
-1
-1
-1
-1
-1
-1
-1
-1
-1
-1
-1
-1
-1
-1
-1
-1
-1
-1
-1
-1
-1
-1
-1
-1
-1
-1
-1
-1
-1
-1
-1
-1
-1
-1
-1
-1
-1
-1
-1
-1
-1
-1
-1
-1
-1
-1
-1
-1
-1
-1
-1
-1
-1
-1
-1
-1
-1
-1
-1
-1
-1
-1
-1
-1
-1
-1
-1
-1
-1
-1
-1
-1
-1
-1
-1
-1
-1
-1
-1
-1
-1
-1
-1
-1
-1
-1
-1
-1
-1
-1
-1
-1
-1
-1
-1
-1
-1
-1
-1
-1
-1
-1
-1
-1
-1
-1
-1
-1
-1
-1
-1
-1
-1
-1
-1
-1
-1
-1
-1
-1
-1
-1
-1
-1
-1
-1
-1
-1
-1
-1
-1
-1
-1
-1
-1
-1
-1
-1
-1
-1
-1
-1
-1
-1
-1
-1
-1
-1
-1
-1
-1
-1
-1
-1
-1
-1
-1
-1
-1
-1
-1
-1
-1
-1
-1
-1
-1
-1
-1
-1
-1
-1
-1
-1
-1
-1
-1
-1
-1
-1
-1
-1
-1
-1
-1
-1
-1
-1
-1
-1
-1
-1
-1
-1
-1
-1
-1
-1
-1
-1
-1
-1
-1
-1
-1
-1
-1
-1
-1
-1

POINT_DATA 1524
VECTORS displacement float
0 0 0
0 0 0
0 0 0
0 0 0
0 0 0
0 0 0
0 0 0
0 0 0
0 0 0
0 0 0
0 0 0
0 0 0
0 0 0
0 0 0
0 0 0
0 0 0
0 0 0
0 0 0
0 0 0
0 0 0
0 0 0
0 0 0
0 0 0
0 0 0
0 0 0
-0.0146711 -0.0088766 -0.00952538
-0.0119115 -0.00966458 -0.00497098
-0.010912 -0.00962035 3.63555e-05
-0.0117937 -0.00966127 0.00496958
-0.0146276 -0.00893642 0.00948189
-0.0118765 -0.00485036 -0.00971449
-0.0119121 -0.00488198 0.0097532
-0.0107125 1.62878e-05 -0.00993248
-0.0107322 3.84331e-05 0.00991844
-0.0117942 0.00482881 -0.00962617
-0.0118847 0.00488801 0.00967415
-0.0145562 0.00888734 -0.00946604
-0.011863 0.00970122 -0.00496702
-0.0109029 0.00966698 1.17717e-05
-0.0118042 0.00971839 0.00493533
-0.0145823 0.00900204 0.00939889
-0.0224379 -0.0104398 -0.0104204
-0.0225173 -0.0108243 -0.00595468
-0.0225661 -0.0117438 -1.65865e-05
-0.0227566 -0.0109586 0.00591638
-0.022424 -0.0104321 0.0104045
-0.02234 -0.00602956 -0.0106994
-0.0223533 -0.00598703 0.0107464
-0.0225336 3.73479e-05 -0.0119037
-0.0224166 -3.15953e-05 0.0118192
-0.0228814 0.00605268 -0.0108327
-0.0228014 0.00588602 0.0107538
-0.0224478 0.0104273 -0.0103865
-0.0224627 0.010784 -0.00597023
-0.0223666 0.0117667 -2.56863e-06
-0.0225891 0.0109434 0.00594001
-0.0224088 0.0103854 0.0104663
-0.0304048 -0.00893322 -0.00948269
-0.0328561 -0.00991508 -0.00492301
-0.0341752 -0.0100156 3.94949e-05
-0.0330907 -0.00980593 0.00502913
-0.0304279 -0.00889897 0.00948467
-0.0327963 -0.0049031 -0.00992633
-0.0328648 -0.00486426 0.00980292
-0.034413 6.95877e-05 -0.0101171
-0.0344285 9.00461e-05 0.0100032
-0.0330078 0.00494495 -0.00971895
-0.0331298 0.00489939 0.00968172
-0.0303286 0.008953 -0.00946927
-0.0328561 0.00987167 -0.00499331
-0.0341604 0.00986672 3.62102e-05
-0.0330621 0.00994348 0.00487041
-0.0303317 0.00896801 0.00944322
-0.045 0 0
-0.045 0 0
-0.045 0 0
-0.045 0 0
-0.045 0 0
-0.045 0 0
-0.045 0 0
-0.045 0 0
-0.045 0 0
-0.045 0 0
-0.045 0 0
-0.045 0 0
-0.045 0 0
-0.045 0 0
-0.045 0 0
-0.045 0 0
-0.045 0 0
-0.045 0 0
-0.045 0 0
-0.045 0 0
-0.045 0 0
-0.045 0 0
-0.045 0 0
-0.045 0 0
-0.045 0 0
0 0 0
0 0 0
0 0 0
0 0 0
-0.0101159 -0.00525196 -0.00656145
-0.0130622 -0.0078485 -0.00792134
-0.00540887 -0.0064329 -0.00467876
-0.00974827 -0.00794205 -0.00541881
0 0 0
0 0 0
0 0 0
0 0 0
0 0 0
0 0 0
0 0 0
0 0 0
-0.00408147 -0.00650711 -0.00225549
-0.0085428 -0.00827971 -0.00381427
0 0 0
0 0 0
0 0 0
0 0 0
-0.00386089 -0.00650639 -0.000738573
-0.00807421 -0.00811066 -0.00246848
-0.00321462 -0.00614601 5.67941e-05
-0.00725161 -0.00833033 5.12427e-05
-0.00382311 -0.00645584 0.000840619
-0.00800375 -0.00805184 0.00252883
0 0 0
0 0 0
0 0 0
0 0 0
0 0 0
0 0 0
0 0 0
0 0 0
-0.00402068 -0.0064267 0.00224961
-0.00846919 -0.00821672 0.00383424
0 0 0
0 0 0
-0.00537763 -0.00642998 0.00463816
-0.00968232 -0.00791779 0.00540023
-0.0100778 -0.0052819 0.00651524
-0.0130197 -0.00788692 0.00787407
0 0 0
0 0 0
0 0 0
0 0 0
0 0 0
0 0 0
-0.00611982 -0.00277256 -0.0063392
-0.0110382 -0.00659817 -0.00822868
-0.00312157 -0.00331959 -0.00478737
-0.00739739 -0.00667738 -0.00549883
-0.00413636 -0.00202009 -0.00630926
-0.00822044 -0.00363589 -0.00863174
-0.00370874 -0.000880345 -0.00648735
-0.0076713 -0.00111176 -0.00835825
0 0 0
0 0 0
0 0 0
0 0 0
-0.00207225 -0.00337576 -0.00225674
-0.00631305 -0.0067903 -0.00384413
-0.00227696 -0.00228733 -0.00342159
-0.00659322 -0.0037923 -0.00691386
-0.00177161 -0.00140037 -0.00342468
-0.00549304 -0.00119921 -0.00684973
-0.00546531 -0.00525576 -0.00393717
-0.0143744 -0.00916342 -0.00562118
-0.00484733 -0.00534665 -0.00254416
-0.0135867 -0.00932075 -0.00189048
-0.00534658 -0.00389364 -0.00544099
-0.0143239 -0.0055238 -0.00924782
-0.00474637 -0.00261042 -0.00541398
-0.013523 -0.00182491 -0.00931079
0 0 0
0 0 0
0 0 0
0 0 0
0 0 0
0 0 0
0 0 0
0 0 0
-0.00172497 -0.00333343 -0.000639978
-0.00579131 -0.00686659 -0.00253193
-0.00167107 -0.00336853 4.66324e-05
-0.00564122 -0.00674751 3.74215e-05
-0.00167147 -0.00331572 0.000751331
-0.00568441 -0.00684973 0.00262112
-0.00439258 -0.0053058 9.61225e-06
-0.0132512 -0.00937377 5.37447e-05
-0.00451011 -0.00535641 0.00130241
-0.0136767 -0.0092453 0.00374289
-0.00393885 -0.00261212 -0.00259398
-0.0127455 -0.00184703 -0.00755229
0 0 0
0 0 0
0 0 0
0 0 0
-0.00200314 -0.00332315 0.0023642
-0.00616285 -0.00674156 0.00390206
-0.0022475 -0.0022879 0.00345067
-0.00659656 -0.00380963 0.00695568
-0.00182014 -0.00142303 0.00345417
-0.00557376 -0.00120045 0.00688114
-0.00508169 -0.00531075 0.00404214
-0.0141731 -0.00909501 0.00555468
-0.00531789 -0.00389435 0.00547643
-0.0143769 -0.00555643 0.00927729
-0.00486268 -0.00259356 0.00543671
-0.0136176 -0.00189582 0.00934949
0 0 0
0 0 0
0 0 0
0 0 0
-0.00311111 -0.00333918 0.00481949
-0.0073046 -0.00666559 0.00549954
-0.00612188 -0.00281785 0.00636486
-0.011007 -0.00664564 0.00821438
-0.00415482 -0.00205419 0.00632815
-0.00824775 -0.00367006 0.00866436
-0.00375004 -0.000898244 0.00651704
-0.00773128 -0.00110091 0.00838672
0 0 0
0 0 0
0 0 0
0 0 0
-0.00401976 8.363e-05 -0.00658859
-0.00796151 -6.05257e-05 -0.0079398
0 0 0
0 0 0
0 0 0
0 0 0
0 0 0
0 0 0
0 0 0
0 0 0
-0.00165709 2.10239e-05 -0.00337842
-0.0053385 9.24918e-06 -0.00690903
-0.00173157 0.000774331 -0.00338305
-0.00580927 0.00253156 -0.00685366
-0.0043301 1.1237e-05 -0.00546154
-0.0131957 -1.85987e-06 -0.00934796
-0.00449999 0.00126637 -0.0054647
-0.013689 0.00366296 -0.00920703
0 0 0
0 0 0
0 0 0
0 0 0
-0.00367869 -0.00249141 -1.45658e-05
-0.0127841 -0.00751583 -1.93235e-05
-0.00387517 -0.00238348 0.00123209
-0.0130057 -0.0075213 0.00373309
-0.0037602 7.80976e-06 -0.0024779
-0.0126581 2.05071e-05 -0.00749237
-0.00342619 -1.36339e-05 0.00250121
-0.0127597 -1.74749e-05 0.0075851
-0.00387526 0.00123564 -0.00243917
-0.0129573 0.00364644 -0.00747665
-0.003745 0.00120036 0.00249459
-0.0130659 0.00385448 0.00753666
-0.00354974 0.00250411 -7.56156e-06
-0.01278 0.00754507 -4.57253e-05
-0.00380954 0.00244546 0.00117445
-0.0130327 0.00756037 0.00374156
-0.0110979 8.86989e-06 -2.6805e-05
-0.0338198 1.23305e-05 1.9054e-05
0 0 0
0 0 0
0 0 0
0 0 0
0 0 0
0 0 0
0 0 0
0 0 0
-0.00163793 6.38502e-06 0.00327531
-0.00534155 2.23114e-05 0.00683695
-0.00170429 0.000704316 0.00329071
-0.00582292 0.00248993 0.00683853
-0.00428432 -0.00260846 0.00400467
-0.0134434 -0.00745927 0.00561044
-0.00432908 -3.31606e-05 0.00535786
-0.0132585 1.26228e-05 0.00942286
-0.00448687 0.00124698 0.00535817
-0.0137683 0.00378063 0.00927111
-0.00431001 0.00254663 0.0039313
-0.0134129 0.00748716 0.00558112
0 0 0
0 0 0
-0.00401756 0.000101 0.00657775
-0.00797069 -4.01393e-05 0.00792009
0 0 0
0 0 0
0 0 0
0 0 0
0 0 0
0 0 0
-0.00395394 0.00146337 -0.00644405
-0.00783104 0.00116104 -0.00820317
-0.00362383 0.00202108 -0.00623091
-0.00779957 0.00366578 -0.00855943
-0.00587244 0.00263083 -0.00628913
-0.0109254 0.00660491 -0.00815832
-0.00307952 0.00319268 -0.00479921
-0.00733181 0.00674115 -0.0054501
0 0 0
0 0 0
0 0 0
0 0 0
-0.00202708 0.00234582 -0.00341498
-0.00616849 0.00384762 -0.00683856
-0.00204463 0.0033832 -0.00224644
-0.00626445 0.00682796 -0.00381834
-0.00509598 0.00396153 -0.00537575
-0.0141936 0.00544635 -0.00908448
-0.00528081 0.00535404 -0.00393404
-0.0142794 0.00916384 -0.005577
-0.00477323 0.00540363 -0.00256582
-0.0135851 0.0092866 -0.00190154
0 0 0
0 0 0
0 0 0
0 0 0
0 0 0
0 0 0
0 0 0
0 0 0
-0.00171202 0.00335136 -0.000654129
-0.00575921 0.0069128 -0.00254093
-0.00165879 0.00340508 1.41648e-05
-0.00564331 0.00680402 1.37055e-05
-0.00168595 0.00334825 0.000701277
-0.00571675 0.00691497 0.00259055
-0.0042623 0.00397461 -0.00262714
-0.013398 0.00550401 -0.00743061
-0.00435757 0.00536834 -2.30701e-06
-0.0132796 0.00937856 3.76463e-05
-0.00454034 0.0054005 0.00126574
-0.0137184 0.00928251 0.00374078
0 0 0
0 0 0
0 0 0
0 0 0
-0.00205347 0.00228035 0.00342124
-0.006244 0.00382957 0.00688009
-0.002013 0.00332981 0.00231981
-0.00619992 0.00679286 0.00386341
-0.00519988 0.00391268 0.00539631
-0.014322 0.00559802 0.0091632
-0.00502029 0.00539454 0.00396987
-0.0141653 0.00914212 0.00552385
0 0 0
0 0 0
0 0 0
0 0 0
-0.00396477 0.00143803 0.00644025
-0.00785808 0.00116256 0.00816646
-0.00366487 0.00201147 0.00625746
-0.00787532 0.00367508 0.00859328
-0.00307595 0.00318322 0.00481064
-0.00729277 0.00671575 0.00544653
-0.00588837 0.00264172 0.00630092
-0.0109418 0.00664818 0.00814646
0 0 0
0 0 0
-0.0100477 0.00512595 -0.00656781
-0.0130156 0.00784317 -0.00785857
-0.00536041 0.00633988 -0.00469944
-0.00974502 0.00797738 -0.00539276
0 0 0
0 0 0
-0.00409789 0.00649463 -0.00227266
-0.00857215 0.00829026 -0.00378183
0 0 0
0 0 0
-0.00387024 0.00652258 -0.000766661
-0.00806903 0.00813865 -0.00246616
-0.00323843 0.00617101 2.43388e-05
-0.0072649 0.00837778 2.174e-05
-0.0038592 0.00649463 0.000815504
-0.00805522 0.00811217 0.00249635
0 0 0
0 0 0
-0.00407151 0.00645023 0.00226995
-0.00854899 0.0082564 0.00378926
-0.00535734 0.00633826 0.00467538
-0.00973294 0.00795816 0.00536696
-0.0100662 0.00514234 0.00654057
-0.0130438 0.00788357 0.00781575
-0.0138401 -0.00911739 -0.00808025
-0.0129886 -0.00938882 -0.00649315
-0.0138046 -0.00786368 -0.00937179
-0.0127777 -0.00643469 -0.00947583
-0.0173772 -0.00989449 -0.00998215
-0.0198746 -0.0103556 -0.0103266
-0.0166119 -0.0086566 -0.0100845
-0.019122 -0.00761731 -0.010663
-0.0111209 -0.00976072 -0.00314762
-0.0110137 -0.0097079 -0.00155634
-0.0114381 -0.00804701 -0.00658452
-0.011456 -0.00644874 -0.00821071
-0.0160843 -0.0102361 -0.00737076
-0.0195753 -0.0104046 -0.00914785
-0.0155856 -0.0105384 -0.00564198
-0.0191102 -0.0109532 -0.00593632
-0.0150802 -0.0106931 -0.00382463
-0.018686 -0.0113595 -0.00207929
-0.0151582 -0.00893964 -0.00735415
-0.0188122 -0.0076026 -0.00939351
-0.0109601 -0.00969453 0.00161384
-0.0110104 -0.00973532 0.00317217
-0.0146188 -0.0107126 3.09582e-05
-0.0185238 -0.0114311 1.95356e-05
-0.0129116 -0.00938804 0.00646803
-0.0137869 -0.00914112 0.00804239
-0.0113128 -0.00805512 0.00657019
-0.0114146 -0.00647954 0.00824025
-0.0148893 -0.0106826 0.00375264
-0.018542 -0.0113652 0.00206106
-0.015561 -0.0105202 0.00558606
-0.0192556 -0.0109412 0.00583862
-0.0160075 -0.0102465 0.00733412
-0.0195264 -0.0104016 0.00911283
-0.0150512 -0.00894306 0.0073182
-0.0188164 -0.00758976 0.00940255
-0.0137677 -0.00791969 0.00936082
-0.0127711 -0.00648552 0.00950415
-0.0173326 -0.00994548 0.00994461
-0.0198377 -0.0103742 0.0102977
-0.0165816 -0.00870738 0.0100803
-0.0191169 -0.00762901 0.010685
-0.011264 -0.00320045 -0.00976591
-0.010918 -0.00157551 -0.00979256
-0.0153144 -0.00557711 -0.0106122
-0.0188216 -0.0059473 -0.0109418
-0.0113302 -0.00321443 0.00980417
-0.0109881 -0.00157152 0.00981974
-0.0153609 -0.00560818 0.0106494
-0.0188668 -0.00595862 0.0109797
-0.0108704 0.00160254 -0.00973932
-0.0112112 0.00319538 -0.0097049
-0.0146807 -0.00182887 -0.0107833
-0.0186597 -0.00399458 -0.0111434
-0.014638 1.96004e-05 -0.0108624
-0.0186148 5.29423e-05 -0.0114984
-0.014585 0.00188297 -0.0107197
-0.0186309 0.00403332 -0.0111127
-0.0109156 0.0016366 0.00972575
-0.0112633 0.00322243 0.00971085
-0.0147559 -0.00184898 0.0108094
-0.0187323 -0.00402147 0.0111773
-0.0146669 3.05381e-05 0.0108592
-0.018594 2.23559e-05 0.0114881
-0.0146448 0.00194032 0.0107704
-0.0186522 0.00409018 0.0111793
-0.0126679 0.00649905 -0.00940026
-0.0137197 0.00792497 -0.00928332
-0.0112834 0.00651601 -0.0081144
-0.0113079 0.00814377 -0.00652239
-0.0154755 0.00548673 -0.0105187
-0.0191769 0.00581338 -0.0109478
-0.0113176 0.00657441 0.00813358
-0.0112645 0.00815909 0.00649476
-0.0127299 0.00657964 0.00942042
-0.0137567 0.00802295 0.00927084
-0.0155441 0.00560538 0.0105768
-0.0191924 0.00591102 0.0109587
-0.0137475 0.00916701 -0.00803751
-0.0129132 0.00946707 -0.00647203
-0.0165325 0.00866684 -0.0100252
-0.0192236 0.00757113 -0.0106241
-0.0172692 0.00992826 -0.00993119
-0.0198196 0.0103561 -0.0102797
-0.0110681 0.00980096 -0.00315782
-0.0109741 0.00974827 -0.00157632
-0.0150356 0.00896503 -0.00728411
-0.0188289 0.00754323 -0.00933819
-0.0159479 0.0102677 -0.00732501
-0.0194705 0.0103953 -0.00908487
-0.0154696 0.0105923 -0.00563276
-0.0190206 0.010946 -0.00592996
-0.0149772 0.0106921 -0.0038037
-0.0185778 0.0112931 -0.00205406
-0.0109683 0.00975571 0.00159102
-0.0110333 0.00981189 0.0031509
-0.0145982 0.0107191 1.22353e-05
-0.0184639 0.0114059 1.09362e-05
-0.0129013 0.00947726 0.00640952
-0.0137712 0.00921823 0.00796734
-0.0150091 0.00901946 0.00725691
-0.0188856 0.00760629 0.00936169
-0.0148743 0.0107327 0.00373349
-0.018498 0.0113266 0.00203536
-0.015455 0.0105933 0.00554383
-0.019069 0.010991 0.00582159
-0.0159272 0.0103165 0.00726781
-0.0194418 0.0104386 0.00908397
-0.0165722 0.00879219 0.0100249
-0.0192322 0.00764256 0.0106605
-0.017302 0.0100438 0.0098781
-0.0198041 0.0104087 0.0102784
-0.0224988 -0.0105056 -0.00915471
-0.0225149 -0.0106388 -0.00764025
-0.0224301 -0.00916711 -0.0104184
-0.0223917 -0.00771089 -0.0105438
-0.0250764 -0.0103923 -0.0101918
-0.0276703 -0.00992522 -0.00987621
-0.0254454 -0.0103936 -0.0090051
-0.0289279 -0.0102084 -0.0072689
-0.0225698 -0.0111506 -0.00410163
-0.0226139 -0.0114687 -0.00209857
-0.0225666 -0.00932976 -0.00764306
-0.0224996 -0.00763877 -0.00926223
-0.0225896 -0.00781705 -0.00779397
-0.0224932 -0.00402757 -0.00980587
-0.0258703 -0.0108194 -0.00584795
-0.0292917 -0.0104734 -0.00554554
-0.0265537 -0.00772611 -0.00770031
-0.0308485 -0.00372145 -0.00925493
-0.0225231 -0.0115281 0.00202261
-0.022508 -0.0112952 0.00403704
-0.0225875 -0.00830233 -0.00416766
-0.0224503 -0.00419793 -0.0082393
-0.0224481 -0.00819769 0.00414527
-0.0225133 -0.00415146 0.00822865
-0.0263157 -0.0111445 -0.0020737
-0.0297678 -0.0105712 -0.0038023
-0.0263795 -0.011372 -1.00462e-05
-0.0302949 -0.0108456 6.40737e-06
-0.0264351 -0.0113235 0.00201843
-0.0299935 -0.0107487 0.0038037
-0.0272597 -0.00808743 -0.00401809
-0.0317366 -0.0037651 -0.00760343
-0.0271414 -0.00799438 0.00398965
-0.0318101 -0.00373379 0.00754189
-0.0322278 -0.00750433 7.44203e-06
-0.0414583 -0.00252108 4.74357e-05
-0.0321096 -0.00753685 0.00189165
-0.0412068 -0.00264347 0.00256373
-0.0225485 -0.0106222 0.00761375
-0.0224735 -0.0104659 0.00913687
-0.0225811 -0.00932694 0.00765052
-0.0225046 -0.00758479 0.00930095
-0.0225555 -0.00771837 0.00791604
-0.0225663 -0.00398716 0.0098847
-0.0260728 -0.0107692 0.0058659
-0.0295316 -0.0104088 0.00562558
-0.0265693 -0.00767499 0.00769135
-0.0309155 -0.00366913 0.00921269
-0.0224363 -0.00914553 0.0104137
-0.0223975 -0.0076795 0.0105541
-0.0254472 -0.010342 0.00902769
-0.0290053 -0.0101737 0.00730861
-0.0250849 -0.0103269 0.0102243
-0.0276851 -0.00985811 0.00990649
-0.022476 -0.00417468 -0.0110095
-0.0224879 -0.00215976 -0.0113879
-0.025765 -0.00763182 -0.0105639
-0.028404 -0.00866686 -0.00998816
-0.0261621 -0.00758051 -0.00924589
-0.0298057 -0.00894548 -0.00723978
-0.0259913 -0.00593288 -0.0107594
-0.0294013 -0.00559468 -0.0103985
-0.026149 -0.00408743 -0.0109602
-0.0302088 -0.0019953 -0.0108112
-0.0224934 -0.00413856 0.0110733
-0.0224939 -0.00214029 0.0114234
-0.0261551 -0.00753532 0.00924459
-0.0298344 -0.00889251 0.00726334
-0.0257717 -0.00758261 0.0105694
-0.0283974 -0.00860718 0.00999644
-0.0260214 -0.00589566 0.0107799
-0.0294526 -0.00556045 0.0103955
-0.026184 -0.00404325 0.0109618
-0.0303332 -0.00195242 0.0107561
-0.0224737 0.00208301 -0.0116454
-0.0225567 0.00412753 -0.0112697
-0.0222765 0.00416248 -0.00823591
-0.0223909 0.00825639 -0.00414748
-0.0264462 -6.68244e-06 -0.0115325
-0.0304732 -8.01288e-06 -0.0109812
-0.0270561 0.0040146 -0.00808177
-0.0317384 0.00761809 -0.00379118
-0.0322162 -2.08774e-05 -0.00755862
-0.0414318 6.31632e-06 -0.00247854
-0.0320822 0.00189364 -0.00757514
-0.0412089 0.00258727 -0.00260826
-0.0224508 0.00201983 0.0115291
-0.0225415 0.00404491 0.0111453
-0.0225341 0.00417389 0.00818914
-0.0224005 0.00823595 0.00408517
-0.0224344 0.00400421 0.00986308
-0.0223624 0.00779761 0.00778635
-0.0264289 -4.69641e-06 0.0114473
-0.0304963 1.59438e-05 0.0108997
-0.0272729 0.0040117 0.00801133
-0.0317232 0.00755269 0.00373869
-0.0267467 0.00390393 0.00971986
-0.0306023 0.007372 0.00732665
-0.0323218 -2.52129e-06 0.00746784
-0.0413058 -2.64985e-05 0.00245698
-0.0317481 8.77369e-06 0.00931236
-0.0406566 -2.76149e-05 0.0054382
-0.0322813 0.00185114 0.00755169
-0.0411067 0.00250306 0.00255801
-0.0315205 0.00187534 0.00926342
-0.0403541 0.00250565 0.00551304
-0.0225438 0.0077373 -0.0105525
-0.0224356 0.00916899 -0.0104022
-0.0225094 0.00775687 -0.00927289
-0.0224359 0.00935634 -0.00759255
-0.0224298 0.00798442 -0.00770076
-0.0224488 0.00992927 -0.00398348
-0.0261725 0.00409287 -0.0111554
-0.0302253 0.0019262 -0.0108301
-0.0260443 0.00592244 -0.0109295
-0.0294587 0.00559434 -0.0105653
-0.0257828 0.00754675 -0.0105477
-0.028348 0.00870071 -0.0100078
-0.0261362 0.00756581 -0.00931982
-0.0296924 0.00897242 -0.00725701
-0.0264806 0.0077378 -0.00773268
-0.0308437 0.00928712 -0.00372868
-0.0312277 0.00563066 -0.00746429
-0.0407782 0.00400567 -0.00257561
-0.0225427 0.00762518 0.00929268
-0.0224778 0.00931203 0.00767046
-0.0225396 0.00759632 0.0104839
-0.0224445 0.00908102 0.0103993
-0.0262444 0.00406368 0.0110561
-0.0303404 0.00190208 0.0107681
-0.0261318 0.00595619 0.0108375
-0.0296326 0.00563497 0.0105153
-0.0260913 0.00752259 0.00931652
-0.0297383 0.00898284 0.00726158
-0.0258249 0.00755891 0.0105778
-0.0283465 0.00870769 0.0100164
-0.0305445 0.0055879 0.00911029
-0.0397916 0.00383659 0.00547586
-0.0224148 0.0104576 -0.00913315
-0.0224155 0.0105987 -0.00763461
-0.0250575 0.0103493 -0.0102614
-0.0276353 0.0099621 -0.00990245
-0.0253906 0.0103677 -0.00906057
-0.0289231 0.0102111 -0.00725564
-0.0225181 0.0110885 -0.00411328
-0.0224647 0.0114269 -0.00209268
-0.0259664 0.0108339 -0.0059052
-0.0295289 0.0104556 -0.00562372
-0.022479 0.0114355 0.0020015
-0.0224989 0.0111941 0.00402003
-0.0263685 0.0112014 -0.00207306
-0.0300728 0.0106601 -0.00376795
-0.0263503 0.011415 1.25406e-05
-0.0303187 0.0108295 2.30332e-05
-0.0263413 0.0111678 0.00205532
-0.0300511 0.0106107 0.00378472
-0.0321555 0.00749095 -7.27142e-06
-0.0413081 0.00251327 -5.67825e-08
-0.0315914 0.009323 4.68436e-07
-0.0405743 0.00548436 -1.52374e-06
-0.0224664 0.0106156 0.0076608
-0.0224316 0.0104622 0.00918371
-0.0261114 0.0107873 0.00589936
-0.029572 0.0104519 0.00560552
-0.0254324 0.0103563 0.00907626
-0.0289623 0.0102497 0.00729958
-0.0250892 0.0103203 0.0102767
-0.0276266 0.00995121 0.00989603
-0.0311608 -0.0092454 -0.0080613
-0.0319281 -0.00958743 -0.00647137
-0.0311562 -0.00799641 -0.00933566
-0.0321383 -0.00657897 -0.00953174
-0.0318281 -0.00788708 -0.00784241
-0.0347972 -0.00516726 -0.00649797
-0.0339114 -0.00665507 -0.00818899
-0.0390163 -0.00260778 -0.00629223
-0.0336312 -0.0100911 -0.00318261
-0.0340104 -0.0100685 -0.00154962
-0.0334781 -0.00825928 -0.0066128
-0.0334595 -0.00660469 -0.0082931
-0.0349222 -0.00666114 -0.00672661
-0.0350447 -0.0031417 -0.00846955
-0.0351367 -0.00792813 -0.00537121
-0.0396238 -0.0063348 -0.00464004
-0.0362756 -0.00824097 -0.00373708
-0.0409418 -0.00633086 -0.00221873
-0.0366893 -0.00815994 -0.00246063
-0.0411325 -0.00639273 -0.000766288
-0.0375969 -0.00668858 -0.00542734
-0.0419224 -0.00313476 -0.00477452
-0.0388265 -0.00680069 -0.00380069
-0.0430626 -0.0032027 -0.00226478
-0.0394037 -0.00697883 -0.00257192
-0.0434118 -0.00329109 -0.00071174
-0.0398608 -0.0052805 -0.00394115
-0.0436807 -0.00153526 -0.00225582
-0.0402769 -0.00532885 -0.00249458
-0.0439694 -0.00137395 -0.000699983
-0.0341202 -0.00989225 0.0016756
-0.0338782 -0.0099014 0.00331713
-0.0363564 -0.00676644 -0.00326207
-0.0362107 -0.00325774 -0.00674234
-0.0377019 -0.00852756 -1.15961e-05
-0.0417884 -0.0061373 -3.02421e-05
-0.0395486 -0.00707411 -2.16747e-06
-0.0433758 -0.00342967 -7.08999e-06
-0.0404427 -0.00550688 7.23546e-06
-0.0439548 -0.0014684 -3.67563e-05
-0.0403843 -0.00549976 0.00124341
-0.0438077 -0.00146625 0.00143127
-0.0320336 -0.00950688 0.00652243
-0.0312041 -0.00919382 0.00807613
-0.0334722 -0.00817042 0.00662552
-0.0334538 -0.00654178 0.00825037
-0.0348407 -0.00661836 0.00669314
-0.0350948 -0.0031848 0.00838797
-0.0367899 -0.00822057 0.00248852
-0.0411203 -0.006475 0.000718704
-0.0363237 -0.00834178 0.00376331
-0.0409049 -0.00643146 0.00222701
-0.0351438 -0.00799775 0.00539111
-0.0395814 -0.00636129 0.00469
-0.0393368 -0.00706353 0.00254739
-0.0433279 -0.00340733 0.000679899
-0.0387367 -0.0069309 0.00381372
-0.0429964 -0.00326875 0.00228609
-0.0375336 -0.00676334 0.00545007
-0.0418816 -0.00314987 0.00477494
-0.0397115 -0.00542655 0.0038818
-0.043618 -0.00138828 0.00232573
-0.0311509 -0.00795361 0.00932418
-0.0321483 -0.00653485 0.00948927
-0.0318444 -0.0078919 0.00786102
-0.034794 -0.0051492 0.00655774
-0.033911 -0.00666049 0.00818717
-0.0390141 -0.00259933 0.00629194
-0.0335683 -0.00326441 -0.0101028
-0.0339306 -0.00160583 -0.0100665
-0.0368826 -0.00365719 -0.00868771
-0.0412618 -0.00199222 -0.00626609
-0.038634 -0.00373612 -0.00698703
-0.0429875 -0.00220606 -0.00332056
-0.0390712 -0.0023794 -0.00694453
-0.0432909 -0.000666196 -0.00324407
-0.0336794 -0.0031921 0.00996084
-0.0340468 -0.00153592 0.00993962
-0.0386067 -0.00375866 0.00700329
-0.042964 -0.00221654 0.00337201
-0.0369033 -0.00369119 0.00869136
-0.0412455 -0.00198408 0.00631424
-0.0390729 -0.00240146 0.00698851
-0.0432421 -0.000677547 0.0033677
-0.0340828 0.00167737 -0.0099151
-0.0336587 0.00332411 -0.00979943
-0.0368807 -0.00109972 -0.00832374
-0.04094 -0.00137507 -0.00644777
-0.0369393 0.000137575 -0.00804019
-0.0409163 1.78156e-06 -0.00662645
-0.0396674 3.48447e-05 -0.00707886
-0.0433836 -3.14484e-06 -0.00330902
-0.0405116 2.64103e-05 -0.00548294
-0.0440256 -2.72965e-06 -0.00146712
-0.0372848 0.00116056 -0.0084747
-0.0412863 0.000884823 -0.00646813
-0.0395332 0.00118391 -0.00701677
-0.0432443 0.00138861 -0.00337856
-0.0405402 0.00119938 -0.00553171
-0.0438759 0.00139477 -0.00143599
-0.0341904 0.00164527 0.00985649
-0.0337718 0.00324755 0.00978795
-0.037074 -0.00105384 0.0083201
-0.0409559 -0.00139598 0.00655462
-0.0395621 4.55805e-05 0.00688732
-0.0433183 -2.15781e-05 0.00336726
-0.0370678 0.000135476 0.00799474
-0.0409287 -1.59187e-05 0.00669159
-0.0394724 0.00120066 0.00690786
-0.0431954 0.00139733 0.00347254
-0.0374074 0.00112489 0.00842365
-0.0412996 0.000893138 0.0065384
-0.0321624 0.00657758 -0.0094749
-0.0311652 0.00799453 -0.00934582
-0.0334357 0.00656 -0.00820635
-0.0334447 0.00824206 -0.00659835
-0.034798 0.00668574 -0.00665134
-0.0350519 0.00849686 -0.00324168
-0.0368048 0.00369333 -0.00867023
-0.0409797 0.00197909 -0.00625787
-0.0386174 0.00383014 -0.0069786
-0.042948 0.00218301 -0.00348806
-0.0396413 0.00384318 -0.00545981
-0.0436377 0.00220583 -0.0014309
-0.0334984 0.00650151 0.00816341
-0.0335085 0.00814738 0.00649988
-0.0322049 0.00650077 0.00945135
-0.03119 0.00794235 0.00932286
-0.0384863 0.00377069 0.00694626
-0.0428648 0.00219201 0.00351106
-0.03683 0.00366515 0.00864047
-0.0409162 0.00202185 0.00633731
-0.0311081 0.00923765 -0.00806671
-0.0318992 0.00958579 -0.00651835
-0.0339036 0.00664996 -0.00823783
-0.0389062 0.00269691 -0.00632354
-0.0318324 0.00788697 -0.00794218
-0.0347722 0.00519881 -0.00660765
-0.0336566 0.0100779 -0.00321498
-0.0339707 0.0100377 -0.00154625
-0.0375161 0.00678807 -0.00550094
-0.041886 0.00325733 -0.00477287
-0.0385049 0.00687764 -0.00384275
-0.04293 0.00316584 -0.00233033
-0.0390947 0.0070213 -0.00252279
-0.0432415 0.00326432 -0.000671429
-0.035079 0.00800898 -0.00544334
-0.03953 0.00641874 -0.00472809
-0.0361726 0.0083646 -0.00381652
-0.0408368 0.00647728 -0.00227074
-0.0365724 0.00825612 -0.00247802
-0.0410014 0.00654978 -0.000750148
-0.033944 0.0100257 0.00158936
-0.0336926 0.0100868 0.00318913
-0.0393672 0.00688123 1.75244e-05
-0.0433111 0.0034475 7.70281e-06
-0.0377028 0.00845029 3.68262e-05
-0.041756 0.00624698 8.26078e-06
-0.0319707 0.00949043 0.0064127
-0.0311186 0.00917774 0.00800354
-0.0390337 0.0068972 0.00257696
-0.0432334 0.00317944 0.000708032
-0.0384683 0.00675652 0.00388939
-0.0428899 0.00314637 0.00238582
-0.0375807 0.00667907 0.00550128
-0.0418541 0.00326873 0.00483529
-0.0365906 0.00819969 0.00252647
-0.0409859 0.00653469 0.000781693
-0.0363299 0.00831373 0.00385369
-0.0408832 0.00647184 0.00231052
-0.0351992 0.00793057 0.00541897
-0.039546 0.00641799 0.00472107
-0.0339682 0.00662047 0.00822632
-0.03889 0.00275387 0.00637707
-0.0319171 0.00786385 0.00791432
-0.0348608 0.00523174 0.00660022
-0.045 0 0
-0.045 0 0
-0.045 0 0
-0.045 0 0
-0.045 0 0
-0.045 0 0
-0.045 0 0
-0.045 0 0
-0.045 0 0
-0.045 0 0
-0.045 0 0
-0.045 0 0
-0.045 0 0
-0.045 0 0
-0.045 0 0
-0.045 0 0
-0.045 0 0
-0.045 0 0
-0.045 0 0
-0.045 0 0
-0.045 0 0
-0.045 0 0
-0.045 0 0
-0.045 0 0
-0.045 0 0
-0.045 0 0
-0.045 0 0
-0.045 0 0
-0.045 0 0
-0.045 0 0
-0.045 0 0
-0.045 0 0
-0.045 0 0
-0.045 0 0
-0.045 0 0
-0.045 0 0
-0.045 0 0
-0.045 0 0
-0.045 0 0
-0.045 0 0
-0.045 0 0
-0.045 0 0
-0.045 0 0
-0.045 0 0
-0.045 0 0
-0.045 0 0
-0.045 0 0
-0.045 0 0
-0.045 0 0
-0.045 0 0
-0.045 0 0
-0.045 0 0
-0.045 0 0
-0.045 0 0
-0.045 0 0
-0.045 0 0
-0.045 0 0
-0.045 0 0
-0.045 0 0
-0.045 0 0
-0.045 0 0
-0.045 0 0
-0.045 0 0
-0.045 0 0
-0.045 0 0
-0.045 0 0
-0.045 0 0
-0.045 0 0
-0.045 0 0
-0.045 0 0
-0.045 0 0
-0.045 0 0
-0.045 0 0
-0.045 0 0
-0.045 0 0
-0.045 0 0
-0.045 0 0
-0.045 0 0
-0.045 0 0
-0.045 0 0
-0.045 0 0
-0.045 0 0
-0.045 0 0
-0.045 0 0
-0.045 0 0
-0.045 0 0
-0.045 0 0
-0.045 0 0
-0.045 0 0
-0.045 0 0
-0.045 0 0
-0.045 0 0
-0.045 0 0
-0.045 0 0
-0.045 0 0
-0.045 0 0
-0.045 0 0
-0.045 0 0
-0.045 0 0
-0.045 0 0
-0.045 0 0
-0.045 0 0
-0.045 0 0
-0.045 0 0
-0.045 0 0
-0.045 0 0
-0.045 0 0
-0.045 0 0
-0.045 0 0
-0.045 0 0
-0.045 0 0
-0.045 0 0
-0.033708 0.00809753 -0.00707041
-0.0372719 0.00419302 -0.00645377
-0.0192479 -0.010645 0.00764578
-0.0402155 0.00653448 -0.00329361
-0.045 0 0
-0.0409559 0.00461323 -0.0047492
0 0 0
-0.045 0 0
0 0 0
-0.0146856 0.010723 -0.00187544
-0.045 0 0
-0.0409995 -3.30585e-05 0.00391949
-0.0166545 0.00999051 -0.00870069
-0.0194723 0.00908892 -0.0103922
-0.045 0 0
-0.0371526 -0.00226465 0.00855817
-0.0425132 -0.00129892 0.00478754
-0.0111402 -0.00804225 -0.00702894
-0.00769711 -0.00425256 -0.00642993
-0.0185876 -0.00199515 -0.0112995
-0.028997 -0.00723854 -0.0101747
-0.0194906 -0.00910682 -0.0104403
-0.0167746 -0.00995091 -0.00875291
-0.00767975 0.00833128 0.00139776
-0.00247093 -0.00328733 -0.00338142
-0.0159949 -0.00724625 -0.0103098
-0.0159409 -0.00874472 -0.00881488
0 0 0
-0.0424414 -0.000707805 0.00481636
-0.045 0 0
-0.040915 -0.000640448 0.00664596
-0.00918505 0.0052402 -0.00847832
0 0 0
-0.00402578 -0.00465633 -0.00473255
-0.00469716 -0.00653255 -0.00325148
-0.0031938 -0.00463941 -0.00333551
-0.0191504 0.0106247 -0.00763463
-0.0191746 0.00911951 -0.00910972
-0.00421796 -0.0026659 -0.00397236
-0.045 0 0
-0.00461568 -0.00531607 -0.0012672
0 0 0
-0.00399865 0.00072759 -0.00652407
0 0 0
-0.0289132 0.00726511 -0.0102124
-0.036876 0.005062 0.00329227
-0.01868 -0.0112059 0.00396658
-0.0355784 0.0052329 0.00853449
-0.0282335 0.0099827 0.00866748
-0.025441 0.00905817 0.0103714
-0.0188197 0.00933683 -0.00759791
-0.0078395 -0.00229496 -0.00846345
-0.00291488 -0.00218811 -0.0048826
-0.00922595 0.00527276 0.00848778
0 0 0
-0.0046579 -0.0064992 0.00322724
0 0 0
-0.00316123 -0.0046084 0.00333952
-0.045 0 0
-0.00878511 0.00663534 -0.00711315
-0.0111162 0.0080462 -0.00699003
-0.0075501 0.00411311 -0.00641184
-0.00396379 0.00454326 -0.00472785
-0.00469031 0.00649496 -0.00328182
-0.00317685 0.00459869 -0.00335026
0 0 0
0 0 0
-0.00259243 0.00225576 -0.00471992
-0.00245175 0.00327701 -0.00337734
-0.00727038 0.00526198 -0.00701773
0 0 0
0 0 0
-0.00251703 -0.00131943 -0.00475844
0 0 0
-0.00238103 -0.000561304 -0.00462379
-0.0024478 5.21468e-05 -0.00464474
-0.0039224 -0.000458594 -0.0065277
0 0 0
-0.00399496 0.000715766 0.00649999
-0.0192709 -0.0106492 -0.00768859
-0.018904 -0.00938332 -0.00766995
-0.0192279 -0.00914013 -0.0091693
-0.00755922 0.00412585 0.00640274
-0.00878148 0.00663719 0.00709955
-0.01113 0.00805129 0.00695136
-0.0300635 0.00380617 0.0106574
0 0 0
-0.00282215 0.00471181 -0.00224973
0 0 0
-0.00258179 0.00467565 -0.00136857
-0.00407689 0.00656401 -0.00145716
-0.043302 0.000674727 0.00341298
0 0 0
-0.00406416 -0.00656035 -0.00143977
-0.0128029 0.00760354 0.00187229
-0.00778474 0.00234671 0.00841712
-0.00242936 0.00136322 0.00470713
-0.00245163 0.000719709 0.00467159
-0.00768863 -0.00830618 -0.00133901
-0.0024495 -0.00470105 -0.000681989
-0.007889 -0.00230774 0.00850427
0 0 0
-0.0024351 0.00468585 0.000744779
-0.00405522 0.0065196 0.00149208
0 0 0
-0.0025547 0.00461319 0.00140321
-0.00179523 0.00336136 0.00149262
-0.00279405 0.00465205 0.0022761
-0.00938814 -0.00827269 -0.00157156
-0.0147495 -0.0107272 -0.00186835
-0.0056457 -0.00677408 -0.00117879
-0.00774919 0.00236271 -0.00842298
-0.0024253 0.00139642 -0.00471322
-0.00246759 0.000760036 -0.00473081
-0.00728213 0.00526224 0.00702385
-0.00261195 0.00222973 0.00474083
-0.00595152 0.00530099 0.00538067
-0.0024346 0.00323438 0.00341675
0 0 0
-0.00395795 0.00453381 0.00472083
-0.00467639 0.00647216 0.00326567
-0.00316231 0.00456552 0.00335267
-0.0024406 -0.00327059 0.00344513
-0.0029135 -0.00220501 0.00491054
-0.0040027 -0.00465742 0.00472115
-0.00767838 -0.00428884 0.00641172
-0.0110835 -0.00804837 0.00698777
-0.0421183 0.0045986 0.00230838
-0.045 0 0
-0.00417049 0.00387181 0.00121652
0 0 0
-0.00407971 0.00248453 0.00250333
-0.0374934 0.00520652 0.00711112
-0.0424953 0.00314979 0.00347687
-0.009433 -0.00520768 -0.00852673
-0.00749977 -0.00520457 -0.00711288
-0.0125104 -0.0078943 -0.00808517
-0.00888697 -0.00661547 -0.00719368
-0.0282772 -0.00990747 0.00866455
-0.0254555 -0.00906392 0.0103406
-0.0367337 1.21702e-06 -0.00673404
-0.00255505 -0.00133441 0.00479764
-0.00167795 -0.000679804 0.00337504
0 0 0
-0.0408864 -0.000630779 -0.00657718
-0.045 0 0
-0.00928613 -0.0016352 -0.00832183
-0.00441714 -0.00127675 -0.00542798
-0.00165144 -0.000680006 -0.00337618
-0.0101728 0.00827726 -0.00493615
-0.018768 0.011125 -0.00404777
-0.0149763 -0.00375716 0.0107356
-0.00595028 -0.00249733 0.00692307
0 0 0
-0.00182824 -0.00338959 -0.0014219
-0.00282479 -0.00472674 -0.00224286
-0.00258143 -0.00467915 -0.00136085
-0.045 0 0
-0.045 0 0
-0.0408158 0.00655546 -0.00150998
-0.0076455 -0.00827195 0.00142876
-0.00230818 -0.00472717 4.62238e-05
-0.0167093 -0.00997462 0.00871307
-0.0192022 -0.00912433 0.00914285
-0.01947 -0.00912278 0.0104329
-0.00276592 -0.0046377 0.00228173
0 0 0
-0.0158913 -0.00877325 0.00880203
-0.0159956 -0.00729283 0.010342
-0.00977916 -0.00329379 0.00838328
-0.00939406 -0.00163397 0.00836621
-0.018648 -0.00203062 0.0113261
-0.0103978 -0.00489214 0.00839624
-0.0151065 -0.00726127 0.00906278
-0.00606464 -0.00522462 0.00548539
-0.0400492 0.00544378 -0.00258722
-0.0402534 0.00651142 0.00330301
-0.045 0 0
-0.0417757 0.00457721 0.00338558
-0.0298429 -0.00722752 -0.00891837
-0.0297769 -0.00381426 -0.0106113
0 0 0
-0.00395386 -0.000434248 0.00655769
-0.00243656 4.67002e-05 0.0045927
-0.00240579 -0.000554534 0.0046501
-0.0194754 0.00915216 0.0104032
-0.016652 0.0100627 0.00864814
0 0 0
-0.00241119 -0.00464788 0.000773583
-0.00400854 -0.00648156 0.00150076
-0.00252429 -0.00457673 0.0014227
-0.0254475 -0.00912431 -0.0103237
-0.0282526 -0.00995332 -0.0086342
-0.0290448 -0.00875216 -0.00869635
-0.036096 0.00682322 -0.00330961
-0.0369522 0.00516237 -0.00333021
-0.035717 0.00836821 7.52847e-06
-0.0261448 -0.0110177 -0.00402291
-0.00930265 -0.00825275 0.00162819
-0.00926644 -0.00825646 3.8728e-05
-0.00559164 -0.00674093 0.00125283
-0.0146599 -0.0107351 0.00189385
-0.0139216 -0.0037433 0.00932956
-0.0141193 -0.00736199 0.00748327
-0.0188768 -0.00935768 0.00761
-0.00998031 -0.00655439 0.00673566
-0.0126467 -0.00386161 0.00568726
-0.0135145 -0.00563359 0.00754025
-0.0131724 -0.00382155 0.00754031
-0.00458083 -0.00132172 0.0053827
-0.00402523 -0.00251186 0.00258504
0 0 0
-0.012776 -0.00756933 0.00188455
-0.00414787 -0.00384683 0.00125041
-0.0133827 -0.00930963 0.00192265
-0.00458229 -0.00392796 0.0040666
-0.00432511 -0.00391604 0.0026
0 0 0
-0.00466159 -0.00539441 0.00264962
-0.0100318 -0.00817817 0.00497771
-0.00958072 -0.00829608 0.00329676
-0.00178182 -0.003325 0.00153653
-0.035342 0.00326751 0.00835071
-0.0263421 0.00202206 0.0112667
-0.0357393 0.00161439 0.00836333
-0.0311201 0.00375248 0.00921009
-0.045 0 0
-0.0424956 -8.52916e-06 0.00470923
-0.0425647 0.000583451 0.00470386
-0.0410447 0.000491681 0.00661711
-0.0356257 -0.00528988 0.00854269
-0.0360618 -0.00666054 0.00713752
-0.0373313 -0.00412246 0.00641368
-0.0337532 -0.00807512 0.00700434
-0.0290028 0.00879388 0.00873261
-0.0324621 0.0079583 0.00802495
-0.0289409 0.00729499 0.0102477
-0.0424693 0.00131222 0.00481574
-0.0372091 0.00230061 0.008508
-0.0391499 0.00244614 0.00692693
-0.0421691 0.00213816 0.00494222
-0.03754 -0.00525525 0.00704846
-0.0423586 -0.00215753 0.00474037
-0.0409898 -0.00453781 0.00471455
-0.045 0 0
-0.0402694 -0.00649879 0.00325452
-0.0417904 -0.00456461 0.00331411
-0.045 0 0
-0.0425601 -0.00319162 0.00337697
-0.0422077 -0.00460089 0.00222621
-0.0191423 0.0106474 0.00760143
-0.019186 0.00916675 0.00911391
-0.0102 0.00494074 0.00828642
-0.00182436 0.00143721 0.00336775
-0.00480213 0.00258576 0.00536031
-0.013464 0.00565739 0.00745277
-0.0129843 0.00571167 0.00562023
-0.012674 0.00384023 0.00571547
-0.0149133 0.00380554 0.0106912
-0.00962398 0.00327927 0.00830696
-0.00560249 0.00120748 0.00673586
-0.0185216 0.00208349 0.0113543
-0.00931965 0.00161507 0.00830242
-0.0091415 1.23038e-05 0.00833207
-0.012838 0.00193268 0.00763385
-0.00403511 0.00125069 0.00392385
-0.0133904 0.00193283 0.0093679
-0.00388412 -2.26767e-05 0.00392755
-0.0043412 0.00392942 0.00256559
0 0 0
-0.00468623 0.00544431 0.00259572
-0.00458165 0.00393547 0.00399445
-0.0257314 0.00907196 0.00909904
-0.0224677 0.00913663 0.00915742
-0.0257681 0.0105351 0.00760407
-0.0160346 0.00735083 0.010281
-0.0124067 0.00802327 0.00798541
-0.015087 0.0073331 0.00898853
-0.0158587 0.00887067 0.00874451
-0.0123994 0.00796934 -0.00800333
-0.0159764 0.00722682 -0.0102426
-0.0158425 0.00876591 -0.0087449
-0.0263617 -0.00205842 0.0111917
-0.0264094 -0.00578628 0.00942616
-0.0225677 -0.00589032 0.0095881
-0.0289918 -0.00719527 0.0101797
-0.0324319 -0.00800424 0.00808207
-0.0290548 -0.00869776 0.0087092
-0.0307235 -0.00734217 0.00735584
-0.0262066 -0.0110082 0.00399779
-0.0267251 -0.00395218 0.00960904
-0.0268941 -0.00785499 0.00590837
-0.0224037 -0.00799064 0.00611261
-0.0188295 0.00937562 0.00757891
-0.0140617 0.00740143 0.00739887
-0.0100195 0.00826179 0.00492561
-0.00988687 0.00664247 0.00662921
-0.00561543 0.00681279 0.00122818
-0.00927885 0.00829735 1.85271e-05
-0.014652 0.0107504 0.00187525
-0.0392561 0.00699557 -0.00119257
-0.0371806 0.00844788 -0.00135341
-0.0424826 0.00470343 -0.000724329
-0.012276 0.00387412 0.00385145
-0.0313159 0.00750331 0.00554754
-0.0271155 0.00797872 0.00401065
-0.030201 0.0107164 0.00191212
-0.0346216 0.00489886 0.00830767
-0.0388421 0.00519941 0.00543198
-0.0297557 0.0072785 0.00894188
-0.0348414 0.00659446 0.00660805
-0.0260672 0.00925251 0.00761951
-0.026411 0.00582278 0.00951484
-0.0224103 0.00590529 0.00955949
-0.018851 -0.0111724 -0.00405475
-0.0102868 -0.00820931 -0.00496553
-0.00971921 -0.00828399 -0.00329243
-0.0337516 -0.0080361 -0.00698964
-0.0373315 -0.00412665 -0.00638819
-0.00768063 0.00834453 -0.00135853
-0.00231938 0.0047583 1.69919e-05
-0.00562729 0.00682117 -0.00119694
-0.00244755 0.00471449 -0.000703882
-0.032431 -0.00378311 0.00572472
-0.0358971 1.13704e-05 0.00836853
-0.0271899 -0.00401423 0.00796275
-0.0401896 -0.00553546 0.00250919
-0.030303 -0.0107256 0.00190647
-0.0362027 -0.00670777 0.00331005
-0.03691 -0.00330416 0.0050756
-0.0313429 -0.00743764 0.0056182
-0.0400637 -0.00250635 0.00541659
-0.0392913 -0.00114154 0.00689913
-0.0396479 -0.0038776 0.0054124
-0.0431351 -0.00136512 0.00336513
-0.0389344 -0.0053122 0.00538682
-0.00936814 0.00830633 -0.00159338
-0.00965466 0.00831926 -0.00328885
-0.00181065 0.00340258 -0.00142526
-0.0371318 0.00839423 0.0014131
-0.0426506 0.00478933 1.75211e-06
-0.0391667 0.0069198 0.00123771
-0.0223754 0.00802035 0.00600069
-0.0263057 0.0109919 0.00402487
-0.0268086 0.00789066 0.00592874
-0.0264274 0.00772783 0.00772393
-0.0408289 0.00654087 0.00155095
-0.0423934 0.00453249 0.00142574
-0.045 0 0
-0.0424544 0.0046592 0.000749644
-0.0412128 0.00122687 0.00249864
-0.0328197 0.00379781 0.0038446
-0.0323874 0.00571207 0.00380556
-0.0424921 -0.000663911 -0.00469172
-0.0370442 -0.00227436 -0.00853731
-0.0323802 0.0057762 -0.00383134
-0.0413534 0.00128453 -0.0025401
-0.0409647 0.00398147 -8.59733e-06
-0.0324133 0.0080298 -0.00808232
-0.0355499 0.00526725 -0.00854111
-0.0374753 0.00527568 -0.00709556
-0.0360404 0.00668784 -0.00720316
-0.00942771 -0.00525763 0.00855356
-0.0124456 -0.00791785 0.00807263
-0.00746808 -0.0052245 0.00714589
-0.00883218 -0.00662578 0.00718417
-0.0126967 0.00184069 -0.00752091
-0.0417645 0.0045882 -0.0033511
-0.045 0 0
-0.0425235 0.00316541 -0.00341896
-0.0361009 -0.00662751 -0.00713368
-0.0324437 -0.00806157 -0.00809467
-0.0356211 -0.00527802 -0.00854838
-0.0302505 0.0107577 -0.0018968
-0.0409297 0.00123546 0.00394979
-0.0405715 0.00121737 0.00548616
-0.045 0 0
-0.0121709 0.0038261 -0.0038374
-0.0327995 0.00385346 -0.00385342
-0.0224724 0.00443963 5.62114e-06
-0.0392104 0.00245464 -0.00700332
-0.0371457 0.00234786 -0.00853335
-0.0422655 0.0021199 -0.00484821
-0.0425084 0.00130765 -0.00472676
-0.045 0 0
-0.034528 0.00844112 -0.00494933
-0.0305798 0.00741152 -0.00735271
-0.0297403 0.00726557 -0.00893589
-0.0303604 0.00918376 -0.00552432
-0.0328717 -0.00381898 0.00383326
-0.0225513 1.10118e-06 0.00439619
-0.0122481 -0.00386357 0.0038355
-0.0360934 0.00661441 0.00719055
-0.0338032 0.00803623 0.00702685
-0.0409481 0.00462182 0.00477339
-0.037302 0.00423179 0.00646438
-0.0424135 0.00454716 -0.00138758
-0.0421352 0.00459209 -0.00226967
-0.045 0 0
-0.0263787 0.00948949 -0.00583883
-0.0262368 0.0110392 -0.00404687
-0.0289884 0.008793 -0.00873019
-0.0253937 0.00907331 -0.0103637
-0.0282462 0.00999198 -0.00865847
-0.0040214 -0.00389002 -1.60022e-05
-0.0126199 -0.00568178 -0.00386378
-0.0431525 0.00316522 -0.00145731
-0.0433635 0.00218741 -0.0023708
-0.0388665 0.00532184 -0.00544326
-0.039618 0.0053811 -0.00396611
-0.041344 -0.00258734 0.0012842
-0.0365612 -0.00674666 0.00164461
-0.04321 -0.00331163 0.00142504
-0.045 0 0
-0.0433629 -0.00221398 0.00233277
-0.0435691 -0.00230661 0.00145239
-0.0260334 0.00929289 -0.00755733
-0.0224347 0.00918891 -0.00912508
-0.0256994 0.00909132 -0.00907391
-0.0257317 0.0105882 -0.00760823
-0.0431328 0.00313087 0.00150526
-0.0357917 0.00498343 0.00666201
-0.0408097 0.00251691 0.00400886
-0.0364401 0.00506284 0.00494312
-0.00991975 0.00660478 -0.00662242
-0.00596741 0.00533981 -0.00538279
-0.0150343 0.00720715 -0.0089558
-0.014055 0.00735323 -0.00738731
-0.0224985 0.00962586 -0.00587555
-0.0138259 0.00925248 -0.00375464
-0.00970971 -0.00327603 -0.00834667
-0.0058986 -0.0024887 -0.00688202
-0.0148969 -0.00373302 -0.0107017
-0.0148559 0.00369917 -0.0106646
-0.0055935 0.00122294 -0.00681098
-0.012571 0.00564136 -0.00386039
-0.00395849 0.00393126 -2.0857e-05
-0.0134375 0.00743037 -0.00565268
-0.013089 0.0074718 -0.00383109
-0.00456196 0.00537301 -0.00129045
-0.00401438 0.00256673 -0.00255729
-0.00414071 0.00123429 -0.00392815
0 0 0
-0.00456131 0.00400735 -0.00396502
-0.00431276 0.00256183 -0.00397148
0 0 0
-0.00956723 0.00322153 -0.00832107
-0.0100849 0.00488173 -0.00820905
-0.00467879 0.00260354 -0.00544912
-0.00181692 0.00152082 -0.00339196
0 0 0
-0.00379679 -0.00126758 -0.0025442
-0.00403493 5.89068e-06 -0.00395437
-0.00406404 -0.00130179 -0.00395522
-0.0299312 0.00383533 -0.0106848
-0.0356234 0.00497776 -0.00667569
-0.0402313 0.002456 -0.00551667
-0.0436248 0.00142064 -0.00229742
-0.0433458 0.000698746 -0.00330279
-0.045 0 0
-0.0437425 -0.00226116 -0.000725324
-0.0258017 -0.0105331 0.00757976
-0.0225108 -0.00914508 0.00914128
-0.0261895 -0.00925125 0.00757503
-0.0257877 -0.00905922 0.00904776
-0.00910331 1.03766e-05 -0.00835652
-0.018508 0.00205195 -0.0112853
-0.0133479 0.001856 -0.00925503
-0.00927968 0.00157252 -0.00831468
-0.0262655 0.00204604 -0.0113598
-0.0366283 0.00162373 -0.00676022
-0.0317647 0.0037834 -0.00755334
-0.0362695 0.0032862 -0.00673994
-0.0121567 -0.0038182 -0.00387677
-0.022418 3.70435e-06 -0.0043888
-0.0328149 -0.00387405 -0.00384172
-0.0225836 -0.00442059 -3.7328e-05
-0.0373321 -0.00328884 -0.00331494
-0.0366877 -0.00673426 3.29808e-05
-0.0103725 -0.00486493 -0.00835735
-0.0101123 -0.00653829 -0.00669718
-0.0151335 -0.00723181 -0.00903881
-0.00614554 -0.00523316 -0.00543657
-0.0225096 -0.00919149 -0.00914362
-0.0257478 -0.0105674 -0.00755832
-0.0257713 -0.00911378 -0.00903429
-0.0436935 0.00072995 -0.0022632
-0.0439114 0.000677134 -0.00141023
-0.045 0 0
-0.045 0 0
-0.042542 -0.00129614 -0.00467852
-0.0270778 0.00801568 -0.00405157
-0.0222708 0.0061376 -0.00800274
-0.026767 0.00595657 -0.00792604
-0.0266535 0.00965795 -0.0039739
-0.045 0 0
-0.0303943 -0.00551991 -0.00909317
-0.0307094 -0.00738831 -0.00735749
-0.0261748 -0.00930303 -0.00757113
-0.0186418 0.0111978 0.00395154
-0.00960424 0.0083629 0.00326778
-0.0134342 0.00932781 0.00192148
-0.00934436 0.00831062 0.00161878
-0.0138926 -0.00927292 -0.00377678
-0.0129228 -0.00567397 -0.00575378
-0.034547 -0.00492642 -0.00847562
-0.0392845 -0.00111818 -0.00690841
-0.045 0 0
-0.040931 -0.00642668 -0.00147919
-0.0298382 -0.007182 0.00891588
-0.0345522 -0.00490019 0.00838916
-0.0299022 -0.00377933 0.0105936
-0.0304604 -0.00548701 0.0090768
-0.045 0 0
-0.0422599 -0.00449176 -0.00221535
-0.0425224 -0.00446338 -0.00135975
-0.0404382 -0.00540662 -0.00121149
-0.0411926 -0.00249628 -0.00259003
-0.0438879 -0.00148092 -0.0014124
-0.0408634 -0.00255898 -0.00399019
-0.0401814 -0.00253608 -0.00540179
-0.043722 2.25501e-05 -0.00229387
-0.0409074 -0.00652085 0.0014589
-0.045 0 0
-0.0424694 -0.00459467 0.00135908
-0.0134895 -0.00562962 -0.00755966
-0.0141983 -0.00738201 -0.00748483
-0.0138302 -0.00369697 -0.00930088
-0.0314182 -0.00753985 -0.0055584
-0.0318964 -0.00755815 -0.00372449
-0.0358536 -0.00675873 -0.00498299
-0.0300928 -0.0106998 -0.0019097
-0.0269229 -0.00792373 -0.00593762
-0.0225799 -0.00806239 -0.00606906
-0.0270712 -0.00408017 -0.0080297
-0.0266574 -0.00400462 -0.00964706
-0.0225436 -0.00594476 -0.00950017
-0.0263976 -0.00584821 -0.00943322
-0.026317 -0.0020951 -0.0112285
-0.0436676 -0.00232128 0.000707728
-0.0436749 -0.00230052 -2.63291e-07
-0.045 0 0
-0.0439057 -0.00145603 0.000672726
-0.0372933 -0.00838031 -0.00139404
-0.0426104 -0.00457294 -0.000718456
-0.0395302 -0.00697334 -0.0012307
-0.0425618 -0.00470444 0.000692161
-0.042749 -0.00471184 -2.07149e-05
-0.0394739 -0.00704657 0.0012106
-0.0373339 -0.00844462 0.00139615
-0.043175 -0.00136428 -0.00327447
-0.0397705 -0.00383628 -0.00541863
-0.045 0 0
-0.0425409 1.16842e-05 -0.00461943
-0.0410418 0.000507868 -0.00654162
-0.0426271 0.000573046 -0.00458142
-0.0436266 -0.00223385 -0.00142564
-0.0434441 -0.00226122 -0.002314
-0.043285 -0.00320538 -0.00141981
-0.045 0 0
-0.0375835 -0.00522445 -0.0070543
-0.0390421 -0.00524537 -0.00541378
-0.0423725 -0.0021624 -0.00468549
-0.0426193 -0.00315121 -0.00335719
-0.045 0 0
-0.0403098 -0.00642735 -0.00322749
-0.0410314 -0.00450229 -0.0046908
-0.0418352 -0.00447467 -0.00330675

CELL_DATA 236
TENSORS stress float
-8610.14 650.955 -970.797
650.955 -3004.5 50.8251
-970.797 50.8251 -624.222

-7765.36 197.201 -115.78
197.201 416.329 401.49
-115.78 401.49 1034.4

-10126 -1039.21 1352.57
-1039.21 -3664.16 -2175.8
1352.57 -2175.8 -5319.16

-9336.01 30.2229 -133.459
30.2229 -1698.17 1.08146
-133.459 1.08146 -1588.17

-9586.38 -1619.27 -1580.94
-1619.27 -4227.92 1201.96
-1580.94 1201.96 -5075.98

-9555.09 786.333 -1784.96
786.333 -6433.09 -524.487
-1784.96 -524.487 -4055.97

-9075.79 -565.394 -793.185
-565.394 -4077.75 172.932
-793.185 172.932 -3758.59

-8465.59 -358.707 -55.2689
-358.707 -361.776 12.3435
-55.2689 12.3435 204.563

-9227.91 19.5885 137.751
19.5885 -1711.95 -109.561
137.751 -109.561 -1448.3

-8173.58 -318.638 -539.213
-318.638 -3552.23 103.297
-539.213 103.297 -3134.95

-7502.3 -249.113 220.678
-249.113 423.464 285.354
220.678 285.354 416.235

-9244.86 -631.482 -1916.28
-631.482 -6509.58 459.491
-1916.28 459.491 -3847.3

-9018.65 383.977 -166.525
383.977 -3546.72 -180.488
-166.525 -180.488 -1262.59

-8651.82 662.791 961.197
662.791 -3037.59 -63.1419
961.197 -63.1419 -687.858

-8537.4 35.9241 349.503
35.9241 938.825 -41.1569
349.503 -41.1569 -292.465

-7748.26 -364.317 -446.491
-364.317 824.329 -417.515
-446.491 -417.515 243.512

-7461.6 286.018 197.094
286.018 404.92 -290.715
197.094 -290.715 434.209

-9123.02 171.852 53.429
171.852 -1791.44 145.43
53.429 145.43 -3676.38

-9028.13 -22.6668 -41.5872
-22.6668 -69.907 -303.084
-41.5872 -303.084 240.688

-9564.69 -383.741 -371.612
-383.741 -3261.17 385.107
-371.612 385.107 -2232.97

-7813.63 333.369 388.042
333.369 736.096 -371.175
388.042 -371.175 200.432

-9496.06 859.408 -1788.94
859.408 -6376.75 -537.102
-1788.94 -537.102 -4180.79

-9508.78 207.467 -1602.34
207.467 -7335.5 -389.602
-1602.34 -389.602 -2365.21

-7963.75 -385.74 657.935
-385.74 21.9669 -64.5136
657.935 -64.5136 550.266

-9144.79 -71.4771 -86.0572
-71.4771 -439.801 -136.948
-86.0572 -136.948 -381.092

-10056.1 -1086.12 -1361.57
-1086.12 -3596.3 2156.57
-1361.57 2156.57 -5258.92

-7789.49 -124.043 169.233
-124.043 253.173 384.948
169.233 384.948 860.521

-9371.89 629 -378.844
629 -3099.82 -126.845
-378.844 -126.845 -3960.76

-9099.87 -235.512 -148.057
-235.512 -1133.33 -7.36299
-148.057 -7.36299 -1274.69

-9520.53 -1596.33 -1667.52
-1596.33 -4115.74 1227.7
-1667.52 1227.7 -5014.48

-9276.42 -237.42 -193.773
-237.42 -1914.74 16.3068
-193.773 16.3068 -2107.42

-8487.18 240.552 185.567
240.552 42.6099 -359.939
185.567 -359.939 364.242

-9541.06 259.766 -1585.97
259.766 -7292.03 -422.776
-1585.97 -422.776 -2580.49

-9053.62 65.9222 8.25772
65.9222 -498.882 -89.5767
8.25772 -89.5767 -971.353

-9545.78 -1614.47 1601.68
-1614.47 -4251.81 -1209.17
1601.68 -1209.17 -5088.49

-7827.67 341.673 -389.129
341.673 700.849 418.516
-389.129 418.516 133.296

-9005.72 177.445 137.742
177.445 -157.326 -152.283
137.742 -152.283 -172.322

-8442.5 355.893 -57.454
355.893 -312.823 184.888
-57.454 184.888 949.702

-8002.48 294.843 699.256
294.843 90.2492 61.2289
699.256 61.2289 517.085

-7458.35 309.834 194.209
309.834 395.223 -276.626
194.209 -276.626 449.235

-8555.56 -298.051 209.939
-298.051 -50.9277 313.149
209.939 313.149 167.685

-9215.19 -479.08 -112.49
-479.08 -3290.83 204.182
-112.49 204.182 -1675.35

-7973.51 -346.125 -685.707
-346.125 45.0778 76.9684
-685.707 76.9684 553.229

-9106.09 -15.6123 -153.261
-15.6123 -1411.41 82.0812
-153.261 82.0812 -1375.68

-9533.78 1612.64 -1593.76
1612.64 -4221.42 -1181.14
-1593.76 -1181.14 -4979.97

-10047.9 -1095.88 1363.38
-1095.88 -3589.61 -2152.49
1363.38 -2152.49 -5285.45

-8580.12 784.366 619.351
784.366 -5453.82 162.923
619.351 162.923 -5763.79

-8678.08 -635.312 936.096
-635.312 -3014.5 68.109
936.096 68.109 -810.361

-10057.5 1062.25 -1375.79
1062.25 -3666.02 -2064.91
-1375.79 -2064.91 -5219.19

-9597.59 804.261 1760.57
804.261 -6499.41 583.065
1760.57 583.065 -4296.88

-8598.93 -167.48 -323.815
-167.48 -152.141 -156.703
-323.815 -156.703 -436.402

-9403.01 353.449 -499.193
353.449 -3201.45 -405.835
-499.193 -405.835 -2044.77

-9532.33 1598.17 1607.35
1598.17 -4248.83 1164.16
1607.35 1164.16 -5029.43

-9355.98 -615.416 -1861.42
-615.416 -6568.21 431.341
-1861.42 431.341 -4062.57

-9638.7 -240.692 -1561.3
-240.692 -7562.19 176.399
-1561.3 176.399 -2528.38

-9553.11 247.454 1552.7
247.454 -7358.46 420.384
1552.7 420.384 -2561.61

-7719.83 185.003 157.995
185.003 412.211 -394.057
157.995 -394.057 1004.21

-8683.64 -636.443 -960.379
-636.443 -3020.32 -56.0426
-960.379 -56.0426 -847.078

-8499.58 2.70944 361.756
2.70944 123.997 -2.18886
361.756 -2.18886 -402.202

-9626.4 1690.43 -783.097
1690.43 -4431.44 -621.046
-783.097 -621.046 -6585.45

-9512.42 1646.87 -407.056
1646.87 -2363.02 -544.778
-407.056 -544.778 -7140.08

-8921.76 -136.306 -214.044
-136.306 -2140.95 108.283
-214.044 108.283 -1633.68

-9515.03 -1648.47 -404.297
-1648.47 -2360.18 539.49
-404.297 539.49 -7103.06

-9124.35 162.625 -68.4549
162.625 -1485.7 -27.1266
-68.4549 -27.1266 -1376.69

-9057.93 417.422 122.815
417.422 -3624.64 213.56
122.815 213.56 -1423.29

-9153.81 -159.244 -36.5308
-159.244 -1798.14 169.238
-36.5308 169.238 -3680.79

-9214.34 -501.834 118.333
-501.834 -3264.57 -213.757
118.333 -213.757 -1682.27

-9178.35 131.46 278.664
131.46 -1999.55 -13.7008
278.664 -13.7008 -2165.54

-9492.35 1641 428.014
1641 -2362.6 534.229
428.014 534.229 -7119

-9492.82 1688.8 826.54
1688.8 -4305.38 595.656
826.54 595.656 -6391.05

-8476.91 359.351 -31.4414
359.351 -363.5 4.41552
-31.4414 4.41552 229.977

-9019.67 426.262 -143.558
426.262 -3584.06 -142.307
-143.558 -142.307 -1434.81

-9393.56 383.884 476.625
383.884 -3124.1 447.82
476.625 447.82 -2035.52

-10077.7 1052.63 1363.64
1052.63 -3679.35 2054.23
1363.64 2054.23 -5281.47

-9553.38 -405.541 354.572
-405.541 -3266.93 -423.962
354.572 -423.962 -2288.79

-8660.31 658.498 -963.994
658.498 -3072.26 50.8265
-963.994 50.8265 -754.789

-8693.94 186.18 236.995
186.18 359.878 -210.285
236.995 -210.285 -231.188

-9282.88 -1656.91 -825.477
-1656.91 -3819.7 606.339
-825.477 606.339 -6021.26

-8002.6 517.583 417.257
517.583 -2954.71 168.018
417.257 168.018 -3141.23

-9598.74 -354.858 -355.825
-354.858 -3259 441.095
-355.825 441.095 -2289.93

-7988.46 323.608 686.908
323.608 91.1939 57.5207
686.908 57.5207 507.386

-7507.99 -262.584 243.884
-262.584 347.085 239.601
243.884 239.601 408.192

-9043.69 -73.5915 240.699
-73.5915 -2077.88 17.0504
240.699 17.0504 -1598.24

-9151.28 -208.799 247.877
-208.799 -2656.84 -48.4348
247.877 -48.4348 -2329.29

-9475.28 -603.608 1849.23
-603.608 -6664.2 -465.106
1849.23 -465.106 -4141.33

-9573.19 191.133 1521.63
191.133 -7367.81 344.428
1521.63 344.428 -2522.78

-9032.88 -125.127 -197.708
-125.127 -2223.28 -28.6084
-197.708 -28.6084 -1851.39

-8376.14 -339.048 35.7731
-339.048 -59.6551 57.0839
35.7731 57.0839 1180.12

-8516.67 -22.8258 -351.705
-22.8258 147.653 -2.20554
-351.705 -2.20554 -412.142

-9711.56 -1682.9 -769.439
-1682.9 -4487.16 621.158
-769.439 621.158 -6660.14

-9516.27 1681.67 -788.952
1681.67 -4210.44 -562.606
-788.952 -562.606 -6332.45

-9709.76 -1539.26 414.397
-1539.26 -2464.48 -491.126
414.397 -491.126 -7351.69

-8884.18 65.6683 -72.0723
65.6683 -444.975 181.222
-72.0723 181.222 -840.642

-9131.22 -164.304 64.225
-164.304 -1785.72 -142.866
64.225 -142.866 -3676.41

-7480.56 296.671 -215.51
296.671 387.741 286.907
-215.51 286.907 454.749

-9469.5 -1694.86 853.924
-1694.86 -4284.72 -603.234
853.924 -603.234 -6358.47

-7833.36 317.419 -416.532
317.419 708.763 386.805
-416.532 386.805 193.822

-8425.1 11.3039 -311.324
11.3039 1156.74 52.1087
-311.324 52.1087 -109.235

-8559.24 109.799 -321.617
109.799 -183.844 187.543
-321.617 187.543 -390.508

-9128.98 -70.7902 88.4041
-70.7902 -1168.36 42.0353
88.4041 42.0353 -1702.02

-10075.2 -1066.75 -1363.65
-1066.75 -3592.43 2188.61
-1363.65 2188.61 -5299.89

-7937.65 -250.911 -703.644
-250.911 1792.74 -163.326
-703.644 -163.326 677.055

-9645.59 -222.504 1549.3
-222.504 -7584.08 -221
1549.3 -221 -2487.77

-7473.44 -280.51 -221.699
-280.51 404.396 -296.229
-221.699 -296.229 470.503

-9492.34 -1638.05 448.692
-1638.05 -2387.63 -537.418
448.692 -537.418 -7106.91

-7480.01 -282.214 -224.574
-282.214 376.762 -255.31
-224.574 -255.31 461.63

-9027.07 96.0172 -97.651
96.0172 -15.9978 254.858
-97.651 254.858 -479.907

-9040.46 175.037 -109.739
175.037 -202.741 82.8485
-109.739 82.8485 -123.812

-8350.53 -350.802 -248.199
-350.802 382.305 -356.648
-248.199 -356.648 1562.61

-8466.42 376.288 93.4262
376.288 -353.687 19.0883
93.4262 19.0883 117.698

-8478.77 96.9359 -221.314
96.9359 990.346 324.852
-221.314 324.852 331.129

-8485.78 304.455 -321.092
304.455 75.2967 365.18
-321.092 365.18 406.174

-9078.46 37.6441 -35.2344
37.6441 -152.963 277.138
-35.2344 277.138 138.125

-9291.93 9.33695 132.129
9.33695 -1697.86 44.0033
132.129 44.0033 -1509.76

-8954.56 -127.055 181.968
-127.055 -1253.2 76.2258
181.968 76.2258 -845.485

-8064.58 -504.452 459.342
-504.452 -3080 -157.18
459.342 -157.18 -3174.61

-9123.77 -182.186 -24.7025
-182.186 -1444.66 32.0367
-24.7025 32.0367 -1333.49

-9283 -751.144 660.643
-751.144 -4017.52 -236.537
660.643 -236.537 -4029.12

-9093.83 -136.77 261.778
-136.77 -1912.85 43.3443
261.778 43.3443 -1986.08

-8563.35 63.7923 354.286
63.7923 957.384 -43.5174
354.286 -43.5174 -268.848

-9562.93 -255.92 -1606.47
-255.92 -7570.24 221.896
-1606.47 221.896 -2312.31

-8011.92 -322.794 608.768
-322.794 31.0458 -55.2345
608.768 -55.2345 555.683

-8620.61 -613.66 969.364
-613.66 -2942.11 60.5468
969.364 60.5468 -667.095

-7845.39 338.168 365.884
338.168 683.406 -370.165
365.884 -370.165 236.622

-9199.71 -514.768 -139.413
-514.768 -3382.82 250.386
-139.413 250.386 -1705.68

-9600.77 329.752 -402.929
329.752 -3250.33 -398.682
-402.929 -398.682 -2201.14

-10119.8 1040.03 -1344.35
1040.03 -3673.92 -2073.71
-1344.35 -2073.71 -5251.35

-9448.65 1586.21 -1594.26
1586.21 -4137.46 -1163.2
-1594.26 -1163.2 -4915.61

-7748.12 -163.871 -127.462
-163.871 396.112 -409.824
-127.462 -409.824 1022.43

-9105.96 208.332 196.323
208.332 -2017.55 50.1185
196.323 50.1185 -1788.32

-8983.7 85.3988 104.026
85.3988 -1428.56 -81.2942
104.026 -81.2942 -1173.97

-8881.83 -92.6909 -43.0564
-92.6909 601.856 -294.251
-43.0564 -294.251 -14.947

-8451.96 -20.1937 -345.48
-20.1937 97.5699 -18.8824
-345.48 -18.8824 -408.606

-8420.61 -45.9244 -364.073
-45.9244 1069.4 -144.115
-364.073 -144.115 -187.423

-9249.75 -48.6399 179.957
-48.6399 -1616.51 -96.9866
179.957 -96.9866 -1839.72

-9201.11 764.162 674.711
764.162 -3817.68 222.57
674.711 222.57 -3996.97

-7730.33 162.066 167.5
162.066 397.387 -376.504
167.5 -376.504 876.861

-7861.62 -303.561 -433.158
-303.561 775.592 -376.551
-433.158 -376.551 199.254

-7853.29 -337.352 423.774
-337.352 831.439 353.981
423.774 353.981 196.025

-8356.88 -257.096 398.769
-257.096 824.646 403.819
398.769 403.819 410.172

-8352.01 -109.495 229.716
-109.495 1716.49 362.422
229.716 362.422 -246.924

-7762.95 -352.653 437.79
-352.653 769.823 366.723
437.79 366.723 202.558

-8322.38 -268.234 213.196
-268.234 558.197 365.035
213.196 365.035 1609.55

-8621.34 -86.4366 89.0463
-86.4366 1105.23 525.144
89.0463 525.144 917.028

-8476.03 -324.313 -309.04
-324.313 143.935 -324.617
-309.04 -324.617 330.243

-8463.87 -365.444 82.4837
-365.444 -362.835 -20.6769
82.4837 -20.6769 129.356

-9181.36 -213.012 -35.8504
-213.012 -1891.64 -131.904
-35.8504 -131.904 -3777.35

-9367.07 -2.07192 -14.0696
-2.07192 -177.333 -177.263
-14.0696 -177.263 -188.44

-8523.09 369.282 112.12
369.282 534.915 -214.115
112.12 -214.115 1451.95

-8650.75 186.684 295.347
186.684 -220.078 -180.769
295.347 -180.769 -377.535

-8213 138.874 124.411
138.874 1168.91 -614.288
124.411 -614.288 742.133

-8422.98 325.492 66.4146
325.492 -139.173 -122.81
66.4146 -122.81 1163.76

-8628.14 -623 -983.39
-623 -2939.09 -26.8833
-983.39 -26.8833 -636.009

-9131.92 169.223 -47.9676
169.223 -1790.93 -156.361
-47.9676 -156.361 -3693.81

-8978.86 -160.349 161.084
-160.349 -107.4 168.406
161.084 168.406 -118.047

-8797.5 -219.918 -97.421
-219.918 -698.993 8.46445
-97.421 8.46445 -203.973

-9132.28 -49.2199 -19.751
-49.2199 -1129.3 107.643
-19.751 107.643 -694.211

-9217.24 91.8488 -30.4519
91.8488 -1963.71 4.51687
-30.4519 4.51687 -1458.04

-9303.81 507.364 -652.192
507.364 -3281.63 -231.874
-652.192 -231.874 -2790.8

-9229.25 217.008 -224.98
217.008 -1917.74 -6.23186
-224.98 -6.23186 -2117.93

-9217 -217.136 41.4009
-217.136 -1845.04 91.8252
41.4009 91.8252 -3774.4

-8351.04 132.129 133.143
132.129 538.591 -474.749
133.143 -474.749 1683.68

-9607.76 -1553.07 -442.945
-1553.07 -2292.52 519.893
-442.945 519.893 -7199.99

-9633.41 -329.12 352.028
-329.12 -3317.61 -396.016
352.028 -396.016 -2378.58

-9275.79 -140.962 -42.6038
-140.962 -1515.75 -40.9535
-42.6038 -40.9535 -1665.73

-8979.64 389.11 130.711
389.11 -3470.41 179.61
130.711 179.61 -1188.27

-9227.66 -565.276 532.012
-565.276 -3686.24 -256.255
532.012 -256.255 -3037.69

-9241.36 -141.263 61.8621
-141.263 -1424.71 -15.6565
61.8621 -15.6565 -1570.54

-7946.81 305.531 -670.118
305.531 196.465 -54.9405
-670.118 -54.9405 622.484

-7975.47 302.399 -713.217
302.399 97.9423 -52.4021
-713.217 -52.4021 503.163

-9059.18 -19.4938 40.3088
-19.4938 123.82 301.106
40.3088 301.106 -111.488

-9456.21 -1578.69 1635.3
-1578.69 -4030.53 -1231.16
1635.3 -1231.16 -4908.43

-8056.13 -284.141 -618.677
-284.141 -25.2722 56.0658
-618.677 56.0658 522.639

-8222.59 346.396 -125.394
346.396 199.78 259.188
-125.394 259.188 1841.13

-9083.55 -566.64 -810.939
-566.64 -4265.34 217.712
-810.939 217.712 -3709.31

-9381.51 2.48777 -1.04988
2.48777 -244.26 156.016
-1.04988 156.016 -232.042

-9153.49 -556.529 125.532
-556.529 -3308.07 -275.056
125.532 -275.056 -1692.3

-9327.68 -616.751 1860.8
-616.751 -6535.39 -439.03
1860.8 -439.03 -3994.59

-8212.68 535.765 -368.501
535.765 790.414 384.495
-368.501 384.495 984.039

-9387.16 11.9807 8.90467
11.9807 -243.877 158.12
8.90467 158.12 -208.666

-8654.66 658.325 972.453
658.325 -3062.32 -52.8471
972.453 -52.8471 -741.695

-9554.07 -1623.64 790.462
-1623.64 -4134.56 -586.051
790.462 -586.051 -6315.53

-8220.63 166.431 -152.683
166.431 -190.909 365.548
-152.683 365.548 1565.99

-7460.5 291.149 -210.641
291.149 396.143 297.312
-210.641 297.312 466.489

-9294.23 -129.637 -26.8498
-129.637 -1618.65 -27.2384
-26.8498 -27.2384 -1647.45

-9301.01 -693.333 443.862
-693.333 -2971.47 -224.018
443.862 -224.018 -3248.88

-8926.34 217.872 -205.294
217.872 -2147.52 -38.2446
-205.294 -38.2446 -2402.89

-9192.94 1072.82 -987.135
1072.82 -5555.34 -227.396
-987.135 -227.396 -5966.3

-7691.11 154.523 -158.237
154.523 402.967 344.857
-158.237 344.857 1021.17

-9179.86 -385.732 -245.123
-385.732 -1866.94 7.22837
-245.123 7.22837 -2151.49

-8632.52 -253.255 309.109
-253.255 -162.661 127.559
309.109 127.559 -440.329

-8483.05 -199.018 126.855
-199.018 288.916 341.025
126.855 341.025 1008.88

-8487.77 11.0417 349.728
11.0417 163.248 -1.93604
349.728 -1.93604 -386.746

-8488.59 -34.2308 372.239
-34.2308 -40.7488 24.9594
372.239 24.9594 -495.716

-9306.45 148.293 -10.5709
148.293 -1606.81 75.7737
-10.5709 75.7737 -1721.42

-9001.59 192.166 -125.809
192.166 -1013.69 131.428
-125.809 131.428 -1275.86

-8231.56 458 -516.549
458 -3350.49 -125.69
-516.549 -125.69 -3177.83

-9237.19 656.58 -748.278
656.58 -4025.61 -217.658
-748.278 -217.658 -3936.03

-8965.45 242.545 -151.161
242.545 -1910.08 31.1491
-151.161 31.1491 -1780.17

-8374.81 -339.498 -557.624
-339.498 -3601.72 103.906
-557.624 103.906 -3303.23

-8877.58 -18.6662 -256.653
-18.6662 -395.149 83.0139
-256.653 83.0139 -886.256

-9256.58 -731.594 1124.53
-731.594 -6417.99 -224.975
1124.53 -224.975 -5538.82

-9527.82 575.071 154.035
575.071 -3125.34 15.4967
154.035 15.4967 -4286.35

-7737.69 -165.667 200.639
-165.667 376.763 356.869
200.639 356.869 869.533

-8334.73 -29.0459 409.609
-29.0459 1107.87 154.831
409.609 154.831 140.73

-8693.74 12.6367 -174.976
12.6367 722.776 126.292
-174.976 126.292 -324.432

-9373.67 15.1621 -11.2595
15.1621 -203.472 -131.208
-11.2595 -131.208 -237.95

-9317.59 13.5931 26.5777
13.5931 -1354.6 -39.0149
26.5777 -39.0149 -1267.11

-8575.97 148.463 255.87
148.463 -163.114 -192.605
255.87 -192.605 -370.107

-7737.16 -200.433 -143.815
-200.433 333.869 -352.076
-143.815 -352.076 862.345

-8046.75 -372.924 787.945
-372.924 -5287.49 -76.1847
787.945 -76.1847 -4704.76

-9389.61 797.25 1770.17
797.25 -6246.2 557.794
1770.17 557.794 -3969.39

-8560.37 75.8188 -91.8992
75.8188 1085.07 535.89
-91.8992 535.89 1253.47

-9438.41 1558.82 1588.07
1558.82 -4212.59 1174.36
1588.07 1174.36 -4897.09

-8324.02 -267.37 -401.417
-267.37 861.2 -451.529
-401.417 -451.529 422.995

-8468.19 -325.937 -31.4617
-325.937 -316.721 -180.783
-31.4617 -180.783 861.751

-8775.38 126.902 78.7125
126.902 286.833 -365.349
78.7125 -365.349 677.746

-9180.11 138.441 34.3754
138.441 -2068.12 -75.7167
34.3754 -75.7167 -1473.52

-9503.85 1543.02 428.797
1543.02 -2419.81 483.535
428.797 483.535 -7121.93

-8033.97 -275.201 646.448
-275.201 1529.61 172.21
646.448 172.21 468.059

-9385.71 1637.83 799.641
1637.83 -4153.5 554.988
799.641 554.988 -6204.78

-9303.38 166.694 166.118
166.694 -1966.96 17.6231
166.118 17.6231 -2096.12

-9591.75 276.749 584.236
276.749 -4296.74 62.8597
584.236 62.8597 -3767.07

-9532.58 1603.9 -415.962
1603.9 -2433.1 -485.738
-415.962 -485.738 -7152.62

-8523.12 130.909 224.566
130.909 955.669 -347.999
224.566 -347.999 185.901

-8534.38 -505.461 -170.229
-505.461 327.947 -90.421
-170.229 -90.421 1214.86

-8609.54 -61.4968 -132.309
-61.4968 1035.02 -598.915
-132.309 -598.915 771.146

-8123.01 -107.576 -258.692
-107.576 2220.38 -401.977
-258.692 -401.977 160.328

-8281.29 788.903 -387.181
788.903 -4995.58 -92.7654
-387.181 -92.7654 -5556.98

-9004.18 215.304 15.6113
215.304 -1774.89 43.479
15.6113 43.479 -3593.37

-9069.72 210.983 -37.5019
210.983 -1947.43 -161.353
-37.5019 -161.353 -3663.38

-9377.31 515.458 632.049
515.458 -3472.02 220.585
632.049 220.585 -2987.1

-9641.76 -254.36 1524.01
-254.36 -7636.4 -214.289
1524.01 -214.289 -2512.18

-9514.12 1063.56 942.929
1063.56 -5907.68 294.304
942.929 294.304 -6276.46

-9555.49 333.784 408.138
333.784 -3212.6 443.369
408.138 443.369 -2160.68

-10143.2 1029.82 1339.27
1029.82 -3668.91 2074.78
1339.27 2074.78 -5304.71

