# vtk DataFile Version 3.0
vtk output at time 0.3
ASCII
DATASET UNSTRUCTURED_GRID
POINTS 1524 float
0 0 0 0 0 0.05 0 0 0.1 
0 0 0.15 0 0 0.2 0 0.05 0 
0 0.05 0.05 0 0.05 0.1 0 0.05 0.15 
0 0.05 0.2 0 0.1 0 0 0.1 0.05 
0 0.1 0.1 0 0.1 0.15 0 0.1 0.2 
0 0.15 0 0 0.15 0.05 0 0.15 0.1 
0 0.15 0.15 0 0.15 0.2 0 0.2 0 
0 0.2 0.05 0 0.2 0.1 0 0.2 0.15 
0 0.2 0.2 0.045537 -0.0034857 -0.00366549 0.046318 -0.00377547 0.0481762 
0.0464966 -0.00381018 0.100008 0.0463208 -0.00378373 0.151824 0.0455498 -0.00349962 0.203652 
0.0463042 0.0481886 -0.00379706 0.0462964 0.0481847 0.203813 0.0465104 0.100011 -0.00392679 
0.0465253 0.100018 0.203903 0.0463056 0.151802 -0.00377096 0.0462938 0.151814 0.203795 
0.045554 0.203472 -0.00365914 0.0463099 0.203793 0.0481652 0.0465 0.203817 0.100003 
0.0463154 0.203796 0.151822 0.0455495 0.203501 0.203639 0.0925232 -0.00401903 -0.00403058 
0.0925145 -0.00419522 0.0477536 0.0924881 -0.00454058 0.0999968 0.0924476 -0.00423593 0.152212 
0.0925216 -0.00403243 0.203998 0.0925463 0.0477469 -0.00413973 0.092544 0.0477453 0.204154 
0.0924812 0.100017 -0.00459617 0.0925268 0.0999805 0.204561 0.0924053 0.152227 -0.00418508 
0.0923912 0.15219 0.204141 0.0925119 0.203988 -0.00403026 0.0925006 0.204169 0.0477362 
0.0925337 0.20456 0.0999993 0.0924757 0.204233 0.152236 0.0925225 0.204004 0.204034 
0.13945 -0.00348717 -0.00365358 0.138739 -0.00387218 0.0481924 0.138484 -0.00395417 0.0999999 
0.138679 -0.00383298 0.151834 0.139444 -0.00348643 0.20365 0.138792 0.048192 -0.00386954 
0.138785 0.0481963 0.203847 0.138425 0.100024 -0.00397665 0.13842 0.10004 0.203948 
0.138708 0.151819 -0.00379218 0.138699 0.151822 0.203777 0.139466 0.20349 -0.00365495 
0.138769 0.203859 0.0481547 0.138468 0.20389 0.100021 0.138698 0.203914 0.151784 
0.139469 0.203506 0.203637 0.185 0 0 0.185 0 0.05 
0.185 0 0.1 0.185 0 0.15 0.185 0 0.2 
0.185 0.05 0 0.185 0.05 0.05 0.185 0.05 0.1 
0.185 0.05 0.15 0.185 0.05 0.2 0.185 0.1 0 
0.185 0.1 0.05 0.185 0.1 0.1 0.185 0.1 0.15 
0.185 0.1 0.2 0.185 0.15 0 0.185 0.15 0.05 
0.185 0.15 0.1 0.185 0.15 0.15 0.185 0.15 0.2 
0.185 0.2 0 0.185 0.2 0.05 0.185 0.2 0.1 
0.185 0.2 0.15 0.185 0.2 0.2 0 0 0.0166667 
0 0 0.0333333 0 0.0166667 0 0 0.0333333 0 
0.0143422 -0.00201506 -0.00263063 0.0297081 -0.00304048 -0.00308122 0.0154018 -0.00232778 0.0149913 
0.0305078 -0.0030571 0.0313315 0 0 0.0666667 0 0 0.0833333 
0 0.0166667 0.0333333 0 0.0333333 0.0166667 0 0.0166667 0.05 
0 0.0333333 0.05 0 0.0166667 0.0666667 0 0.0333333 0.0833333 
0.0156525 -0.00242944 0.0491809 0.03082 -0.00321834 0.0486106 0 0 0.116667 
0 0 0.133333 0 0.0166667 0.1 0 0.0333333 0.1 
0.0156544 -0.00251743 0.0830274 0.0308835 -0.0032036 0.0657642 0.01572 -0.00240515 0.100016 
0.0310703 -0.00330799 0.100013 0.015655 -0.002504 0.117002 0.0308813 -0.00319661 0.134254 
0 0 0.166667 0 0 0.183333 0 0.0166667 0.133333 
0 0.0333333 0.116667 0 0.0166667 0.15 0 0.0333333 0.15 
0 0.0166667 0.166667 0 0.0333333 0.183333 0.0156562 -0.00240323 0.150823 
0.03082 -0.003202 0.151404 0 0.0166667 0.2 0 0.0333333 0.2 
0.0154052 -0.00232243 0.185004 0.0305131 -0.00304737 0.168672 0.0143445 -0.00201642 0.202623 
0.0297151 -0.00304435 0.203074 0 0.05 0.0166667 0 0.05 0.0333333 
0 0.0666667 0 0 0.0833333 0 0 0.0666667 0.0166667 
0 0.0833333 0.0333333 0.0151247 0.0323457 -0.00240492 0.030242 0.0141734 -0.00316547 
0.0159153 0.0321577 0.0149579 0.0312388 0.0141415 0.0313621 0.0156195 0.0492787 -0.00236843 
0.0309479 0.04866 -0.00334594 0.0156959 0.0663274 -0.0024761 0.0309638 0.0829238 -0.00330898 
0 0.05 0.0666667 0 0.05 0.0833333 0 0.0666667 0.05 
0 0.0833333 0.05 0.0160846 0.0320759 0.0491982 0.0314627 0.0140729 0.0486245 
0.0160437 0.0491622 0.0320723 0.0314123 0.0486064 0.0140211 0.0161457 0.0661454 0.032043 
0.0316118 0.0828879 0.0140062 0.0316398 0.031351 0.0485582 0.0620524 0.0131407 0.0479115 
0.0317762 0.0313026 0.0657345 0.0622039 0.0130527 0.0826422 0.0316932 0.0485563 0.0312927 
0.0620358 0.0479463 0.0131183 0.0317947 0.065692 0.0312881 0.0621891 0.0826655 0.0130544 
0 0.05 0.116667 0 0.05 0.133333 0 0.0666667 0.0833333 
0 0.0833333 0.0666667 0 0.0666667 0.1 0 0.0833333 0.1 
0 0.0666667 0.116667 0 0.0833333 0.133333 0.0161461 0.0320473 0.0830999 
0.0315673 0.0140195 0.065752 0.0161442 0.0320243 0.100018 0.0315584 0.0140062 0.100012 
0.0161617 0.0320477 0.116947 0.031585 0.0140091 0.134287 0.0318531 0.0312843 0.100008 
0.0622811 0.0130238 0.10002 0.0318439 0.0312674 0.117145 0.0621708 0.0130974 0.134707 
0.0319865 0.0656766 0.0656886 0.06239 0.0826407 0.0304317 0 0.05 0.166667 
0 0.05 0.183333 0 0.0666667 0.15 0 0.0833333 0.15 
0.0161063 0.0321007 0.150851 0.0314958 0.0140929 0.151405 0.016053 0.0491736 0.167938 
0.0314138 0.0486127 0.185996 0.0161365 0.0661479 0.167959 0.0316 0.082894 0.185992 
0.0317402 0.0313446 0.151485 0.0620785 0.0131674 0.152055 0.0317037 0.0485736 0.168725 
0.0620221 0.0479316 0.186894 0.0317877 0.0657154 0.168722 0.0621972 0.0826399 0.186957 
0 0.0666667 0.183333 0 0.0833333 0.166667 0 0.0666667 0.2 
0 0.0833333 0.2 0.0159209 0.0321572 0.185056 0.0312565 0.014151 0.168645 
0.015125 0.0323385 0.202417 0.0302487 0.0141654 0.203166 0.0156151 0.0492762 0.202375 
0.0309417 0.0486598 0.203358 0.0156913 0.0663313 0.202479 0.0309587 0.0829372 0.203308 
0 0.1 0.0166667 0 0.1 0.0333333 0 0.116667 0 
0 0.133333 0 0.0155889 0.100014 -0.00254642 0.0308038 0.0999691 -0.00318459 
0 0.1 0.0666667 0 0.1 0.0833333 0 0.116667 0.0333333 
0 0.133333 0.0166667 0 0.116667 0.05 0 0.133333 0.05 
0 0.116667 0.0666667 0 0.133333 0.0833333 0.0161631 0.0999977 0.0320219 
0.0316513 0.0999952 0.0139525 0.0161445 0.116944 0.0320397 0.0315482 0.134258 0.0140224 
0.0318802 0.0999985 0.0312296 0.0622551 0.0999981 0.0130357 0.0318466 0.117124 0.0312322 
0.0621512 0.134688 0.0131025 0 0.1 0.116667 0 0.1 0.133333 
0 0.116667 0.1 0 0.133333 0.1 0.0320134 0.0656911 0.0999966 
0.0623822 0.0304369 0.0999893 0.0319961 0.0657344 0.117132 0.0623472 0.0304524 0.13471 
0.0319965 0.100002 0.0657011 0.0623878 0.100001 0.0304461 0.0320859 0.0999935 0.134303 
0.0623931 0.0999897 0.169583 0.0319921 0.117131 0.0657251 0.0623432 0.134691 0.0304618 
0.0320326 0.117123 0.134298 0.0623436 0.134762 0.169564 0.0320552 0.134305 0.100001 
0.0623868 0.169578 0.0999776 0.0320183 0.13428 0.117118 0.0623348 0.169554 0.134724 
0.0627162 0.0999962 0.0999909 0.12231 0.10001 0.100004 0 0.1 0.166667 
0 0.1 0.183333 0 0.116667 0.133333 0 0.133333 0.116667 
0 0.116667 0.15 0 0.133333 0.15 0 0.116667 0.166667 
0 0.133333 0.183333 0.0161681 0.0999937 0.167936 0.0316597 0.0999986 0.186006 
0.0161514 0.116916 0.167925 0.0315522 0.134234 0.185971 0.031925 0.0656864 0.151504 
0.0622595 0.030493 0.152096 0.0318837 0.0999814 0.168721 0.0622915 0.100002 0.186993 
0.0318551 0.117115 0.168722 0.062163 0.134727 0.186926 0.0319127 0.134279 0.151486 
0.0622604 0.16951 0.1521 0 0.116667 0.2 0 0.133333 0.2 
0.0155941 0.100021 0.202534 0.0308145 0.0999775 0.203164 0 0.15 0.0166667 
0 0.15 0.0333333 0 0.166667 0 0 0.183333 0 
0 0.166667 0.0166667 0 0.183333 0.0333333 0.0156296 0.133851 -0.0024537 
0.0308893 0.117082 -0.00325982 0.01573 0.150715 -0.0023394 0.0310296 0.151345 -0.0033135 
0.0151602 0.167615 -0.00237529 0.0302477 0.185827 -0.00314744 0.0159232 0.167809 0.0149612 
0.0312479 0.185891 0.0313739 0 0.15 0.0666667 0 0.15 0.0833333 
0 0.166667 0.05 0 0.183333 0.05 0.0160975 0.150848 0.0320762 
0.031494 0.151408 0.0140632 0.0160927 0.167929 0.0492031 0.0314691 0.185945 0.0486294 
0.0317239 0.151466 0.0313295 0.0620455 0.152025 0.0131659 0.031692 0.168684 0.0485632 
0.0620561 0.186862 0.0479155 0.0317994 0.168711 0.0657313 0.0622036 0.186938 0.0826344 
0 0.15 0.116667 0 0.15 0.133333 0 0.166667 0.0833333 
0 0.183333 0.0666667 0 0.166667 0.1 0 0.183333 0.1 
0 0.166667 0.116667 0 0.183333 0.133333 0.0161527 0.16795 0.0830975 
0.0315747 0.185993 0.0657505 0.0161519 0.167974 0.100008 0.0315629 0.185999 0.100005 
0.0161595 0.167957 0.11693 0.0315793 0.186006 0.134277 0.0319201 0.151496 0.0656895 
0.062249 0.152068 0.0304991 0.0318743 0.168723 0.100003 0.062282 0.186982 0.100013 
0.0318389 0.168736 0.117134 0.0621588 0.186911 0.134716 0 0.15 0.166667 
0 0.15 0.183333 0 0.166667 0.15 0 0.183333 0.15 
0.0160926 0.150814 0.167924 0.0314828 0.15139 0.185955 0.0161041 0.167899 0.150835 
0.0314878 0.18592 0.151396 0.0317215 0.151429 0.168694 0.0620342 0.152077 0.186872 
0.0317597 0.168676 0.151458 0.0620763 0.186844 0.152056 0 0.166667 0.183333 
0 0.183333 0.166667 0 0.166667 0.2 0 0.183333 0.2 
0.0156288 0.13384 0.20245 0.0308925 0.117076 0.203238 0.0157218 0.150705 0.202347 
0.0310167 0.151338 0.203327 0.015926 0.167798 0.185043 0.0312581 0.185868 0.168629 
0.0151583 0.167611 0.202379 0.0302461 0.185831 0.203146 0 0.2 0.0166667 
0 0.2 0.0333333 0.0143393 0.201985 -0.00262908 0.0297022 0.203036 -0.00307499 
0.0154027 0.202313 0.01499 0.0305 0.203084 0.0313281 0 0.2 0.0666667 
0 0.2 0.0833333 0.0156468 0.202431 0.0491859 0.0308058 0.203234 0.0486192 
0 0.2 0.116667 0 0.2 0.133333 0.015655 0.202517 0.0830249 
0.0308824 0.203212 0.0657687 0.0157192 0.202406 0.100008 0.0310712 0.203314 0.100007 
0.0156518 0.20251 0.116993 0.0308738 0.203211 0.134245 0 0.2 0.166667 
0 0.2 0.183333 0.0156491 0.20241 0.15082 0.0308058 0.203216 0.151391 
0.0154033 0.202305 0.185005 0.0305007 0.203067 0.168668 0.0143373 0.201983 0.202623 
0.0296974 0.203039 0.203065 0.0458007 -0.00354533 0.0135813 0.0460175 -0.00365752 0.0309071 
0.0458206 0.0136479 -0.00361598 0.0460774 0.0308939 -0.00367279 0.0611789 -0.00384163 -0.00385119 
0.0768607 -0.00400232 -0.00398402 0.0614136 0.013352 -0.00390122 0.077071 0.0304562 -0.00412922 
0.0464435 -0.00380188 0.0654957 0.046463 -0.00381257 0.0827439 0.0465256 0.0135959 0.0308755 
0.0465021 0.0309154 0.0135278 0.0615506 -0.00397001 0.0305532 0.0769512 -0.00401637 0.0131681 
0.0616851 -0.00410061 0.0478948 0.0770885 -0.00425397 0.0477679 0.0617869 -0.00417823 0.0652388 
0.0771583 -0.00443353 0.0825545 0.0618492 0.0132402 0.030569 0.0771759 0.0304658 0.0130627 
0.0464682 -0.00381831 0.117267 0.0464525 -0.0038074 0.134506 0.0618829 -0.00420605 0.100008 
0.0772081 -0.0044557 0.100006 0.0460226 -0.00365748 0.169086 0.0458071 -0.00354917 0.186408 
0.0465476 0.0135966 0.169118 0.0465121 0.0309108 0.186486 0.0618166 -0.00416952 0.13472 
0.0772017 -0.00442195 0.117432 0.0616638 -0.0041005 0.152077 0.0770319 -0.00425198 0.152183 
0.0615569 -0.00397154 0.169423 0.076958 -0.00401803 0.186795 0.0618638 0.0132393 0.169406 
0.0771727 0.0304615 0.18693 0.0458313 0.0136331 0.203613 0.046081 0.030881 0.203686 
0.0611905 -0.0038626 0.203824 0.076868 -0.00402056 0.203948 0.0614245 0.0133307 0.203891 
0.0770751 0.0304381 0.204128 0.0464095 0.0654791 -0.00382268 0.0464453 0.0827544 -0.00384199 
0.0617317 0.0479115 -0.00412547 0.0771357 0.0477744 -0.00423886 0.0463995 0.0654831 0.203834 
0.046442 0.0827635 0.203844 0.0617211 0.0478974 0.204141 0.0771254 0.0477569 0.204253 
0.0464399 0.117244 -0.00383446 0.0463951 0.134513 -0.00380792 0.0618409 0.0826614 -0.00422048 
0.0771764 0.0651891 -0.00433108 0.0618412 0.100011 -0.00427641 0.0771514 0.100025 -0.00449496 
0.0618551 0.117369 -0.00419993 0.0771649 0.134829 -0.00432054 0.0464438 0.117246 0.203817 
0.0463967 0.13451 0.203806 0.06184 0.0826534 0.204227 0.0771621 0.0651657 0.204347 
0.0618611 0.100012 0.204263 0.0771848 0.100009 0.204486 0.0618613 0.117381 0.204212 
0.0771685 0.134847 0.204348 0.046087 0.169116 -0.0036543 0.0458261 0.186357 -0.00359638 
0.046528 0.169102 0.0135553 0.0465441 0.18644 0.0308886 0.0616705 0.152046 -0.00411465 
0.077029 0.152156 -0.00426271 0.0465266 0.169111 0.186458 0.0465518 0.18643 0.169101 
0.0460793 0.169137 0.203665 0.0458206 0.186382 0.203593 0.0616631 0.152087 0.204143 
0.0770208 0.152202 0.204267 0.045818 0.203553 0.0135786 0.0460303 0.203684 0.0308957 
0.0614243 0.186634 -0.00389159 0.0770392 0.169503 -0.00411882 0.0612026 0.20383 -0.00385099 
0.076873 0.203973 -0.0039849 0.0464478 0.203814 0.0654909 0.0464706 0.203821 0.0827399 
0.0618663 0.186767 0.0305799 0.0771587 0.169499 0.0130715 0.0615771 0.203974 0.0305505 
0.076974 0.203992 0.013173 0.0616902 0.204122 0.0478822 0.0770845 0.204252 0.0477513 
0.0617959 0.204178 0.0652375 0.0771745 0.204414 0.0825545 0.0464673 0.203829 0.117261 
0.0464463 0.203825 0.134502 0.0618874 0.204206 0.100004 0.0772213 0.204455 0.100004 
0.0460265 0.203678 0.169082 0.0458085 0.203561 0.186399 0.0618688 0.186778 0.1694 
0.0771497 0.169536 0.186929 0.0618143 0.20418 0.134723 0.0772065 0.20441 0.117432 
0.0616829 0.204118 0.152075 0.0770668 0.204265 0.152194 0.0615707 0.203983 0.169416 
0.0769727 0.204019 0.186805 0.0614212 0.186679 0.203886 0.0770426 0.169549 0.20413 
0.06119 0.203873 0.203822 0.0768709 0.204013 0.203963 0.0925114 -0.00404947 0.0131506 
0.0925117 -0.00411278 0.0304226 0.092521 0.0131733 -0.00403687 0.0925303 0.0304227 -0.00408577 
0.108164 -0.00399955 -0.00394976 0.123821 -0.00383663 -0.00382856 0.108058 -0.00400034 0.0132087 
0.123452 -0.00394875 0.0305794 0.092494 -0.00431894 0.0651415 0.0924704 -0.00443877 0.0825664 
0.0924886 0.0130995 0.0304239 0.0925022 0.0304539 0.0131066 0.0924753 0.0303837 0.0303751 
0.0925019 0.0651889 0.0129116 0.107942 -0.00417941 0.0477988 0.123357 -0.00406579 0.0479229 
0.107727 0.0304182 0.0304088 0.122943 0.0653 0.0130832 0.0924893 -0.00444496 0.117414 
0.092493 -0.00435134 0.134834 0.0924822 0.0301964 0.0651172 0.0925099 0.0651235 0.030208 
0.0925133 0.0302254 0.13487 0.0924969 0.0651196 0.169788 0.107849 -0.00432907 0.0825664 
0.123265 -0.00412086 0.0652497 0.107844 -0.00444505 0.100011 0.123159 -0.00426718 0.100009 
0.107811 -0.00439994 0.11742 0.123192 -0.00419299 0.13474 0.107574 0.0302497 0.0651714 
0.12272 0.0652684 0.0304162 0.107602 0.0302796 0.134815 0.122693 0.0652712 0.169566 
0.122635 0.0304501 0.0999987 0.15294 0.0657004 0.100016 0.122645 0.030436 0.117361 
0.152973 0.0656737 0.134305 0.0924981 -0.00410417 0.169543 0.0925136 -0.00404147 0.186816 
0.0924854 0.0131005 0.169554 0.0925021 0.0304635 0.186891 0.0924833 0.0304169 0.169659 
0.092482 0.0651888 0.187123 0.107892 -0.00416699 0.152196 0.123298 -0.00404472 0.152095 
0.10773 0.0304325 0.169586 0.122931 0.0653123 0.186911 0.0925162 0.0131645 0.204015 
0.0925286 0.0304166 0.204077 0.108054 -0.00399271 0.186779 0.123434 -0.00394386 0.169424 
0.108154 -0.00399525 0.203939 0.123811 -0.00382996 0.203825 0.0925104 0.065124 -0.00425614 
0.0925057 0.0825406 -0.00439708 0.107957 0.0304608 -0.00409733 0.12359 0.013363 -0.00387628 
0.107838 0.0304798 0.013118 0.123176 0.013249 0.0306015 0.107911 0.0477871 -0.00417611 
0.123352 0.0479151 -0.00405252 0.107887 0.0651594 -0.00425451 0.12317 0.0826049 -0.00422668 
0.0925048 0.0651208 0.204285 0.0925061 0.0825373 0.20442 0.107842 0.0304856 0.186876 
0.123172 0.0132586 0.169398 0.107953 0.0304619 0.204093 0.123587 0.0133666 0.203873 
0.107907 0.0477865 0.204183 0.123346 0.0479134 0.204052 0.107879 0.0651596 0.20426 
0.123143 0.0826153 0.204214 0.0924945 0.117412 -0.00449665 0.0924743 0.134834 -0.00434723 
0.0925383 0.134863 0.0302035 0.0925088 0.169791 0.0651085 0.107814 0.100017 -0.00449329 
0.123108 0.100013 -0.00430086 0.107614 0.134818 0.0302569 0.122693 0.169583 0.0652561 
0.122627 0.0999978 0.0304312 0.152944 0.100008 0.0657009 0.122644 0.117366 0.0304286 
0.152972 0.134312 0.0656802 0.092505 0.117395 0.204452 0.092467 0.134818 0.204298 
0.0924876 0.134882 0.169781 0.0925078 0.169783 0.134862 0.0925177 0.134811 0.187113 
0.092531 0.169617 0.169615 0.107821 0.100007 0.204473 0.123101 0.100018 0.204285 
0.107566 0.134829 0.169723 0.122706 0.169562 0.134716 0.107693 0.134762 0.187086 
0.122951 0.169456 0.169441 0.122602 0.0999982 0.169544 0.152974 0.0999925 0.134294 
0.122735 0.100011 0.186956 0.153109 0.0999834 0.16876 0.12259 0.117355 0.169572 
0.152995 0.134283 0.134302 0.122787 0.117366 0.186927 0.153165 0.134252 0.168745 
0.092493 0.169554 -0.00407786 0.0925171 0.186796 -0.00402953 0.092496 0.169558 0.0131119 
0.0925177 0.18689 0.0304481 0.0925104 0.169663 0.030414 0.0925028 0.187133 0.065181 
0.107871 0.134843 -0.00432135 0.123176 0.117382 -0.00422308 0.107896 0.152192 -0.0042366 
0.123312 0.152069 -0.00411081 0.107954 0.169497 -0.00408538 0.123599 0.18664 -0.00388135 
0.107843 0.169506 0.0130968 0.123204 0.186774 0.0305924 0.107752 0.169585 0.0304021 
0.122933 0.186926 0.0652847 0.122811 0.152102 0.0304901 0.153065 0.151509 0.0657133 
0.0924914 0.169545 0.186882 0.0925104 0.186896 0.169566 0.0924909 0.169534 0.204042 
0.0925175 0.1868 0.204015 0.107837 0.134847 0.204302 0.123146 0.117378 0.204218 
0.107859 0.152232 0.204201 0.123276 0.152109 0.204089 0.10786 0.169504 0.186905 
0.123193 0.186782 0.169408 0.107938 0.169521 0.204093 0.123603 0.186657 0.203879 
0.122998 0.152083 0.186833 0.153269 0.151408 0.168712 0.0925234 0.204012 0.013149 
0.0925234 0.204083 0.0304155 0.108156 0.203972 -0.00397516 0.123819 0.203839 -0.00384049 
0.108058 0.203984 0.0131879 0.123452 0.203955 0.0305791 0.0924811 0.204296 0.0651216 
0.0924924 0.204431 0.0825561 0.107898 0.204188 0.0477698 0.123294 0.204062 0.0478879 
0.0924907 0.204419 0.117415 0.0924829 0.204321 0.134843 0.107808 0.20436 0.0825589 
0.123169 0.20415 0.065258 0.107821 0.204454 0.100006 0.123122 0.204249 0.100012 
0.107817 0.204335 0.117436 0.123177 0.204132 0.13474 0.12262 0.169547 0.0999931 
0.152987 0.134309 0.0999966 0.122746 0.186947 0.0999977 0.153139 0.168773 0.0999958 
0.0925087 0.204101 0.169573 0.0925167 0.204035 0.186846 0.10787 0.204174 0.152217 
0.123285 0.204065 0.152096 0.108053 0.203998 0.186804 0.123444 0.203976 0.169429 
0.108152 0.203987 0.203965 0.123827 0.203851 0.203828 0.1392 -0.00356629 0.0135852 
0.138999 -0.00371113 0.0309117 0.139195 0.0136282 -0.00360422 0.138948 0.0308701 -0.00368579 
0.155319 -0.00304915 -0.00307549 0.170676 -0.00199352 -0.00262823 0.154778 0.0141593 -0.00315736 
0.16986 0.0323931 -0.00237718 0.138591 -0.00393627 0.0654879 0.138522 -0.0039502 0.0827507 
0.138512 0.0135299 0.0308704 0.13852 0.0308799 0.0135065 0.138161 0.0308381 0.03081 
0.138179 0.0655223 0.0133861 0.154529 -0.00306966 0.0313309 0.169608 -0.00231199 0.0149934 
0.154241 -0.00323397 0.0486181 0.169365 -0.00239267 0.0491862 0.154187 -0.00326283 0.065758 
0.169364 -0.00250641 0.0830161 0.153789 0.0141274 0.0313768 0.169088 0.032213 0.0149698 
0.153545 0.0140659 0.0486302 0.168899 0.0321525 0.0491887 0.153421 0.01396 0.0657366 
0.168835 0.0320733 0.0830761 0.153284 0.0313351 0.0485567 0.168759 0.066103 0.0491561 
0.153202 0.0312839 0.0657514 0.168704 0.066133 0.0830793 0.138497 -0.00387567 0.117274 
0.138535 -0.00385737 0.13455 0.137853 0.0307418 0.065453 0.137882 0.0654533 0.0307439 
0.153956 -0.00339222 0.0999912 0.169289 -0.00241363 0.0999898 0.153406 0.0138993 0.0999938 
0.168847 0.0320153 0.0999961 0.153175 0.0311998 0.0999999 0.168711 0.0660856 0.0999991 
0.153178 0.031213 0.117116 0.168735 0.0661018 0.13387 0.138977 -0.00369046 0.1691 
0.139194 -0.00355992 0.186416 0.138512 0.013554 0.169136 0.138523 0.0308881 0.18649 
0.138174 0.0308379 0.169175 0.138158 0.0654939 0.186594 0.154159 -0.00327121 0.134246 
0.16936 -0.00252441 0.116969 0.154219 -0.00325846 0.151385 0.169363 -0.00241889 0.150814 
0.154523 -0.00308501 0.168671 0.169612 -0.0023165 0.185016 0.153428 0.0139382 0.134249 
0.168851 0.0320362 0.116912 0.153558 0.0140278 0.151372 0.168911 0.0321391 0.150819 
0.153796 0.0141101 0.168628 0.169095 0.0322144 0.185022 0.153304 0.0312843 0.151423 
0.168766 0.0661536 0.150864 0.139195 0.0136288 0.203601 0.138948 0.0308711 0.20368 
0.155318 -0.00304802 0.203079 0.170676 -0.00198666 0.20264 0.154778 0.0141601 0.203154 
0.169859 0.0324014 0.202368 0.138634 0.0654773 -0.00394673 0.138562 0.0827562 -0.00395653 
0.154046 0.0486521 -0.00336999 0.169299 0.0492913 -0.00235528 0.153564 0.0486273 0.0140067 
0.168898 0.0492073 0.0321153 0.153491 0.0657937 0.0139843 0.168853 0.083082 0.0320943 
0.138609 0.0655 0.20392 0.138533 0.0827876 0.203932 0.153559 0.0486196 0.185983 
0.168897 0.0492104 0.167891 0.15404 0.0486409 0.203353 0.169298 0.0492967 0.202359 
0.153474 0.0657837 0.186014 0.168859 0.0830779 0.167939 0.138526 0.117277 -0.0038835 
0.138596 0.134552 -0.00383076 0.154172 0.0829288 -0.00331948 0.169404 0.0661677 -0.00246799 
0.154215 0.100046 -0.00323738 0.169429 0.100001 -0.00257295 0.153368 0.100009 0.013885 
0.168842 0.0999941 0.0320559 0.153158 0.100003 0.0312086 0.168689 0.100007 0.0660809 
0.154051 0.117089 -0.00337638 0.169315 0.133674 -0.00247684 0.153402 0.117094 0.0139248 
0.168865 0.133844 0.0320764 0.153141 0.117101 0.0312003 0.168718 0.133863 0.066106 
0.138515 0.117278 0.203864 0.138584 0.13454 0.203825 0.154106 0.0829547 0.203286 
0.169378 0.0661694 0.202485 0.15338 0.100012 0.186023 0.168848 0.099981 0.167962 
0.15417 0.100048 0.203184 0.16941 0.0999968 0.202573 0.153392 0.117098 0.18601 
0.168861 0.133838 0.167971 0.154002 0.117069 0.203321 0.169294 0.133667 0.202486 
0.138935 0.169127 -0.00366552 0.139186 0.186369 -0.0036084 0.138527 0.169102 0.0135298 
0.138513 0.186467 0.0308699 0.13818 0.169169 0.0308339 0.138155 0.186618 0.0654891 
0.154056 0.151356 -0.00336883 0.169372 0.150718 -0.00235501 0.153565 0.151396 0.0140048 
0.168905 0.150792 0.0320752 0.153311 0.151412 0.0312776 0.168762 0.150834 0.0661411 
0.138516 0.169095 0.186451 0.138495 0.18644 0.169083 0.138934 0.16912 0.203662 
0.139188 0.186369 0.203597 0.153571 0.151379 0.185981 0.168913 0.150793 0.167955 
0.154051 0.151348 0.203338 0.169379 0.150727 0.202369 0.139212 0.20357 0.0135758 
0.139019 0.203724 0.0308856 0.154772 0.185834 -0.00316342 0.169877 0.167644 -0.002395 
0.155308 0.203046 -0.00308715 0.170668 0.202008 -0.00263931 0.138595 0.203933 0.0654709 
0.138525 0.203938 0.0827618 0.153788 0.185888 0.0313731 0.169086 0.16783 0.0149736 
0.153591 0.18594 0.0486362 0.168912 0.167827 0.0491741 0.153458 0.186033 0.0657678 
0.168862 0.167927 0.0830871 0.154538 0.203078 0.0313254 0.169611 0.202329 0.0149875 
0.15426 0.203248 0.0486126 0.169373 0.202411 0.0491889 0.1542 0.203263 0.0657642 
0.169374 0.202537 0.0830232 0.138524 0.203938 0.117256 0.138572 0.203953 0.134509 
0.153446 0.186013 0.100008 0.168871 0.167989 0.100002 0.153931 0.203339 0.100015 
0.169286 0.202434 0.100004 0.139004 0.203695 0.169062 0.139218 0.203555 0.186392 
0.153492 0.185993 0.134247 0.168869 0.167873 0.11692 0.153611 0.185906 0.151377 
0.168925 0.167819 0.150837 0.153766 0.185848 0.168618 0.169089 0.167829 0.185046 
0.1542 0.203245 0.13424 0.169382 0.202532 0.116984 0.154218 0.203231 0.151391 
0.16936 0.202411 0.150823 0.15451 0.203045 0.168652 0.169606 0.202324 0.185005 
0.154761 0.185835 0.203152 0.169875 0.16766 0.20241 0.155295 0.203049 0.203062 
0.170658 0.202019 0.202624 0.185 0 0.0166667 0.185 0 0.0333333 
0.185 0.0166667 0 0.185 0.0333333 0 0.185 0 0.0666667 
0.185 0 0.0833333 0.185 0.0166667 0.0333333 0.185 0.0333333 0.0166667 
0.185 0.0166667 0.05 0.185 0.0333333 0.05 0.185 0.0166667 0.0666667 
0.185 0.0333333 0.0833333 0.185 0 0.116667 0.185 0 0.133333 
0.185 0.0166667 0.1 0.185 0.0333333 0.1 0.185 0 0.166667 
0.185 0 0.183333 0.185 0.0166667 0.133333 0.185 0.0333333 0.116667 
0.185 0.0166667 0.15 0.185 0.0333333 0.15 0.185 0.0166667 0.166667 
0.185 0.0333333 0.183333 0.185 0.0166667 0.2 0.185 0.0333333 0.2 
0.185 0.05 0.0166667 0.185 0.05 0.0333333 0.185 0.0666667 0 
0.185 0.0833333 0 0.185 0.0666667 0.0166667 0.185 0.0833333 0.0333333 
0.185 0.05 0.0666667 0.185 0.05 0.0833333 0.185 0.0666667 0.05 
0.185 0.0833333 0.05 0.185 0.05 0.116667 0.185 0.05 0.133333 
0.185 0.0666667 0.0833333 0.185 0.0833333 0.0666667 0.185 0.0666667 0.1 
0.185 0.0833333 0.1 0.185 0.0666667 0.116667 0.185 0.0833333 0.133333 
0.185 0.05 0.166667 0.185 0.05 0.183333 0.185 0.0666667 0.15 
0.185 0.0833333 0.15 0.185 0.0666667 0.183333 0.185 0.0833333 0.166667 
0.185 0.0666667 0.2 0.185 0.0833333 0.2 0.185 0.1 0.0166667 
0.185 0.1 0.0333333 0.185 0.116667 0 0.185 0.133333 0 
0.185 0.1 0.0666667 0.185 0.1 0.0833333 0.185 0.116667 0.0333333 
0.185 0.133333 0.0166667 0.185 0.116667 0.05 0.185 0.133333 0.05 
0.185 0.116667 0.0666667 0.185 0.133333 0.0833333 0.185 0.1 0.116667 
0.185 0.1 0.133333 0.185 0.116667 0.1 0.185 0.133333 0.1 
0.185 0.1 0.166667 0.185 0.1 0.183333 0.185 0.116667 0.133333 
0.185 0.133333 0.116667 0.185 0.116667 0.15 0.185 0.133333 0.15 
0.185 0.116667 0.166667 0.185 0.133333 0.183333 0.185 0.116667 0.2 
0.185 0.133333 0.2 0.185 0.15 0.0166667 0.185 0.15 0.0333333 
0.185 0.166667 0 0.185 0.183333 0 0.185 0.166667 0.0166667 
0.185 0.183333 0.0333333 0.185 0.15 0.0666667 0.185 0.15 0.0833333 
0.185 0.166667 0.05 0.185 0.183333 0.05 0.185 0.15 0.116667 
0.185 0.15 0.133333 0.185 0.166667 0.0833333 0.185 0.183333 0.0666667 
0.185 0.166667 0.1 0.185 0.183333 0.1 0.185 0.166667 0.116667 
0.185 0.183333 0.133333 0.185 0.15 0.166667 0.185 0.15 0.183333 
0.185 0.166667 0.15 0.185 0.183333 0.15 0.185 0.166667 0.183333 
0.185 0.183333 0.166667 0.185 0.166667 0.2 0.185 0.183333 0.2 
0.185 0.2 0.0166667 0.185 0.2 0.0333333 0.185 0.2 0.0666667 
0.185 0.2 0.0833333 0.185 0.2 0.116667 0.185 0.2 0.133333 
0.185 0.2 0.166667 0.185 0.2 0.183333 0.154725 0.203124 0.0140994 
0.170167 0.184879 -0.00245371 0.0770428 -0.0041169 0.169549 0.169476 0.20241 0.0321802 
0.185 0.183333 0.0166667 0.169283 0.184946 0.0149937 0 0.0333333 0.0333333 
0.185 0.0666667 0.166667 0 0.0666667 0.0666667 0.0618586 0.204196 0.0826245 
0.185 0.116667 0.116667 0.153039 0.099984 0.151511 0.0613811 0.203846 0.0133251 
0.0769739 0.186779 -0.00402622 0.185 0.133333 0.166667 0.154017 0.0658263 0.20335 
0.16901 0.0661875 0.185112 0.0303024 -0.00310804 0.0141076 0.0148383 0.0151129 -0.0024562 
0.0771722 0.0825992 -0.00440104 0.123432 0.0306107 -0.0039548 0.0769732 0.0131875 -0.00403484 
0.0613542 -0.00384662 0.0133267 0.0309796 0.20331 0.117171 0.0160245 0.0321507 0.0321235 
0.0615719 0.0305944 -0.00399719 0.0616204 0.0133232 0.0133044 0 0.133333 0.0333333 
0.169044 0.0830694 0.185142 0.185 0.0833333 0.183333 0.169396 0.0830914 0.202567 
0.0306733 0.168596 -0.00328517 0 0.0166667 0.0166667 0.0157242 0.0150454 0.0149857 
0.0155456 -0.0024075 0.0321808 0.0158608 0.0150153 0.0321557 0.0770691 0.204103 0.0304156 
0.0770648 0.1868 0.0131703 0.0319217 0.0656602 0.0485065 0.185 0.166667 0.166667 
0.0318157 0.0312956 0.0828736 0 0.116667 0.0166667 0.01561 0.116929 -0.00253374 
0 0.0333333 0.166667 0.123451 0.16939 -0.00396502 0.137708 0.151928 0.134558 
0.0771672 -0.00435013 0.134806 0.154371 0.168596 0.203296 0.123653 0.203854 0.186652 
0.108046 0.186794 0.204007 0.0771696 0.186907 0.0304427 0.0309843 0.0658194 -0.00332139 
0.0159256 0.0492138 0.0148735 0.0306668 0.168597 0.203292 0 0.166667 0.0333333 
0.0155483 -0.00239528 0.16782 0 0.0166667 0.183333 0.0158656 0.0150283 0.16785 
0.185 0.0833333 0.0833333 0.0309182 0.185824 0.0140411 0.0302992 0.203118 0.0141073 
0.0148507 0.184852 -0.00243911 0.0157304 0.184932 0.0149948 0.0155416 0.202409 0.0321784 
0.0158618 0.184984 0.0321555 0 0.183333 0.0166667 0 0.133333 0.166667 
0.0159838 0.1508 0.0149342 0.0160272 0.167855 0.0321281 0.0312571 0.168605 0.0140338 
0 0.166667 0.166667 0 0.0666667 0.0333333 0.015973 0.0661663 0.0148826 
0 0.0833333 0.0166667 0.0159907 0.0831074 0.0149143 0.0159634 0.100006 0.0149087 
0.0156325 0.0831366 -0.00253416 0 0.116667 0.183333 0.0156138 0.116922 0.202518 
0.0770458 -0.00412075 0.0304153 0.0771564 0.0130692 0.0304301 0.0770578 0.0131741 0.0131598 
0.0148497 0.184848 0.202437 0.0309206 0.185812 0.185957 0.0302964 0.20311 0.185883 
0.123192 0.134752 0.204157 0 0.166667 0.0666667 0.0159154 0.185063 0.0492172 
0 0.183333 0.0833333 0.0159575 0.185086 0.0662007 0.0156268 0.202524 0.0661179 
0.168842 0.116903 0.167967 0 0.0166667 0.0833333 0.0156289 -0.00252398 0.0661147 
0.0623883 0.169585 0.117354 0.0309917 0.134188 0.203307 0.0160018 0.133823 0.185094 
0.0159783 0.116923 0.185096 0.0309833 -0.00330152 0.0828426 0.0159867 0.014882 0.0831008 
0.0309781 0.0658269 0.203331 0 0.183333 0.116667 0.0159879 0.185109 0.116921 
0.0156263 0.202509 0.133901 0 0.166667 0.133333 0.0159606 0.185063 0.13382 
0.0161478 0.167935 0.133871 0.0159216 0.185033 0.150799 0.0469587 0.0134577 0.0827611 
0.0618483 -0.00419819 0.0826289 0.0315757 0.0140306 0.0829108 0.0309909 0.134204 -0.00331309 
0.0160009 0.13384 0.0149027 0.0159739 0.116938 0.0148802 0.0312586 0.168592 0.185973 
0.0159821 0.150784 0.185072 0.0315757 0.168628 0.168659 0.0160351 0.167829 0.167891 
0 0.183333 0.183333 0.0157325 0.18492 0.185004 0.0155432 0.202394 0.167821 
0.0158646 0.184964 0.167848 0.0160349 0.0321633 0.167906 0.0159277 0.0492171 0.185136 
0.0157288 0.0150504 0.185015 0.0148392 0.0151089 0.202455 0.0303093 -0.00310408 0.185889 
0.169108 0.185005 0.150791 0.185 0.166667 0.133333 0.0319297 0.151487 0.117127 
0 0.116667 0.116667 0.0319614 0.134281 0.134282 0.15379 0.168584 0.185986 
0.168985 0.167795 0.167893 0.0306338 0.031412 -0.00330033 0.0312153 0.0314092 0.0140046 
0.0462394 0.0136595 0.0135908 0.0309091 0.0141856 0.0140213 0.123642 -0.0038323 0.186643 
0.108041 0.0131959 0.203993 0.137778 0.0999983 0.0307366 0.0159684 0.0661696 0.185124 
0.0161644 0.0830815 0.167951 0 0.0666667 0.166667 0.16942 0.0830901 -0.00256184 
0.185 0.0833333 0.0166667 0.0469693 0.0827306 0.0134377 0.0318829 0.0828562 0.0312573 
0.0161706 0.0830771 0.0320422 0.0468078 0.186512 0.0481828 0.0771367 0.204334 0.0651421 
0.0618003 0.0652732 0.204185 0.0315342 0.0657653 0.186 0 0.0333333 0.0666667 
0.0161374 0.0320481 0.0661637 0.015916 0.0149363 0.0492154 0.0159569 0.0149099 0.066199 
0.185 0.0333333 0.133333 0.185 0.183333 0.0833333 0.169401 0.202514 0.0660975 
0.0309832 -0.00329897 0.11718 0.0160035 0.014817 0.100014 0.0613636 -0.00385371 0.186646 
0.0770612 0.0131748 0.186811 0.0769798 0.0131694 0.204015 0.0159262 0.0149704 0.150804 
0 0.0333333 0.133333 0.061629 0.0133131 0.186681 0.0615744 0.0305733 0.204006 
0.0468799 0.0654614 0.186564 0.0469654 0.0827351 0.186571 0.0771723 0.0825806 0.204416 
0.0467554 0.0481943 0.186557 0.0618474 0.0305974 0.186799 0.0315557 0.0313918 0.168696 
0.153227 0.168734 0.0657293 0.169466 0.202396 0.167819 0.185 0.183333 0.183333 
0.169148 0.184957 0.167844 0.123162 0.0306201 0.013242 0.123279 0.0652575 -0.00414558 
0 0.0833333 0.183333 0.0156311 0.0831511 0.202538 0.0159681 0.100005 0.185065 
0.0159886 0.0831143 0.185089 0.0769789 0.186822 0.204019 0.0613726 0.203868 0.186644 
0 0.0166667 0.116667 0.0159902 0.0148956 0.116931 0.0156321 -0.00249894 0.133908 
0.0159649 0.0149453 0.133828 0.108048 0.0131929 -0.00400052 0.123647 -0.00383675 0.0133551 
0.123393 0.0133305 0.0133343 0.137886 0.169278 0.0654439 0.137682 0.15196 0.0654233 
0.138018 0.186586 0.100001 0.10788 -0.0042654 0.0651688 0.0469705 0.0134537 0.117257 
0.046971 0.0134387 0.100013 0.0315796 0.0140305 0.117114 0.0618688 -0.00420431 0.117371 
0.0621286 0.0652873 0.186934 0.0621124 0.030551 0.169491 0.0771548 0.0130751 0.169529 
0.0468844 0.030876 0.169194 0.0624442 0.0652168 0.152157 0.0622562 0.0478922 0.169533 
0.0623267 0.0652413 0.16955 0.0318406 0.0828471 0.168718 0.0319779 0.0657007 0.134303 
0 0.0833333 0.116667 0.0623969 0.0304247 0.117353 0.031932 0.0485127 0.117135 
0.0622512 0.0130578 0.117369 0.0318557 0.0485332 0.151511 0.0319086 0.0485105 0.134301 
0 0.0666667 0.133333 0.0318396 0.03128 0.134304 0.0468432 0.0135298 0.151825 
0.0469158 0.0134537 0.134538 0.0161498 0.0320732 0.133886 0.138097 0.134534 0.186552 
0.107839 0.117417 0.204398 0.138014 0.117262 0.186574 0.122867 0.134723 0.186894 
0.185 0.116667 0.183333 0.169049 0.0999965 0.185105 0.169021 0.11689 0.185108 
0.169364 0.116863 0.202559 0.154361 0.0313883 0.203302 0.154117 0.0141734 0.185963 
0.170162 0.0151531 0.202442 0.154726 -0.00312414 0.185895 0.123402 0.186691 0.186672 
0.138773 0.186352 0.186383 0.123447 0.169417 0.203975 0.169028 0.133823 0.185132 
0.154007 0.134179 0.20333 0.153448 0.134218 0.186 0.169055 0.150769 0.185141 
0.153787 0.0313978 0.185971 0.169027 0.0492365 0.185059 0.169285 0.0150752 0.185003 
0.185 0.0166667 0.183333 0.169471 -0.00241146 0.167823 0.169155 0.0150296 0.167834 
0.185 0.0333333 0.166667 0.168978 0.0321892 0.167867 0.169093 0.0149744 0.150781 
0.0770616 0.204112 0.169552 0.0770633 0.18683 0.186818 0.0468028 0.15182 0.186526 
0.0161373 0.133845 0.16793 0.0317992 0.134271 0.168704 0.0622578 0.152118 0.169516 
0.0623619 0.152152 0.152133 0.0624305 0.134766 0.152178 0.0617995 0.134734 0.204181 
0.0469155 0.134534 0.186552 0.0315872 0.117097 0.185958 0.0772005 0.117432 0.204423 
0.0469696 0.117248 0.186559 0.0470205 0.0999999 0.186575 0.0623901 0.117375 0.169605 
0.0319641 0.117128 0.151502 0.0622504 0.117373 0.186962 0.0319799 0.0999866 0.151508 
0.0319023 0.151484 0.134292 0 0.133333 0.133333 0.031833 0.168728 0.134286 
0.0318554 0.151459 0.151489 0.107959 0.186803 0.186813 0.0925115 0.186821 0.186834 
0.107955 0.204074 0.169549 0.0615578 0.169433 0.204 0.0462513 0.186364 0.186387 
0.061846 0.169416 0.18679 0.0616325 0.186705 0.186677 0.0462528 0.186357 0.0136076 
0.0615623 0.169386 -0.00398381 0.0616349 0.186672 0.0133151 0.107834 0.0825746 0.204364 
0.107784 0.0478375 0.186961 0.09248 0.0477929 0.187004 0.123432 0.0306108 0.203955 
0.138782 0.0136321 0.186408 0.12339 0.0133366 0.186664 0.12294 0.0305506 0.16945 
0.107855 -0.00426471 0.13482 0.107708 0.0652057 0.187045 0.10765 0.0303493 0.152221 
0.092518 0.030311 0.152286 0.0771631 0.186927 0.169535 0.0621197 0.169457 0.169476 
0.0468441 0.186491 0.151812 0.0469006 0.169147 0.169163 0.0315786 0.185982 0.117106 
0.0469741 0.186567 0.100007 0.0618688 0.204204 0.11737 0.153448 0.186053 0.0829128 
0.154042 0.203356 0.082849 0.169031 0.185122 0.0830834 0.0625183 0.134786 0.134789 
0.122792 0.169526 0.152078 0.107593 0.169711 0.134825 0.123151 0.204186 0.117378 
0.138244 0.151812 0.186517 0.153473 0.168598 0.168658 0.123195 0.169404 0.18676 
0.138162 0.169144 0.169139 0.107866 0.186874 0.16955 0.107773 0.152168 0.186989 
0.0925219 0.152205 0.186989 0.0771378 -0.00434871 0.0651567 0.0467925 0.013515 0.0481789 
0.0469058 0.0134702 0.0654636 0.154724 -0.00311614 0.0141083 0.170164 0.0151468 -0.00243951 
0.0309865 0.203307 0.0828415 0.0160045 0.185182 0.100006 0.0315833 0.185976 0.082908 
0.0159895 0.185114 0.083097 0.122546 0.0652401 0.152179 0.137978 0.100007 0.186597 
0.10759 0.0651715 0.169719 0.153211 0.0312154 0.134246 0.123147 -0.00419233 0.117376 
0.137883 0.0307553 0.13455 0.137701 0.065423 0.151934 0.122793 0.0305001 0.152101 
0.153221 0.0657454 0.168729 0.153441 0.0829095 0.186017 0.153302 0.0485658 0.168694 
0.168872 0.0661726 0.167915 0.153464 0.0313596 0.16865 0.0469657 0.186549 0.0827544 
0.0469168 0.186541 0.0654633 0.0161437 0.167953 0.0661644 0.154056 0.203336 0.117169 
0.169014 0.185196 0.100001 0.153485 0.186019 0.117103 0.0925177 0.169703 0.152257 
0.107813 0.204255 0.134836 0.107662 0.169668 0.15222 0.107762 0.169596 0.16959 
0.169399 0.202509 0.133913 0.169057 0.185018 0.13381 0.185 0.183333 0.116667 
0.169044 0.185098 0.116922 0.152977 0.117135 0.134301 0.122457 0.13477 0.134781 
0.12255 0.152172 0.134753 0.169045 0.0830861 0.0148886 0.15406 0.065819 -0.00336608 
0.122546 0.152193 0.065233 0.152941 0.117158 0.0656867 0.153061 0.151527 0.0999927 
0.13878 0.186365 0.0135905 0.154376 0.168601 -0.00330071 0.153799 0.168605 0.0140152 
0.154109 0.18583 0.0140258 0.0306363 0.0314039 0.203315 0.0462518 0.0136561 0.186406 
0.031225 0.0314122 0.186013 0.0309198 0.01419 0.185982 0.0624014 0.117345 0.0304366 
0.169153 0.184968 0.0321665 0.185 0.166667 0.0333333 0.168978 0.167807 0.0321214 
0.15411 0.0141809 0.0140358 0.13878 0.0136259 0.0135908 0.154362 0.0313901 -0.00330941 
0.123134 0.204207 0.0826292 0.153038 0.117123 0.151511 0.153113 0.117107 0.168762 
0.185 0.133333 0.133333 0.0625344 0.134771 0.0652174 0.122455 0.134786 0.0652137 
0.092496 0.135005 0.1 0.153457 0.134224 0.0139607 0.154034 0.134199 -0.00335698 
0.169045 0.150765 0.01489 0.16903 0.133822 0.0148936 0.185 0.133333 0.0333333 
0.138263 0.186565 0.0481801 0.122972 0.169463 0.0305456 0.123192 0.169392 0.0132422 
0.123043 0.186867 0.0479297 0.122451 0.0652218 0.134781 0.0924947 0.0999986 0.134992 
0.0625315 0.0652114 0.134773 0.154097 0.185807 0.185962 0.154711 0.203103 0.185874 
0.16928 0.184943 0.185011 0.170162 0.18489 0.202453 0.169047 0.185029 0.0661964 
0.169101 0.185 0.0492181 0.185 0.166667 0.0666667 0.107775 0.186969 0.0478099 
0.107829 0.20428 0.0651501 0.1234 0.186682 0.0133243 0.108057 0.186777 -0.00401193 
0.123639 0.203848 0.0133429 0.0319302 0.0484962 0.0999986 0.0624448 0.0478364 0.0652212 
0.168873 0.167859 0.0661492 0.168816 0.150809 0.049141 0.153472 0.168638 0.0313386 
0.153307 0.168681 0.0485554 0.152948 0.0656822 0.117154 0.137809 0.0307376 0.117264 
0.168874 0.0320904 0.133845 0.185 0.0666667 0.133333 0.168824 0.0491858 0.150846 
0.168788 0.0491287 0.133864 0.107869 0.186879 0.0304687 0.0925172 0.186811 0.0131653 
0.107963 0.186792 0.0131912 0.10796 0.204081 0.0304375 0.168882 0.167836 0.133862 
0.13794 0.151857 0.169183 0.153062 0.134271 0.151508 0.137801 0.151914 0.151851 
0.0468853 0.169154 0.0308465 0.0315672 0.168662 0.0313495 0.061851 0.169371 0.0132223 
0.0621176 0.169452 0.0305316 0.0924939 0.187008 0.0477887 0.0621563 0.186911 0.0652744 
0.0468888 0.0654581 0.0134485 0.0315404 0.0657559 0.0140104 0.0618142 0.0652838 -0.00417216 
0.0617961 0.134703 -0.00417072 0.0315835 0.117108 0.0140065 0.062448 0.152145 0.0652113 
0.0319584 0.151509 0.0999966 0.0622654 0.169502 0.0478765 0.0623369 0.169531 0.0652316 
0.0318379 0.168714 0.082867 0.0319726 0.134296 0.0656928 0.0319282 0.117123 0.0484928 
0 0.116667 0.0833333 0.0318503 0.151497 0.0485296 0.0319043 0.134285 0.0484962 
0 0.133333 0.0666667 0.0469102 0.134522 0.0134458 0.0468142 0.15181 0.0135137 
0.0318278 0.134291 0.031269 0.0161396 0.13388 0.0320615 0 0.0833333 0.0833333 
0.032014 0.0828513 0.065686 0.0319419 0.0999991 0.0484728 0.031957 0.0828414 0.0484878 
0.123229 0.134743 -0.00415968 0.137988 0.151844 0.0307992 0.153194 0.134233 0.0312209 
0.168775 0.133863 0.0491318 0.168848 0.11692 0.0320747 0.185 0.133333 0.0666667 
0.168756 0.0491331 0.0830744 0.107955 -0.0040692 0.169534 0.0925008 0.0131712 0.186822 
0.107834 0.0131309 0.169527 0.107947 0.0132035 0.186789 0.047006 0.100002 0.0134027 
0.0771817 0.117422 -0.00439792 0.0622435 0.117353 0.0130715 0.0469664 0.117239 0.0134273 
0.107858 0.117426 -0.00441118 0.137793 0.117262 0.0307343 0.122695 0.134735 0.0304452 
0.137857 0.134539 0.0307523 0.062542 0.0652234 0.0652079 0.0925122 0.0999963 0.0650104 
0.122481 0.0652081 0.0652126 0.0924868 0.0650011 0.0999817 0.137629 0.0654206 0.0654038 
0.137793 0.0307363 0.100004 0.0467604 0.0481961 0.0134599 0.0468521 0.0308715 0.0308232 
0.061843 0.0306097 0.0132073 0.0315343 0.0313768 0.0313288 0.0925026 0.013161 0.0131547 
0.107971 -0.00407488 0.0304578 0.107951 0.0131953 0.0132021 0.168766 0.116932 0.0491172 
0.168715 0.116929 0.0660998 0.185 0.116667 0.0833333 0.185 0.0666667 0.0333333 
0.169012 0.0661886 0.0149107 0.107598 0.169726 0.0651546 0.0925406 0.152277 0.0302961 
0.107674 0.152224 0.0303255 0.107714 0.187051 0.0651889 0.185 0.0333333 0.0333333 
0.123036 0.0479503 0.0131583 0.12294 0.0305445 0.0305445 0.107836 0.0131187 0.0304638 
0.0771672 0.204346 0.134815 0.0469091 0.18656 0.134532 0.0622384 0.186945 0.117374 
0.0469638 0.186556 0.117255 0.0621537 0.0130827 0.065275 0.062393 0.0478528 0.0478347 
0.138277 0.048196 0.0134189 0.153462 0.08292 0.0139617 0.185 0.0166667 0.0833333 
0.169393 -0.00250299 0.0660967 0.123164 0.0306244 0.186757 0.13827 0.0481891 0.186563 
0.123257 0.0652615 0.204144 0.123024 0.0479524 0.18684 0.185 0.0333333 0.0666667 
0.169087 0.0150028 0.0492219 0.169037 0.0149689 0.0661957 0.153175 0.0312424 0.0828861 
0.152984 0.0657179 0.0656867 0.168715 0.0661123 0.0661394 0.153054 0.0657132 0.0484923 
0.15321 0.0657306 0.0312722 0.168761 0.100006 0.0490998 0.16939 -0.00252573 0.133897 
0.185 0.0166667 0.116667 0.169042 0.0149333 0.133803 0.0622689 0.047891 0.0304593 
0.0620993 0.0305408 0.0305056 0.0621428 0.0653045 0.013079 0.122775 0.0304642 0.0479139 
0.122683 0.0304369 0.0652762 0.137954 0.0307699 0.0481431 0.1232 -0.00418629 0.0826242 
0.107641 0.0303298 0.0477685 0.0924802 0.0302879 0.0477248 0.107621 0.0651605 0.0302623 
0.107722 0.0651975 0.0129506 0.0924878 0.0477865 0.0130238 0.107782 0.0478257 0.0130385 
0.107847 0.0825751 -0.0043661 0.168773 0.0491053 0.116926 0.168777 0.0490993 0.100002 
0.185 0.0833333 0.116667 0.168716 0.0660925 0.116926 0.154036 -0.00335456 0.0828259 
0.169018 0.0149049 0.0830838 0.153411 0.0139474 0.0828863 0.169022 0.0148697 0.116905 
0.168989 0.0148214 0.0999915 0.153417 0.0139253 0.117097 0.15402 -0.00336661 0.11717 
0.168868 0.066169 0.0321031 0.153286 0.0485769 0.0312946 0.185 0.116667 0.0166667 
0.169051 0.100004 0.0149091 0.169382 0.116871 -0.00255297 0.169021 0.116889 0.0149193 
0.168779 0.0491614 0.0661493 0.168811 0.0491676 0.0491594 0.168859 0.0321254 0.0661603 
0.185 0.0666667 0.0666667 0.15378 0.0314061 0.0140186 0.15345 0.0313786 0.0313337 
0.169032 0.0492312 0.0149455 0.168969 0.032194 0.0321336 0.185 0.0166667 0.0166667 
0.16947 -0.00239643 0.0321802 0.16928 0.0150805 0.0149993 0.169151 0.0150486 0.0321651 

CELLS 236 4956
20 69 93 88 68 814 815 925 924 808 809 801 800 805 804 803 802 956 957 1317 961 
20 28 47 45 44 422 423 549 548 420 421 418 419 541 540 539 538 1160 1418 958 1119 
20 93 69 88 94 815 814 808 809 925 924 948 949 816 817 926 927 959 1323 960 961 
20 43 49 86 85 522 523 600 601 536 537 534 535 598 599 909 908 1345 967 1366 1279 
20 5 1 26 6 109 108 114 115 150 151 142 143 110 111 161 160 962 1111 980 991 
20 82 86 81 63 892 893 891 890 889 888 749 748 751 750 747 746 972 1290 1198 963 
20 7 11 48 6 176 177 240 241 192 193 157 156 159 158 173 172 964 1103 994 1409 
20 37 17 54 38 327 326 334 335 480 481 472 473 328 329 485 484 1277 1254 965 1292 
20 55 13 12 51 285 284 245 244 263 262 625 624 282 283 258 259 1211 1221 1212 1087 
20 90 86 49 85 915 914 601 600 603 602 911 910 909 908 598 599 966 967 1306 1330 
20 37 52 50 36 476 477 607 606 474 475 467 466 471 470 469 468 968 969 1237 993 
20 91 92 65 86 940 941 779 778 777 776 917 916 919 918 772 773 970 1184 1047 1193 
20 82 65 86 63 771 770 772 773 892 893 749 748 745 744 751 750 971 1288 972 984 
20 25 5 0 26 149 148 101 100 103 102 388 389 150 151 104 105 1093 989 973 974 
20 46 32 6 48 441 440 165 164 171 170 554 555 442 443 172 173 975 1102 1483 1386 
20 57 46 58 62 557 556 558 559 668 669 670 671 560 561 678 679 976 1135 1327 1149 
20 26 41 25 46 400 401 393 392 389 388 406 407 502 503 394 395 1037 977 982 978 
20 22 38 39 17 376 377 482 483 378 379 323 322 329 328 331 330 1276 1253 1058 979 
20 55 49 12 54 591 590 255 254 263 262 649 648 588 589 260 261 1298 1259 1050 1213 
20 26 5 6 30 151 150 142 143 161 160 398 399 152 153 162 163 1091 1008 1438 980 
20 25 30 26 46 390 391 399 398 388 389 394 395 432 433 406 407 981 1437 982 1092 
20 11 15 16 34 230 231 290 291 232 233 238 239 298 299 308 309 1068 1023 1405 983 
20 82 65 87 86 771 770 774 775 894 895 892 893 772 773 913 912 984 1183 985 986 
20 15 34 36 37 298 299 454 455 300 301 302 303 456 457 466 467 1025 1235 1015 987 
20 43 85 64 48 534 535 761 760 530 531 520 521 583 582 579 578 1431 1096 1490 1433 
20 1 5 26 0 108 109 150 151 114 115 99 98 101 100 105 104 988 989 990 991 
20 52 37 50 53 477 476 474 475 607 606 638 639 478 479 608 609 992 1006 1373 993 
20 60 80 59 86 722 723 705 704 699 698 728 729 886 887 708 709 1371 1495 1282 1504 
20 48 7 6 43 193 192 157 156 173 172 521 520 188 189 168 169 1361 996 1460 994 
20 92 71 96 91 833 832 836 837 944 945 941 940 830 831 943 942 1089 1083 995 1134 
20 26 7 43 6 183 182 188 189 404 405 161 160 157 156 169 168 1110 996 1272 1064 
20 6 26 46 42 160 161 406 407 170 171 166 167 402 403 511 510 1271 1036 1482 1436 
20 32 15 10 11 297 296 225 224 227 226 237 236 231 230 222 223 1069 997 1031 998 
20 90 71 70 49 829 828 821 820 823 822 603 602 597 596 595 594 1379 1260 1001 1297 
20 28 9 8 3 215 214 195 194 199 198 135 134 133 132 131 130 1013 999 1121 1078 
20 68 69 50 66 800 801 619 618 617 616 781 780 783 782 614 615 1314 1343 1000 1357 
20 49 90 54 70 602 603 659 658 588 589 594 595 823 822 652 653 1001 1152 1261 1308 
20 28 43 7 44 416 417 189 188 187 186 418 419 518 519 190 191 1002 1170 1176 1154 
20 92 72 71 67 841 840 827 826 833 832 799 798 795 794 793 792 1003 1191 1088 1348 
20 71 56 51 72 665 664 627 626 633 632 826 827 666 667 634 635 1004 1005 1190 1228 
20 50 37 16 53 475 474 311 310 313 312 608 609 478 479 314 315 1006 1105 1383 1380 
20 5 6 30 32 142 143 162 163 152 153 154 155 164 165 430 431 1028 1387 1007 1008 
20 39 19 35 40 359 358 356 357 461 460 486 487 360 361 462 463 1039 1009 1232 1070 
20 12 11 50 48 229 228 242 243 256 257 252 253 240 241 575 574 1408 1423 1322 1397 
20 21 15 37 16 295 294 302 303 370 371 307 306 290 291 311 310 1010 1024 1043 1020 
20 28 4 9 3 139 138 136 137 215 214 135 134 127 126 133 132 1011 1012 1013 1080 
20 80 84 58 85 882 883 695 694 693 692 884 885 900 901 696 697 1014 1474 1416 1512 
20 15 36 20 37 300 301 365 364 292 293 302 303 466 467 366 367 1015 1016 1018 1017 
20 15 20 21 37 292 293 362 363 294 295 302 303 366 367 370 371 1018 1019 1020 1021 
20 19 18 35 13 339 338 342 343 356 357 273 272 271 270 277 276 1022 1209 1052 1071 
20 39 51 35 18 488 489 465 464 461 460 345 344 347 346 343 342 1252 1208 1072 1233 
20 15 34 37 16 298 299 456 457 302 303 290 291 309 308 311 310 1023 1381 1024 1025 
20 19 23 39 18 350 351 382 383 358 359 339 338 341 340 345 344 1026 1063 1073 1077 
20 5 6 32 11 142 143 164 165 154 155 146 147 158 159 237 236 1027 1104 1030 1028 
20 10 5 32 11 145 144 154 155 226 227 222 223 146 147 237 236 1029 1030 1031 1032 
20 19 33 14 13 354 355 289 288 287 286 273 272 275 274 267 266 1053 1139 1033 1034 
20 26 41 46 42 400 401 502 503 406 407 402 403 500 501 511 510 1035 1439 1036 1037 
20 24 19 39 40 353 352 358 359 384 385 386 387 360 361 486 487 1038 1039 1040 1075 
20 51 91 67 65 636 637 797 796 630 631 628 629 777 776 769 768 1178 1195 1041 1263 
20 17 21 37 16 320 321 370 371 326 327 305 304 307 306 311 310 1042 1043 1294 1045 
20 37 22 21 17 375 374 369 368 371 370 327 326 323 322 321 320 1278 1044 1045 1046 
20 49 91 65 86 604 605 777 776 592 593 600 601 917 916 772 773 1331 1047 1280 1180 
20 7 1 26 2 113 112 114 115 182 183 119 118 106 107 121 120 1048 1049 1055 1112 
20 17 55 12 54 336 337 263 262 247 246 334 335 649 648 260 261 1457 1050 1392 1085 
20 19 33 13 35 354 355 275 274 273 272 356 357 446 447 276 277 1051 1216 1052 1053 
20 7 2 26 27 119 118 120 121 182 183 184 185 122 123 396 397 1117 1054 1066 1055 
20 33 9 8 31 221 220 195 194 203 202 435 434 218 219 200 201 1056 1079 1108 1097 
20 55 18 39 17 349 348 344 345 493 492 337 336 319 318 331 330 1226 1062 1456 1251 
20 23 22 39 17 373 372 378 379 382 383 325 324 323 322 331 330 1057 1058 1061 1059 
20 18 23 39 17 340 341 382 383 344 345 319 318 325 324 331 330 1060 1061 1062 1063 
20 26 7 27 43 183 182 184 185 396 397 404 405 188 189 410 411 1064 1155 1065 1066 
20 32 15 11 34 297 296 231 230 237 236 438 439 298 299 238 239 1067 1068 1390 1069 
20 39 19 18 35 359 358 339 338 345 344 461 460 356 357 342 343 1070 1071 1072 1073 
20 23 19 39 24 351 350 358 359 382 383 380 381 352 353 385 384 1074 1075 1076 1077 
20 28 9 31 8 215 214 218 219 414 415 199 198 195 194 201 200 1078 1079 1130 1320 
20 28 4 29 9 139 138 140 141 412 413 215 214 136 137 217 216 1080 1081 1321 1082 
20 51 91 49 71 636 637 605 604 587 586 632 633 831 830 596 597 1266 1377 1268 1181 
20 96 71 90 91 837 836 828 829 939 938 943 942 830 831 932 933 1083 1376 1084 1303 
20 13 55 12 17 284 285 263 262 245 244 268 269 337 336 246 247 1224 1085 1086 1087 
20 92 71 91 67 833 832 830 831 941 940 799 798 793 792 797 796 1088 1264 1196 1089 
20 25 5 26 30 149 148 150 151 388 389 390 391 152 153 398 399 1090 1091 1092 1093 
20 47 61 45 60 568 569 553 552 549 548 566 567 711 710 550 551 1243 1094 1420 1095 
20 33 49 8 13 450 451 209 208 203 202 275 274 281 280 196 197 1219 1165 1098 1126 
20 85 90 64 48 910 911 767 766 761 760 583 582 585 584 579 578 1312 1426 1096 1443 
20 13 9 8 33 211 210 195 194 197 196 274 275 220 221 202 203 1140 1097 1098 1099 
20 78 64 84 83 755 754 758 759 874 875 872 873 756 757 897 896 1100 1509 1101 1309 
20 6 32 11 48 164 165 237 236 158 159 172 173 442 443 240 241 1102 1421 1103 1104 
20 16 37 54 53 310 311 480 481 316 317 314 315 478 479 645 644 1105 1106 1385 1293 
20 47 33 8 31 449 448 203 202 207 206 437 436 435 434 200 201 1107 1108 1128 1125 
20 1 7 26 6 112 113 182 183 114 115 110 111 157 156 161 160 1109 1110 1111 1112 
20 76 80 60 81 862 863 723 722 719 718 864 865 880 881 724 725 1113 1368 1205 1480 
20 90 94 69 95 934 935 817 816 813 812 936 937 950 951 818 819 1114 1115 1258 1352 
20 90 50 70 66 623 622 620 621 823 822 791 790 614 615 785 784 1411 1342 1131 1150 
20 7 2 27 28 119 118 122 123 184 185 186 187 124 125 408 409 1144 1116 1156 1117 
20 29 28 47 45 413 412 422 423 428 429 426 427 420 421 549 548 1118 1119 1120 1123 
20 3 7 8 28 128 129 174 175 130 131 134 135 186 187 198 199 1146 1177 1121 1122 
20 29 28 31 47 413 412 414 415 424 425 428 429 422 423 436 437 1123 1129 1124 1319 
20 47 33 49 8 449 448 450 451 564 565 207 206 203 202 209 208 1125 1126 1158 1127 
20 28 8 31 47 199 198 200 201 414 415 422 423 206 207 436 437 1161 1128 1129 1130 
20 90 70 69 66 823 822 807 806 813 812 791 790 785 784 783 782 1131 1341 1365 1256 
20 71 97 92 96 838 839 947 946 832 833 836 837 955 954 944 945 1132 1133 1134 1350 
20 58 46 64 62 559 558 562 563 680 681 678 679 560 561 737 736 1135 1136 1461 1452 
20 13 9 33 14 211 210 220 221 274 275 266 267 212 213 289 288 1137 1138 1139 1140 
20 39 56 40 51 494 495 499 498 486 487 488 489 627 626 496 497 1207 1141 1234 1142 
20 3 7 28 2 128 129 186 187 134 135 117 116 119 118 125 124 1143 1144 1145 1146 
20 46 57 58 41 556 557 668 669 558 559 503 502 505 504 507 506 1147 1148 1441 1149 
20 90 50 48 70 623 622 575 574 585 584 823 822 620 621 580 581 1150 1449 1151 1427 
20 90 54 70 48 659 658 652 653 823 822 585 584 577 576 581 580 1311 1447 1151 1152 
20 58 43 64 42 525 524 530 531 680 681 515 514 509 508 517 516 1153 1488 1453 1484 
20 28 43 27 7 416 417 411 410 409 408 187 186 189 188 185 184 1154 1155 1156 1157 
20 8 49 47 44 208 209 565 564 206 207 204 205 543 542 541 540 1163 1240 1159 1158 
20 28 8 47 44 199 198 206 207 422 423 418 419 204 205 541 540 1175 1159 1160 1161 
20 43 49 12 44 522 523 255 254 249 248 518 519 543 542 250 251 1248 1162 1168 1347 
20 12 49 13 44 254 255 281 280 244 245 250 251 543 542 278 279 1162 1164 1166 1223 
20 49 8 13 44 209 208 196 197 281 280 543 542 204 205 278 279 1163 1171 1164 1165 
20 12 13 7 44 244 245 181 180 179 178 250 251 278 279 190 191 1166 1172 1169 1167 
20 43 12 7 44 249 248 179 178 189 188 518 519 250 251 190 191 1168 1169 1170 1360 
20 13 8 7 44 197 196 175 174 181 180 278 279 204 205 190 191 1171 1174 1172 1173 
20 7 8 28 44 174 175 198 199 186 187 190 191 204 205 418 419 1174 1175 1176 1177 
20 91 51 49 65 637 636 587 586 605 604 777 776 628 629 592 593 1178 1179 1180 1181 
20 92 87 65 86 921 920 775 774 779 778 919 918 913 912 772 773 1182 1183 1184 1185 
20 63 61 60 82 731 730 711 710 713 712 748 749 734 735 726 727 1186 1187 1197 1242 
20 60 61 77 82 710 711 732 733 720 721 726 727 734 735 868 869 1187 1188 1199 1189 
20 67 51 72 71 631 630 634 635 794 795 792 793 632 633 827 826 1265 1190 1191 1192 
20 91 92 67 65 940 941 799 798 797 796 777 776 779 778 769 768 1193 1194 1195 1196 
20 63 60 81 82 713 712 724 725 746 747 748 749 726 727 888 889 1197 1204 1198 1291 
20 76 60 77 82 719 718 720 721 860 861 866 867 726 727 868 869 1202 1199 1200 1201 
20 60 76 81 82 718 719 864 865 724 725 726 727 866 867 888 889 1202 1203 1204 1205 
20 39 56 51 55 494 495 627 626 488 489 492 493 661 660 624 625 1206 1229 1249 1207 
20 18 35 13 51 342 343 277 276 271 270 346 347 464 465 282 283 1208 1215 1210 1209 
20 55 13 51 18 285 284 282 283 625 624 349 348 270 271 347 346 1227 1210 1250 1211 
20 49 55 12 51 590 591 263 262 255 254 586 587 625 624 258 259 1269 1212 1220 1213 
20 35 33 13 51 447 446 275 274 277 276 464 465 452 453 282 283 1214 1218 1215 1216 
20 33 49 13 51 450 451 281 280 275 274 452 453 586 587 282 283 1217 1222 1218 1219 
20 49 12 13 51 255 254 244 245 281 280 586 587 258 259 282 283 1220 1221 1222 1223 
20 55 13 18 17 285 284 270 271 349 348 337 336 268 269 319 318 1224 1225 1226 1227 
20 71 56 55 51 665 664 661 660 663 662 633 632 627 626 625 624 1228 1229 1267 1230 
20 51 40 39 35 497 496 487 486 489 488 465 464 463 462 461 460 1231 1232 1233 1234 
20 37 36 50 34 467 466 468 469 474 475 457 456 455 454 459 458 1235 1236 1382 1237 
20 47 60 44 65 566 567 545 544 541 540 572 573 714 715 546 547 1468 1244 1239 1419 
20 49 47 44 65 565 564 541 540 543 542 592 593 572 573 546 547 1238 1239 1246 1240 
20 47 61 60 63 568 569 711 710 566 567 570 571 730 731 712 713 1241 1242 1465 1243 
20 43 44 60 65 518 519 544 545 528 529 532 533 546 547 714 715 1247 1244 1286 1245 
20 43 49 44 65 522 523 543 542 518 519 532 533 592 593 546 547 1281 1246 1247 1248 
20 39 51 18 55 488 489 347 346 345 344 492 493 624 625 348 349 1249 1250 1251 1252 
20 54 39 38 17 491 490 483 482 485 484 335 334 331 330 329 328 1458 1253 1254 1255 
20 90 70 95 69 823 822 824 825 936 937 813 812 807 806 819 818 1256 1257 1258 1296 
20 49 12 54 85 255 254 260 261 588 589 598 599 264 265 656 657 1346 1335 1307 1259 
20 71 49 54 70 597 596 588 589 655 654 821 820 594 595 652 653 1260 1261 1262 1300 
20 51 91 71 67 636 637 831 830 632 633 630 631 797 796 793 792 1263 1264 1265 1266 
20 49 55 51 71 590 591 625 624 586 587 596 597 662 663 632 633 1301 1267 1268 1269 
20 6 43 26 42 168 169 405 404 160 161 166 167 509 508 402 403 1459 1270 1271 1272 
20 73 58 78 57 683 682 688 689 846 847 673 672 669 668 675 674 1273 1326 1274 1522 
20 37 22 17 38 375 374 323 322 327 326 472 473 376 377 328 329 1275 1276 1277 1278 
20 43 49 65 86 522 523 592 593 532 533 536 537 600 601 772 773 1279 1280 1285 1281 
20 59 43 60 86 527 526 528 529 698 699 708 709 536 537 728 729 1367 1284 1282 1283 
20 60 43 65 86 529 528 532 533 714 715 728 729 536 537 772 773 1284 1285 1287 1286 
20 63 60 65 86 713 712 714 715 744 745 750 751 728 729 772 773 1289 1287 1288 1466 
20 60 63 81 86 712 713 746 747 724 725 728 729 750 751 890 891 1289 1290 1370 1291 
20 37 17 16 54 327 326 305 304 311 310 480 481 334 335 316 317 1292 1395 1293 1294 
20 71 95 90 70 834 835 937 936 828 829 821 820 825 824 823 822 1295 1296 1297 1305 
20 49 55 71 54 590 591 662 663 596 597 588 589 649 648 655 654 1298 1299 1300 1301 
20 95 71 90 96 835 834 828 829 937 936 952 953 836 837 938 939 1302 1303 1304 1305 
20 88 69 66 89 809 808 783 782 787 786 922 923 810 811 788 789 1325 1364 1338 1316 
20 90 49 54 85 603 602 588 589 659 658 911 910 598 599 656 657 1306 1307 1313 1308 
20 78 64 62 84 755 754 737 736 739 738 874 875 758 759 742 743 1309 1462 1446 1310 
20 90 66 89 64 791 790 788 789 929 928 767 766 753 752 765 764 1412 1336 1413 1363 
20 54 90 85 48 658 659 911 910 656 657 577 576 585 584 583 582 1311 1312 1334 1313 
20 69 68 88 66 801 800 802 803 808 809 783 782 781 780 787 786 1314 1315 1316 1317 
20 9 29 28 31 216 217 413 412 214 215 218 219 424 425 414 415 1318 1319 1320 1321 
20 54 12 50 48 261 260 256 257 611 610 577 576 252 253 575 574 1333 1322 1448 1391 
20 88 69 89 94 809 808 810 811 922 923 926 927 816 817 930 931 1323 1353 1324 1325 
20 78 58 62 57 689 688 678 679 739 738 675 674 669 668 671 670 1326 1327 1328 1516 
20 69 54 50 70 651 650 611 610 619 618 806 807 652 653 620 621 1329 1450 1344 1355 
20 90 86 91 49 915 914 916 917 932 933 603 602 601 600 605 604 1330 1331 1378 1332 
20 12 54 85 48 260 261 656 657 264 265 252 253 577 576 583 582 1333 1334 1430 1335 
20 89 66 88 64 789 788 786 787 923 922 765 764 753 752 763 762 1336 1337 1339 1338 
20 88 84 89 64 903 902 904 905 922 923 763 762 759 758 765 764 1511 1414 1339 1340 
20 69 70 50 66 806 807 621 620 619 618 783 782 785 784 614 615 1341 1342 1343 1344 
20 49 43 12 85 523 522 249 248 255 254 598 599 534 535 264 265 1345 1432 1346 1347 
20 92 72 97 71 841 840 842 843 946 947 833 832 827 826 839 838 1348 1349 1350 1351 
20 90 94 89 69 934 935 931 930 929 928 813 812 817 816 811 810 1352 1353 1362 1354 
20 69 54 53 50 651 650 645 644 647 646 619 618 611 610 609 608 1355 1384 1372 1356 
20 68 69 52 50 800 801 643 642 641 640 617 616 619 618 607 606 1357 1374 1358 1359 
20 48 7 43 12 193 192 188 189 521 520 253 252 178 179 249 248 1407 1360 1429 1361 
20 69 90 66 89 812 813 791 790 783 782 810 811 929 928 788 789 1362 1363 1364 1365 
20 59 43 86 85 527 526 536 537 708 709 706 707 534 535 909 908 1434 1366 1498 1367 
20 60 80 86 81 722 723 886 887 728 729 724 725 880 881 891 890 1368 1369 1370 1371 
20 69 53 52 50 647 646 639 638 643 642 619 618 609 608 607 606 1372 1373 1374 1375 
20 90 71 49 91 829 828 597 596 603 602 932 933 830 831 604 605 1376 1377 1378 1379 
20 50 37 34 16 475 474 457 456 459 458 313 312 311 310 309 308 1380 1381 1403 1382 
20 54 16 53 50 317 316 314 315 645 644 611 610 312 313 609 608 1393 1383 1384 1385 
20 46 32 30 6 441 440 431 430 433 432 171 170 165 164 163 162 1386 1387 1435 1388 
20 32 34 11 50 438 439 239 238 237 236 444 445 458 459 242 243 1389 1402 1424 1390 
20 12 17 54 50 246 247 334 335 260 261 256 257 332 333 611 610 1396 1394 1391 1392 
20 17 16 54 50 305 304 316 317 334 335 332 333 312 313 611 610 1399 1393 1394 1395 
20 11 17 12 50 234 235 247 246 228 229 242 243 332 333 256 257 1400 1396 1397 1398 
20 11 16 17 50 232 233 304 305 234 235 242 243 312 313 332 333 1404 1399 1400 1401 
20 11 34 16 50 238 239 309 308 232 233 242 243 458 459 312 313 1402 1403 1404 1405 
20 11 7 48 12 177 176 192 193 240 241 228 229 178 179 253 252 1406 1407 1408 1409 
20 64 50 90 66 613 612 622 623 766 767 752 753 614 615 791 790 1410 1411 1412 1428 
20 90 89 84 64 929 928 905 904 907 906 767 766 765 764 759 758 1413 1414 1442 1415 
20 85 59 58 80 707 706 677 676 697 696 885 884 704 705 692 693 1496 1501 1416 1472 
20 60 45 47 44 551 550 548 549 567 566 545 544 539 538 541 540 1417 1418 1419 1420 
20 11 32 50 48 236 237 444 445 242 243 240 241 442 443 575 574 1421 1422 1423 1424 
20 50 64 90 48 612 613 766 767 622 623 575 574 579 578 585 584 1425 1426 1427 1428 
20 43 12 85 48 249 248 264 265 534 535 520 521 252 253 583 582 1429 1430 1431 1432 
20 59 43 85 64 527 526 534 535 706 707 700 701 530 531 761 760 1485 1433 1473 1434 
20 30 6 26 46 163 162 160 161 399 398 432 433 170 171 406 407 1435 1436 1437 1438 
20 46 41 58 42 503 502 506 507 558 559 511 510 500 501 515 514 1439 1440 1454 1441 
20 90 84 85 64 907 906 900 901 911 910 767 766 759 758 761 760 1442 1477 1443 1444 
20 84 62 78 79 743 742 738 739 875 874 879 878 740 741 870 871 1506 1518 1445 1446 
20 70 54 50 48 653 652 611 610 621 620 581 580 577 576 575 574 1447 1448 1449 1450 
20 78 74 79 58 851 850 852 853 870 871 689 688 685 684 691 690 1523 1470 1519 1451 
20 58 46 42 64 559 558 511 510 515 514 680 681 562 563 516 517 1452 1493 1453 1454 
20 54 39 17 55 491 490 331 330 335 334 648 649 492 493 336 337 1455 1456 1457 1458 
20 43 6 48 42 169 168 172 173 520 521 509 508 166 167 513 512 1459 1481 1489 1460 
20 84 64 62 58 759 758 737 736 743 742 695 694 681 680 679 678 1476 1461 1507 1462 
20 58 80 75 74 692 693 859 858 686 687 684 685 855 854 849 848 1471 1463 1464 1500 
20 47 60 65 63 566 567 714 715 572 573 570 571 712 713 745 744 1465 1466 1467 1468 
20 58 80 74 79 692 693 855 854 684 685 690 691 877 876 852 853 1514 1469 1470 1471 
20 85 59 64 58 707 706 700 701 761 760 697 696 677 676 681 680 1472 1486 1475 1473 
20 84 85 64 58 900 901 761 760 759 758 695 694 697 696 681 680 1474 1475 1476 1477 
20 60 75 80 76 716 717 858 859 722 723 718 719 856 857 863 862 1478 1479 1480 1502 
20 48 6 46 42 173 172 170 171 555 554 513 512 166 167 511 510 1481 1482 1492 1483 
20 58 43 59 64 525 524 526 527 676 677 680 681 530 531 700 701 1484 1485 1486 1487 
20 64 43 48 42 531 530 520 521 579 578 517 516 509 508 513 512 1488 1489 1491 1490 
20 64 48 46 42 579 578 555 554 563 562 517 516 513 512 511 510 1491 1492 1493 1494 
20 86 59 85 80 709 708 706 707 909 908 887 886 704 705 885 884 1495 1496 1497 1498 
20 59 58 80 75 677 676 692 693 704 705 702 703 686 687 859 858 1499 1500 1503 1501 
20 60 75 59 80 716 717 703 702 699 698 722 723 858 859 704 705 1502 1503 1504 1505 
20 62 84 58 79 742 743 695 694 679 678 740 741 879 878 690 691 1506 1513 1517 1507 
20 88 84 64 83 903 902 759 758 763 762 899 898 897 896 756 757 1508 1509 1510 1511 
20 80 84 79 58 882 883 879 878 877 876 693 692 695 694 691 690 1512 1513 1514 1515 
20 78 58 79 62 689 688 690 691 870 871 739 738 678 679 741 740 1516 1517 1518 1519 
20 78 74 58 73 851 850 685 684 689 688 847 846 845 844 682 683 1520 1521 1522 1523 

CELL_TYPES 236
-1
-1
-1
-1
-1
-1
-1
-1
-1
-1
-1
-1
-1
-1
-1
-1
-1
-1
-1
-1
-1
-1
-1
-1
-1
-1
-1
-1
-1
-1
-1
-1
-1
-1
-1
-1
-1
-1
-1
-1
-1
-1
-1
-1
-1
-1
-1
-1
-1
-1
-1
-1
-1
-1
-1
-1
-1
-1
-1
-1
-1
-1
-1
-1
-1
-1
-1
-1
-1
-1
-1
-1
-1
-1
-1
-1
-1
-1
-1
-1
-1
-1
-1
-1
-1
-1
-1
-1
-1
-1
-1
-1
-1
-1
-1
-1
-1
-1
-1
-1
-1
-1
-1
-1
-1
-1
-1
-1
-1
-1
-1
-1
-1
-1
-1
-1
-1
-1
-1
-1
-1
-1
-1
-1
-1
-1
-1
-1
-1
-1
-1
-1
-1
-1
-1
-1
-1
-1
-1
-1
-1
-1
-1
-1
-1
-1
-1
-1
-1
-1
-1
-1
-1
-1
-1
-1
-1
-1
-1
-1
-1
-1
-1
-1
-1
-1
-1
-1
-1
-1
-1
-1
-1
-1
-1
-1
-1
-1
-1
-1
-1
-1
-1
-1
-1
-1
-1
-1
-1
-1
-1
-1
-1
-1
-1
-1
-1
-1
-1
-1
-1
-1
-1
-1
-1
-1
-1
-1
-1
-1
-1
-1
-1
-1
-1
-1
-1
-1
-1
-1
-1
-1
-1
-1
-1
-1
-1
-1
-1
-1
-1
-1
-1
-1
-1
-1

POINT_DATA 1524
VECTORS displacement float
0 0 0
0 0 0
0 0 0
0 0 0
0 0 0
0 0 0
0 0 0
0 0 0
0 0 0
0 0 0
0 0 0
0 0 0
0 0 0
0 0 0
0 0 0
0 0 0
0 0 0
0 0 0
0 0 0
0 0 0
0 0 0
0 0 0
0 0 0
0 0 0
0 0 0
-0.00446302 -0.0034857 -0.00366549
-0.00368204 -0.00377547 -0.00182385
-0.00350338 -0.00381018 7.87267e-06
-0.00367916 -0.00378373 0.00182396
-0.00445017 -0.00349962 0.00365202
-0.00369578 -0.00181144 -0.00379706
-0.00370365 -0.00181531 0.00381308
-0.00348957 1.1007e-05 -0.00392679
-0.00347474 1.79496e-05 0.00390302
-0.00369439 0.00180241 -0.00377096
-0.00370625 0.00181419 0.00379514
-0.00444601 0.0034719 -0.00365914
-0.00369007 0.00379258 -0.00183481
-0.00349998 0.00381731 2.52854e-06
-0.00368463 0.00379609 0.00182174
-0.00445048 0.00350112 0.00363928
-0.00747678 -0.00401903 -0.00403058
-0.00748554 -0.00419522 -0.00224643
-0.0075119 -0.00454058 -3.22618e-06
-0.00755243 -0.00423593 0.00221216
-0.00747842 -0.00403243 0.00399828
-0.00745369 -0.00225305 -0.00413973
-0.00745598 -0.00225474 0.00415357
-0.00751879 1.74954e-05 -0.00459617
-0.00747323 -1.94991e-05 0.00456092
-0.00759474 0.00222651 -0.00418508
-0.0076088 0.00218963 0.00414077
-0.00748806 0.00398769 -0.00403026
-0.00749944 0.00416894 -0.00226375
-0.00746628 0.00456035 -7.18334e-07
-0.00752428 0.00423326 0.00223559
-0.00747746 0.00400441 0.00403401
-0.0105504 -0.00348717 -0.00365358
-0.0112614 -0.00387218 -0.00180755
-0.0115156 -0.00395417 -5.51375e-08
-0.011321 -0.00383298 0.00183396
-0.0105562 -0.00348643 0.00364955
-0.0112078 -0.00180795 -0.00386954
-0.0112153 -0.00180374 0.00384654
-0.0115751 2.40611e-05 -0.00397665
-0.01158 4.00063e-05 0.00394767
-0.0112919 0.00181877 -0.00379218
-0.011301 0.00182215 0.00377719
-0.0105339 0.00348983 -0.00365495
-0.0112309 0.0038587 -0.00184532
-0.011532 0.00388961 2.14795e-05
-0.0113022 0.00391357 0.00178401
-0.0105308 0.00350644 0.00363742
-0.015 0 0
-0.015 0 0
-0.015 0 0
-0.015 0 0
-0.015 0 0
-0.015 0 0
-0.015 0 0
-0.015 0 0
-0.015 0 0
-0.015 0 0
-0.015 0 0
-0.015 0 0
-0.015 0 0
-0.015 0 0
-0.015 0 0
-0.015 0 0
-0.015 0 0
-0.015 0 0
-0.015 0 0
-0.015 0 0
-0.015 0 0
-0.015 0 0
-0.015 0 0
-0.015 0 0
-0.015 0 0
0 0 0
0 0 0
0 0 0
0 0 0
-0.00232442 -0.00201506 -0.00263063
-0.00362519 -0.00304048 -0.00308122
-0.00126488 -0.00232778 -0.00167539
-0.00282555 -0.0030571 -0.00200184
0 0 0
0 0 0
0 0 0
0 0 0
0 0 0
0 0 0
0 0 0
0 0 0
-0.00101419 -0.00242944 -0.000819133
-0.00251332 -0.00321834 -0.00138942
0 0 0
0 0 0
0 0 0
0 0 0
-0.00101228 -0.00251743 -0.000305924
-0.00244984 -0.0032036 -0.00090247
-0.000946671 -0.00240515 1.57293e-05
-0.002263 -0.00330799 1.31524e-05
-0.00101164 -0.002504 0.000335122
-0.00245207 -0.00319661 0.000920483
0 0 0
0 0 0
0 0 0
0 0 0
0 0 0
0 0 0
0 0 0
0 0 0
-0.00101046 -0.00240323 0.000823069
-0.00251337 -0.003202 0.00140359
0 0 0
0 0 0
-0.00126147 -0.00232243 0.0016711
-0.00282022 -0.00304737 0.00200544
-0.00232215 -0.00201642 0.00262287
-0.00361822 -0.00304435 0.00307389
0 0 0
0 0 0
0 0 0
0 0 0
0 0 0
0 0 0
-0.00154195 -0.000987677 -0.00240492
-0.00309138 -0.00249324 -0.00316547
-0.000751404 -0.00117566 -0.00170873
-0.00209457 -0.00252514 -0.00197127
-0.00104718 -0.000721278 -0.00236843
-0.00238539 -0.00134001 -0.00334594
-0.000970744 -0.000339276 -0.0024761
-0.00236957 -0.000409558 -0.00330898
0 0 0
0 0 0
0 0 0
0 0 0
-0.000582098 -0.0012574 -0.000801801
-0.0018706 -0.00259372 -0.00137548
-0.000623011 -0.000837784 -0.00126101
-0.00192108 -0.00139365 -0.00264556
-0.000520994 -0.000521265 -0.00129032
-0.00172155 -0.000445459 -0.00266045
-0.00169357 -0.00198235 -0.00144178
-0.00461432 -0.00352592 -0.00208853
-0.00155708 -0.00203074 -0.000932145
-0.00446275 -0.00361401 -0.000691098
-0.00164016 -0.00144367 -0.00204063
-0.00463085 -0.00205369 -0.00354839
-0.0015386 -0.000974712 -0.00204527
-0.0044776 -0.000667811 -0.00361224
0 0 0
0 0 0
0 0 0
0 0 0
0 0 0
0 0 0
0 0 0
0 0 0
-0.000520583 -0.00128599 -0.0002334
-0.00176604 -0.00264719 -0.000914679
-0.000522476 -0.001309 1.82901e-05
-0.00177498 -0.00266049 1.18056e-05
-0.000504997 -0.00128566 0.00028059
-0.0017483 -0.00265758 0.000953208
-0.00148023 -0.00204903 7.81519e-06
-0.00438562 -0.00364288 2.01977e-05
-0.00148943 -0.00206595 0.000478058
-0.00449589 -0.00356929 0.00137337
-0.00134679 -0.000990083 -0.000978058
-0.00427663 -0.000692609 -0.00290159
0 0 0
0 0 0
0 0 0
0 0 0
-0.000560324 -0.00123262 0.000850748
-0.00183756 -0.00257379 0.00140544
-0.00061363 -0.000826386 0.00127151
-0.00191952 -0.00138728 0.00266243
-0.000530157 -0.000518724 0.00129237
-0.0017333 -0.00043929 0.00265908
-0.00159314 -0.00198869 0.00148469
-0.00458813 -0.0034993 0.00205518
-0.00162961 -0.00142639 0.0020583
-0.00464456 -0.00206838 0.0035609
-0.00154563 -0.000951284 0.00205556
-0.0044695 -0.000693418 0.00362352
0 0 0
0 0 0
0 0 0
0 0 0
-0.000745744 -0.00117616 0.00172267
-0.00207683 -0.00251571 0.00197811
-0.00154169 -0.000994881 0.00241685
-0.00308468 -0.00250125 0.00316644
-0.00105155 -0.000723841 0.00237459
-0.00239162 -0.00134018 0.00335843
-0.00097541 -0.000335347 0.0024793
-0.0023746 -0.000396121 0.00330751
0 0 0
0 0 0
0 0 0
0 0 0
-0.00107778 1.42997e-05 -0.00254642
-0.00252955 -3.08986e-05 -0.00318459
0 0 0
0 0 0
0 0 0
0 0 0
0 0 0
0 0 0
0 0 0
0 0 0
-0.000503559 -2.30399e-06 -0.00131143
-0.00168207 -4.81373e-06 -0.00271418
-0.000522193 0.000276872 -0.00129362
-0.00178516 0.000924763 -0.00264428
-0.00145315 -1.54588e-06 -0.00210371
-0.00441161 -1.94024e-06 -0.00363094
-0.00148668 0.00045766 -0.00210112
-0.00451542 0.00135458 -0.00356416
0 0 0
0 0 0
0 0 0
0 0 0
-0.00131995 -0.000975595 -3.42543e-06
-0.00428445 -0.00289646 -1.06579e-05
-0.00133719 -0.000932308 0.000465226
-0.00431944 -0.00288091 0.00137647
-0.00133684 1.5276e-06 -0.000965599
-0.00427891 6.57267e-07 -0.00288726
-0.00124742 -6.54453e-06 0.000969709
-0.00427352 -1.03089e-05 0.00291639
-0.00134121 0.000464774 -0.00094159
-0.00432343 0.00135735 -0.00287154
-0.00130075 0.00045619 0.000965099
-0.00432302 0.00142897 0.00289763
-0.0012781 0.000971266 7.38319e-07
-0.00427982 0.00291113 -2.23635e-05
-0.00131503 0.000946212 0.000451581
-0.00433183 0.00288751 0.00139021
-0.00395048 -3.75521e-06 -9.14292e-06
-0.0110233 1.04009e-05 3.98994e-06
0 0 0
0 0 0
0 0 0
0 0 0
0 0 0
0 0 0
0 0 0
0 0 0
-0.000498542 -6.30968e-06 0.00126976
-0.00167367 -1.38627e-06 0.00267312
-0.000515265 0.000249029 0.00125785
-0.00178114 0.000900438 0.00263742
-0.00140835 -0.000980291 0.00150435
-0.00440718 -0.00284034 0.00209608
-0.00144966 -1.86446e-05 0.00205481
-0.00437514 1.98614e-06 0.00365977
-0.00147828 0.000448597 0.00205526
-0.00450366 0.00139353 0.00359312
-0.00142068 0.000945872 0.00148588
-0.00440623 0.00284311 0.00209965
0 0 0
0 0 0
-0.00107261 2.10118e-05 0.00253397
-0.00251884 -2.25377e-05 0.00316354
0 0 0
0 0 0
0 0 0
0 0 0
0 0 0
0 0 0
-0.00103711 0.000517762 -0.0024537
-0.00244405 0.000414986 -0.00325982
-0.000936697 0.000714584 -0.0023394
-0.00230371 0.00134477 -0.0033135
-0.00150648 0.000948035 -0.00237529
-0.00308561 0.00249343 -0.00314744
-0.000743443 0.00114268 -0.00170542
-0.00208542 0.00255816 -0.00195946
0 0 0
0 0 0
0 0 0
0 0 0
-0.000569183 0.000848153 -0.00125717
-0.0018393 0.00140824 -0.00260343
-0.000573973 0.00126199 -0.00079693
-0.00186419 0.00261159 -0.00137062
-0.00160946 0.0014663 -0.00200379
-0.00462114 0.0020246 -0.00350079
-0.00164133 0.00201742 -0.00143678
-0.00461056 0.00352835 -0.00208447
-0.00153397 0.00204477 -0.000935395
-0.00446311 0.00360472 -0.000698885
0 0 0
0 0 0
0 0 0
0 0 0
0 0 0
0 0 0
0 0 0
0 0 0
-0.000513949 0.001283 -0.000235866
-0.00175867 0.00265986 -0.000916131
-0.000514774 0.0013075 8.23748e-06
-0.00177044 0.00266545 5.35714e-06
-0.000507158 0.00129009 0.000263586
-0.00175407 0.00267226 0.000943631
-0.00141327 0.00149561 -0.000977181
-0.0044177 0.00206837 -0.00283423
-0.00145898 0.00205675 3.1237e-06
-0.00438469 0.00364839 1.32132e-05
-0.0014944 0.00206957 0.000467253
-0.00450782 0.00357774 0.00138274
0 0 0
0 0 0
0 0 0
0 0 0
-0.00057406 0.000814236 0.00125722
-0.00185051 0.00138973 0.00262203
-0.00056255 0.00123193 0.000835275
-0.00184553 0.00258683 0.00139604
-0.00161183 0.00142877 0.00202775
-0.00463249 0.00207723 0.00353906
-0.00157359 0.00200976 0.00145781
-0.00459042 0.0035104 0.0020563
0 0 0
0 0 0
0 0 0
0 0 0
-0.00103784 0.000506496 0.00244999
-0.00244084 0.00040937 0.00323774
-0.000944859 0.000705176 0.00234672
-0.00231663 0.00133828 0.00332679
-0.000740681 0.00113106 0.00170941
-0.00207525 0.00253478 0.00196189
-0.00150834 0.000944281 0.00237867
-0.00308726 0.00249801 0.00314579
0 0 0
0 0 0
-0.00232739 0.00198513 -0.00262908
-0.00363117 0.00303558 -0.00307499
-0.00126398 0.00231267 -0.00167662
-0.00283332 0.00308375 -0.00200526
0 0 0
0 0 0
-0.00101991 0.00243123 -0.000814111
-0.00252755 0.00323386 -0.00138076
0 0 0
0 0 0
-0.00101168 0.00251688 -0.000308461
-0.00245094 0.00321212 -0.000898005
-0.000947433 0.00240557 7.75771e-06
-0.00226218 0.00331385 6.57871e-06
-0.00101489 0.00250954 0.000325995
-0.00245956 0.00321114 0.000911223
0 0 0
0 0 0
-0.0010176 0.00241019 0.000819902
-0.00252756 0.0032163 0.00139138
-0.00126339 0.00230455 0.00167203
-0.00283264 0.00306672 0.00200178
-0.00232936 0.00198322 0.00262278
-0.00363594 0.00303943 0.00306503
-0.00419927 -0.00354533 -0.00308534
-0.00398252 -0.00365752 -0.0024262
-0.00417938 -0.00301874 -0.00361598
-0.0039226 -0.00243939 -0.00367279
-0.00548779 -0.00384163 -0.00385119
-0.00647259 -0.00400232 -0.00398402
-0.00525307 -0.00331468 -0.00390122
-0.00626229 -0.00287716 -0.00412922
-0.00355648 -0.00380188 -0.00117095
-0.00353699 -0.00381257 -0.000589485
-0.00347441 -0.00307072 -0.00245781
-0.00349786 -0.00241794 -0.00313888
-0.00511611 -0.00397001 -0.00278013
-0.00638217 -0.00401637 -0.00349857
-0.00498153 -0.00410061 -0.00210521
-0.00624487 -0.00425397 -0.00223213
-0.00487979 -0.00417823 -0.00142785
-0.00617507 -0.00443353 -0.000778808
-0.00481748 -0.00342646 -0.00276435
-0.00615741 -0.00286751 -0.00360393
-0.00353177 -0.00381831 0.000600024
-0.00354747 -0.0038074 0.00117249
-0.00478378 -0.00420605 8.0815e-06
-0.00612526 -0.0044557 6.42439e-06
-0.00397738 -0.00365748 0.00241936
-0.00419293 -0.00354917 0.00307434
-0.00345239 -0.00307003 0.0024516
-0.00348791 -0.00242249 0.00315285
-0.00485004 -0.00416952 0.00138686
-0.00613166 -0.00442195 0.000764872
-0.0050029 -0.0041005 0.0020766
-0.00630147 -0.00425198 0.00218276
-0.0051098 -0.00397154 0.00275594
-0.00637529 -0.00401803 0.00346135
-0.00480291 -0.0034274 0.00273977
-0.00616068 -0.00287184 0.00359677
-0.00416871 -0.00303358 0.00361317
-0.003919 -0.00245231 0.00368589
-0.00547613 -0.0038626 0.00382447
-0.00646538 -0.00402056 0.00394802
-0.00524213 -0.00333599 0.00389097
-0.00625828 -0.00289523 0.00412822
-0.00359053 -0.00118753 -0.00382268
-0.00355472 -0.000578893 -0.00384199
-0.00493498 -0.00208849 -0.00412547
-0.00619763 -0.00222563 -0.00423886
-0.00360054 -0.00118353 0.00383425
-0.00355804 -0.000569834 0.00384379
-0.00494553 -0.00210264 0.00414119
-0.00620793 -0.00224306 0.00425323
-0.00356009 0.0005773 -0.00383446
-0.00360494 0.00117924 -0.00380792
-0.0048258 -0.000671933 -0.00422048
-0.00615691 -0.0014776 -0.00433108
-0.00482549 1.06802e-05 -0.00427641
-0.00618194 2.53311e-05 -0.00449496
-0.00481153 0.000702612 -0.00419993
-0.00616843 0.0014961 -0.00432054
-0.00355615 0.000579548 0.00381654
-0.00360334 0.00117706 0.00380586
-0.00482663 -0.000679936 0.00422736
-0.00617119 -0.00150101 0.00434669
-0.0048056 1.20618e-05 0.00426302
-0.00614852 8.92849e-06 0.00448649
-0.0048054 0.000713982 0.00421155
-0.00616488 0.00151373 0.00434766
-0.003913 0.00244948 -0.0036543
-0.00417391 0.0030235 -0.00359638
-0.00347195 0.00243513 -0.00311139
-0.00345587 0.00310664 -0.00244475
-0.00499614 0.00204614 -0.00411465
-0.0063043 0.00215611 -0.00426271
-0.0034734 0.00244389 0.0031242
-0.00344818 0.00309655 0.0024341
-0.00392072 0.00247043 0.00366534
-0.0041794 0.00304861 0.00359339
-0.00500362 0.00208711 0.00414323
-0.00631253 0.00220198 0.00426674
-0.00418198 0.00355279 -0.00308809
-0.00396972 0.00368383 -0.00243762
-0.0052424 0.00330029 -0.00389159
-0.00629409 0.00283673 -0.00411882
-0.00546403 0.00382998 -0.00385099
-0.00646032 0.00397329 -0.0039849
-0.00355219 0.00381423 -0.00117579
-0.00352945 0.00382098 -0.000593396
-0.00480035 0.00343382 -0.00275343
-0.00617461 0.00283188 -0.00359513
-0.00508952 0.00397447 -0.00278282
-0.00635933 0.00399205 -0.00349367
-0.00497645 0.00412225 -0.00211783
-0.00624888 0.00425151 -0.00224871
-0.00487074 0.00417798 -0.00142918
-0.00615887 0.00441445 -0.000778886
-0.00353269 0.00382905 0.00059456
-0.00355367 0.00382476 0.00116892
-0.00477929 0.00420648 3.60291e-06
-0.00611203 0.0044547 4.10269e-06
-0.00397353 0.00367831 0.00241569
-0.00419152 0.0035606 0.00306587
-0.00479782 0.003445 0.00273377
-0.00618361 0.00286977 0.00359607
-0.00485238 0.00418001 0.00138953
-0.00612686 0.0044099 0.000765678
-0.00498373 0.00411822 0.00207513
-0.00626653 0.00426534 0.00219373
-0.00509592 0.00398337 0.00274887
-0.00636065 0.00401892 0.00347182
-0.00524551 0.00334616 0.00388645
-0.00629075 0.00288282 0.00412974
-0.00547669 0.00387312 0.00382244
-0.00646239 0.0040128 0.00396332
-0.00748857 -0.00404947 -0.00351603
-0.00748832 -0.00411278 -0.00291075
-0.00747904 -0.00349339 -0.00403687
-0.00746972 -0.00291059 -0.00408577
-0.00850308 -0.00399955 -0.00394976
-0.00951279 -0.00383663 -0.00382856
-0.0086087 -0.00400034 -0.00345799
-0.00988099 -0.00394875 -0.00275389
-0.007506 -0.00431894 -0.00152515
-0.00752961 -0.00443877 -0.000766906
-0.00751136 -0.00356714 -0.00290944
-0.00749778 -0.00287938 -0.00356003
-0.0075247 -0.00294963 -0.00295823
-0.00749807 -0.00147781 -0.00375507
-0.00872419 -0.00417941 -0.00220119
-0.00997588 -0.00406579 -0.00207709
-0.00893998 -0.00291515 -0.00292456
-0.0103899 -0.00136667 -0.00358345
-0.00751066 -0.00444496 0.000747607
-0.00750696 -0.00435134 0.00150108
-0.00751779 -0.00313696 -0.00154945
-0.00749014 -0.00154318 -0.00312535
-0.00748671 -0.00310795 0.00153655
-0.0075031 -0.00154705 0.00312174
-0.00881815 -0.00432907 -0.000766957
-0.0100687 -0.00412086 -0.00141701
-0.008823 -0.00444505 1.06331e-05
-0.0101744 -0.00426718 8.65819e-06
-0.00885597 -0.00439994 0.000753147
-0.0101412 -0.00419299 0.00140648
-0.00909248 -0.00308364 -0.00149526
-0.0106129 -0.00139822 -0.00291711
-0.00906515 -0.00305376 0.00148139
-0.0106405 -0.00139545 0.00289908
-0.0106984 -0.00288327 -1.32628e-06
-0.0137271 -0.0009663 1.58671e-05
-0.0106886 -0.0028973 0.000694487
-0.0136934 -0.000992938 0.000971525
-0.00750191 -0.00410417 0.00287655
-0.00748639 -0.00404147 0.00348296
-0.00751462 -0.00356621 0.00288689
-0.00749795 -0.0028698 0.0035572
-0.00751666 -0.00291642 0.00299217
-0.00751798 -0.00147785 0.00378922
-0.00877465 -0.00416699 0.00219615
-0.0100349 -0.00404472 0.00209501
-0.00893684 -0.0029008 0.00291965
-0.010402 -0.00135441 0.00357783
-0.00748377 -0.0035022 0.00401544
-0.00747145 -0.0029167 0.00407664
-0.00861226 -0.00399271 0.00344548
-0.00989894 -0.00394386 0.00275688
-0.00851249 -0.00399525 0.00393904
-0.00952214 -0.00382996 0.00382535
-0.00748963 -0.00154272 -0.00425614
-0.00749434 -0.000792735 -0.00439708
-0.00871016 -0.00287258 -0.00409733
-0.00974304 -0.00330364 -0.00387628
-0.00882857 -0.00285356 -0.00354872
-0.0101575 -0.00341764 -0.00273184
-0.00875544 -0.00221288 -0.00417611
-0.00998173 -0.00208486 -0.00405252
-0.0087801 -0.00150729 -0.00425451
-0.0101634 -0.000728432 -0.00422668
-0.00749522 -0.00154582 0.00428508
-0.00749389 -0.000796059 0.00441983
-0.00882459 -0.00284778 0.00354296
-0.0101611 -0.00340811 0.00273178
-0.0087134 -0.00287143 0.00409335
-0.00974588 -0.00330006 0.00387273
-0.00876001 -0.00221346 0.00418317
-0.00998693 -0.00208665 0.00405225
-0.00878768 -0.00150702 0.00425952
-0.0101903 -0.00071806 0.0042145
-0.00750553 0.000745063 -0.00449665
-0.0075257 0.00150055 -0.00434723
-0.00746168 0.00152994 -0.0031298
-0.00749125 0.00312384 -0.00155813
-0.00885224 1.73857e-05 -0.00449329
-0.0102251 1.29528e-05 -0.00430086
-0.00905269 0.00148464 -0.00307648
-0.0106401 0.00291677 -0.00141056
-0.0107062 -2.1846e-06 -0.00290209
-0.0137222 8.49708e-06 -0.000965751
-0.0106891 0.00069899 -0.00290472
-0.0136945 0.000978804 -0.00098647
-0.007495 0.000728763 0.00445245
-0.00753295 0.00148433 0.00429828
-0.00751242 0.00154819 0.00311455
-0.00749219 0.00311669 0.00152826
-0.0074823 0.00147792 0.00377917
-0.00746904 0.00295024 0.00294819
-0.00884558 7.47644e-06 0.00447252
-0.0102324 1.7554e-05 0.00428455
-0.00910017 0.00149578 0.00305676
-0.0106278 0.00289578 0.00138245
-0.00897386 0.00142838 0.00375257
-0.0103827 0.00278977 0.00277468
-0.0107314 -1.76687e-06 0.00287684
-0.0136925 -7.4659e-06 0.000960353
-0.0105982 1.1231e-05 0.00362287
-0.0135574 -1.65873e-05 0.00209342
-0.0107434 0.000688586 0.00290556
-0.0136716 0.000950107 0.000969059
-0.0105468 0.000699651 0.00359389
-0.0135012 0.000918611 0.00207879
-0.00750697 0.00288729 -0.00407786
-0.00748286 0.00346296 -0.00402953
-0.00750398 0.00289125 -0.00355477
-0.00748228 0.00355659 -0.00288521
-0.00748965 0.00299596 -0.0029193
-0.00749717 0.00379991 -0.00148568
-0.00879579 0.00150922 -0.00432135
-0.0101573 0.000715038 -0.00422308
-0.00877023 0.0021923 -0.0042366
-0.0100216 0.00206862 -0.00411081
-0.0087123 0.00283028 -0.00408538
-0.00973479 0.00330659 -0.00388135
-0.00882345 0.00283978 -0.00356982
-0.0101294 0.00344109 -0.00274089
-0.00891509 0.0029183 -0.00293127
-0.0104 0.00359232 -0.00138201
-0.0105222 0.00210245 -0.00284319
-0.0136018 0.0015089 -0.000953337
-0.00750858 0.00287795 0.00354894
-0.00748959 0.0035625 0.00289955
-0.00750914 0.00286735 0.00404232
-0.00748255 0.00346643 0.00401466
-0.00882932 0.00151388 0.00430194
-0.0101869 0.000710989 0.00421778
-0.00880812 0.00223204 0.00420122
-0.010057 0.00210937 0.00408915
-0.008807 0.0028374 0.00357121
-0.0101405 0.00344886 0.00274134
-0.00872833 0.00285452 0.00409302
-0.0097308 0.00332364 0.00387922
-0.010335 0.00208282 0.00350011
-0.0133981 0.00140798 0.00204498
-0.00747658 0.00401207 -0.00351765
-0.00747657 0.00408286 -0.00291783
-0.00851073 0.00397244 -0.00397516
-0.00951462 0.00383852 -0.00384049
-0.00860837 0.00398368 -0.00347876
-0.00988143 0.00395548 -0.0027542
-0.00751892 0.00429623 -0.00154507
-0.00750761 0.00443056 -0.000777256
-0.00876829 0.00418807 -0.00223021
-0.0100388 0.00406208 -0.0021121
-0.00750929 0.00441924 0.000748807
-0.00751713 0.00432123 0.00150963
-0.00885912 0.00436027 -0.000774478
-0.0101642 0.00414983 -0.00140869
-0.008846 0.00445379 6.46263e-06
-0.0102114 0.00424866 1.23686e-05
-0.0088496 0.00433453 0.000769251
-0.0101566 0.00413166 0.00140716
-0.0107134 0.0028805 -6.91783e-06
-0.0136796 0.000976061 -3.4273e-06
-0.0105873 0.00361387 -2.28095e-06
-0.0135281 0.00210664 -4.20679e-06
-0.00749127 0.00410124 0.00290598
-0.00748329 0.00403523 0.00351295
-0.00879654 0.00417389 0.00221697
-0.0100482 0.00406476 0.00209605
-0.00861383 0.00399784 0.00347096
-0.00988906 0.00397637 0.00276221
-0.00851492 0.00398737 0.00396477
-0.00950674 0.00385128 0.00382788
-0.0107997 -0.00356629 -0.00308143
-0.0110015 -0.00371113 -0.00242158
-0.0108055 -0.0030385 -0.00360422
-0.0110517 -0.00246326 -0.00368579
-0.0113474 -0.00304915 -0.00307549
-0.0126572 -0.00199352 -0.00262823
-0.0118882 -0.00250734 -0.00315736
-0.0134728 -0.000940265 -0.00237718
-0.0114086 -0.00393627 -0.00117878
-0.0114784 -0.0039502 -0.000582606
-0.0114879 -0.00313676 -0.00246289
-0.0114799 -0.00245348 -0.00316015
-0.0118394 -0.00249521 -0.00252334
-0.0118209 -0.00114439 -0.00328061
-0.0121379 -0.00306966 -0.00200244
-0.0137258 -0.00231199 -0.0016733
-0.0124259 -0.00323397 -0.0013819
-0.013968 -0.00239267 -0.000813797
-0.0124796 -0.00326283 -0.00090867
-0.0139688 -0.00250641 -0.00031725
-0.0128777 -0.00253928 -0.00195655
-0.0142449 -0.00112029 -0.00169686
-0.0131214 -0.00260077 -0.00136977
-0.0144344 -0.00118083 -0.000811318
-0.013246 -0.00270668 -0.000930052
-0.0144982 -0.00126008 -0.000257274
-0.0133822 -0.00199818 -0.00144334
-0.0145748 -0.000563678 -0.000843901
-0.0134651 -0.00204939 -0.00091527
-0.0146295 -0.000533633 -0.000254043
-0.0115031 -0.00387567 0.000607808
-0.0114649 -0.00385737 0.00121661
-0.0121472 -0.00259155 -0.00121368
-0.0121179 -0.00121335 -0.00258941
-0.0127109 -0.00339222 -8.84413e-06
-0.0140447 -0.00241363 -1.02024e-05
-0.013261 -0.00276739 -6.21986e-06
-0.0144864 -0.00131801 -3.93298e-06
-0.0134916 -0.00213358 -1.38175e-07
-0.0146224 -0.00058106 -9.0871e-07
-0.0134885 -0.00212037 0.000449291
-0.0145988 -0.000564851 0.000536703
-0.0110232 -0.00369046 0.00243285
-0.010806 -0.00355992 0.00308251
-0.011488 -0.00311263 0.00246915
-0.0114772 -0.00244527 0.00315657
-0.0118262 -0.00249544 0.00250808
-0.011842 -0.0011728 0.00326088
-0.0125081 -0.00327121 0.000912766
-0.0139737 -0.00252441 0.000302623
-0.012448 -0.00325846 0.00138533
-0.0139699 -0.00241889 0.000813633
-0.0121433 -0.00308501 0.0020047
-0.0137217 -0.0023165 0.00168243
-0.013239 -0.00272848 0.000915691
-0.0144821 -0.00129717 0.00024551
-0.0131082 -0.00263888 0.00137245
-0.0144226 -0.00119424 0.000818812
-0.012871 -0.00255656 0.00196122
-0.0142386 -0.00111896 0.00168884
-0.0133627 -0.00204902 0.00142338
-0.0145673 -0.000513112 0.000864325
-0.0108054 -0.00303789 0.00360097
-0.0110519 -0.00246228 0.00368009
-0.0113484 -0.00304802 0.00307933
-0.0126571 -0.00198666 0.00264048
-0.0118885 -0.00250657 0.00315442
-0.0134745 -0.000931934 0.00236802
-0.011366 -0.00118941 -0.00394673
-0.0114384 -0.000577092 -0.00395653
-0.0126205 -0.0013479 -0.00336999
-0.0140345 -0.000708721 -0.00235528
-0.0131027 -0.00137274 -0.00266002
-0.0144351 -0.00079266 -0.00121801
-0.0131759 -0.000872937 -0.00268235
-0.0144799 -0.0002513 -0.00123907
-0.0113908 -0.00116663 0.0039202
-0.0114666 -0.000545779 0.00393247
-0.0131081 -0.00138044 0.00264988
-0.0144366 -0.00078964 0.00122405
-0.012627 -0.00135909 0.00335294
-0.0140354 -0.000703298 0.00235937
-0.0131928 -0.000882938 0.00268019
-0.0144745 -0.00025541 0.00127271
-0.0114739 0.000610088 -0.0038835
-0.0114037 0.00121861 -0.00383076
-0.0124947 -0.000404549 -0.00331948
-0.0139296 -0.000499018 -0.00246799
-0.0124519 4.60595e-05 -0.00323738
-0.0139044 1.18554e-06 -0.00257295
-0.0132982 9.34395e-06 -0.00278167
-0.0144912 -5.94675e-06 -0.00127738
-0.0135088 2.92201e-06 -0.00212468
-0.0146443 7.22188e-06 -0.000585802
-0.012616 0.000421862 -0.00337638
-0.0140185 0.000340648 -0.00247684
-0.0132649 0.000427699 -0.00274187
-0.0144683 0.00051051 -0.00125697
-0.0135254 0.000434095 -0.002133
-0.0146154 0.000529561 -0.000560678
-0.011485 0.000611788 0.00386382
-0.011416 0.00120624 0.00382524
-0.0125606 -0.000378655 0.0032857
-0.013955 -0.000497265 0.00248548
-0.013287 1.23289e-05 0.00269
-0.0144851 -1.89975e-05 0.00129505
-0.0124967 4.77251e-05 0.00318422
-0.013923 -3.17466e-06 0.00257277
-0.0132744 0.000430917 0.00267634
-0.0144722 0.000504533 0.00130442
-0.0126651 0.0004024 0.00332059
-0.0140394 0.000334061 0.00248606
-0.0110654 0.0024604 -0.00366552
-0.0108136 0.00303547 -0.0036084
-0.0114733 0.00243572 -0.00313689
-0.0114867 0.00313406 -0.00246347
-0.0118201 0.00250238 -0.00249945
-0.0118454 0.00328454 -0.00117758
-0.0126105 0.00135596 -0.00336883
-0.0139616 0.000718322 -0.00235501
-0.0131019 0.00139597 -0.00266184
-0.0144287 0.000792311 -0.00125815
-0.0133554 0.00141194 -0.00205569
-0.0145712 0.000833806 -0.000525603
-0.0114843 0.00242869 0.00311762
-0.0115048 0.00310706 0.00241608
-0.011066 0.0024538 0.00366173
-0.0108122 0.0030357 0.00359706
-0.0130953 0.0013787 0.00264809
-0.0144206 0.000792946 0.00128861
-0.0126159 0.00134754 0.00333833
-0.0139539 0.000726733 0.00236903
-0.0107881 0.00356972 -0.00309089
-0.0109813 0.00372398 -0.00244777
-0.0118946 0.00250063 -0.00316342
-0.013456 0.000977388 -0.002395
-0.0113587 0.00304593 -0.00308715
-0.0126649 0.00200836 -0.00263931
-0.0114047 0.00393283 -0.00119578
-0.0114751 0.00393829 -0.000571496
-0.0128785 0.00255425 -0.00196022
-0.0142474 0.0011638 -0.00169309
-0.0130762 0.002607 -0.00136381
-0.0144214 0.00116079 -0.000825921
-0.0132083 0.00269945 -0.000898865
-0.0144716 0.00126056 -0.000246222
-0.0121282 0.00307823 -0.00200795
-0.0137219 0.00232903 -0.00167919
-0.0124063 0.00324795 -0.00138745
-0.01396 0.00241074 -0.000811059
-0.0124666 0.00326318 -0.000902494
-0.0139589 0.00253725 -0.000310149
-0.0114757 0.00393838 0.000589285
-0.0114278 0.00395286 0.00117547
-0.0132205 0.0026795 7.78262e-06
-0.0144622 0.00132227 1.6446e-06
-0.012736 0.00333865 1.48287e-05
-0.0140474 0.00243353 3.87407e-06
-0.0109959 0.00369458 0.0023955
-0.0107821 0.00355532 0.00305831
-0.0131751 0.00265929 0.000913906
-0.0144641 0.00120615 0.000252858
-0.0130559 0.00257303 0.00137716
-0.014408 0.00115248 0.000837269
-0.0129008 0.00251495 0.00195161
-0.0142445 0.00116205 0.00171256
-0.0124667 0.0032446 0.000906206
-0.0139509 0.0025319 0.000317544
-0.0124483 0.00323113 0.00139083
-0.0139731 0.00241126 0.000822701
-0.0121566 0.00304509 0.00198537
-0.013727 0.00232387 0.00167124
-0.011906 0.00250161 0.00315247
-0.013458 0.000993056 0.00240976
-0.0113713 0.00304914 0.00306198
-0.0126758 0.00201867 0.00262373
-0.015 0 0
-0.015 0 0
-0.015 0 0
-0.015 0 0
-0.015 0 0
-0.015 0 0
-0.015 0 0
-0.015 0 0
-0.015 0 0
-0.015 0 0
-0.015 0 0
-0.015 0 0
-0.015 0 0
-0.015 0 0
-0.015 0 0
-0.015 0 0
-0.015 0 0
-0.015 0 0
-0.015 0 0
-0.015 0 0
-0.015 0 0
-0.015 0 0
-0.015 0 0
-0.015 0 0
-0.015 0 0
-0.015 0 0
-0.015 0 0
-0.015 0 0
-0.015 0 0
-0.015 0 0
-0.015 0 0
-0.015 0 0
-0.015 0 0
-0.015 0 0
-0.015 0 0
-0.015 0 0
-0.015 0 0
-0.015 0 0
-0.015 0 0
-0.015 0 0
-0.015 0 0
-0.015 0 0
-0.015 0 0
-0.015 0 0
-0.015 0 0
-0.015 0 0
-0.015 0 0
-0.015 0 0
-0.015 0 0
-0.015 0 0
-0.015 0 0
-0.015 0 0
-0.015 0 0
-0.015 0 0
-0.015 0 0
-0.015 0 0
-0.015 0 0
-0.015 0 0
-0.015 0 0
-0.015 0 0
-0.015 0 0
-0.015 0 0
-0.015 0 0
-0.015 0 0
-0.015 0 0
-0.015 0 0
-0.015 0 0
-0.015 0 0
-0.015 0 0
-0.015 0 0
-0.015 0 0
-0.015 0 0
-0.015 0 0
-0.015 0 0
-0.015 0 0
-0.015 0 0
-0.015 0 0
-0.015 0 0
-0.015 0 0
-0.015 0 0
-0.015 0 0
-0.015 0 0
-0.015 0 0
-0.015 0 0
-0.015 0 0
-0.015 0 0
-0.015 0 0
-0.015 0 0
-0.015 0 0
-0.015 0 0
-0.015 0 0
-0.015 0 0
-0.015 0 0
-0.015 0 0
-0.015 0 0
-0.015 0 0
-0.015 0 0
-0.015 0 0
-0.015 0 0
-0.015 0 0
-0.015 0 0
-0.015 0 0
-0.015 0 0
-0.015 0 0
-0.015 0 0
-0.015 0 0
-0.015 0 0
-0.015 0 0
-0.015 0 0
-0.015 0 0
-0.015 0 0
-0.015 0 0
-0.0119416 0.00312423 -0.00256724
-0.0131666 0.00154572 -0.00245371
-0.00629052 -0.0041169 0.00288222
-0.0138576 0.00241034 -0.00115309
-0.015 0 0
-0.0140505 0.00161315 -0.00167297
0 0 0
-0.015 0 0
0 0 0
-0.00480805 0.00419645 -0.000708876
-0.015 0 0
-0.0136273 -1.6029e-05 0.00151107
-0.00528561 0.0038462 -0.00334159
-0.00635945 0.00344567 -0.00402622
-0.015 0 0
-0.0126495 -0.000840337 0.00335014
-0.0143235 -0.0004792 0.00177913
-0.00303097 -0.00310804 -0.00255911
-0.00182836 -0.0015538 -0.0024562
-0.00616115 -0.000734104 -0.00440104
-0.00990101 -0.00272265 -0.0039548
-0.00636011 -0.00347921 -0.00403484
-0.00531244 -0.00384662 -0.00333993
-0.00235375 0.00330962 0.000504376
-0.000642121 -0.00118266 -0.00120981
-0.00509475 -0.00273889 -0.00399719
-0.00504624 -0.00334347 -0.00336225
0 0 0
-0.0142889 -0.000263979 0.00180821
-0.015 0 0
-0.0139378 -0.000241906 0.00256727
-0.00266004 0.00192946 -0.00328517
0 0 0
-0.0009425 -0.00162124 -0.00168101
-0.00112104 -0.0024075 -0.00115254
-0.000805886 -0.00165133 -0.00117762
-0.00626426 0.0041029 -0.00291777
-0.0062685 0.00346693 -0.00349635
-0.00141159 -0.00100644 -0.00149352
-0.015 0 0
-0.0015176 -0.00203775 -0.000459752
0 0 0
-0.00105666 0.000262236 -0.00253374
0 0 0
-0.00988191 0.00272361 -0.00396502
-0.0122917 0.00192803 0.00122434
-0.00616609 -0.00435013 0.00147267
-0.012296 0.00192948 0.00329603
-0.00968059 0.00385427 0.00331828
-0.0086204 0.00346067 0.00400654
-0.00616377 0.00357357 -0.0028906
-0.00234905 -0.000847251 -0.00332139
-0.000741057 -0.000786215 -0.0017932
-0.0026665 0.0019306 0.00329157
0 0 0
-0.00111839 -0.00239528 0.00115302
0 0 0
-0.000801055 -0.00163841 0.00118337
-0.015 0 0
-0.00241514 0.00249038 -0.00262554
-0.00303414 0.00311777 -0.00255937
-0.001816 0.00151833 -0.00243911
-0.000936222 0.00159856 -0.00167186
-0.00112507 0.00240946 -0.00115497
-0.000804886 0.001651 -0.00117784
0 0 0
0 0 0
-0.00068287 0.000800409 -0.00173251
-0.000639418 0.00118846 -0.00120525
-0.00207627 0.00193829 -0.00263286
0 0 0
0 0 0
-0.000693684 -0.000500378 -0.00178407
0 0 0
-0.000675952 -0.00022597 -0.00175237
-0.00070329 6.30949e-06 -0.00175797
-0.00103413 -0.00019669 -0.00253416
0 0 0
-0.00105286 0.000255573 0.00251788
-0.00628752 -0.00412075 -0.00291808
-0.00617692 -0.00359746 -0.00290322
-0.00627553 -0.00349254 -0.00350683
-0.00181698 0.00151481 0.00243655
-0.00241271 0.00247851 0.00262353
-0.0030369 0.00311 0.00255007
-0.0101409 0.00141852 0.00415673
0 0 0
-0.000751296 0.00173 -0.000782843
0 0 0
-0.000709158 0.00175259 -0.000466011
-0.00103982 0.00252413 -0.00054878
-0.0144913 0.000236385 0.0012999
0 0 0
-0.00103772 -0.00252398 -0.000551985
-0.00427835 0.00291848 0.000687154
-0.00234162 0.000854867 0.00330701
-0.0006649 0.00049007 0.00176098
-0.000688371 0.000256086 0.00176217
-0.00235002 -0.00330152 -0.000490707
-0.000679977 -0.00178465 -0.000232512
-0.00235519 -0.000839768 0.00333072
0 0 0
-0.000678767 0.00177583 0.000254469
-0.00104039 0.00250857 0.000567527
0 0 0
-0.000706062 0.00172947 0.000486625
-0.000518872 0.00126816 0.000537607
-0.000745108 0.00169981 0.000798676
-0.00304127 -0.00320892 -0.000572271
-0.00481834 -0.00419819 -0.000704414
-0.00175759 -0.00263606 -0.000422545
-0.00234245 0.000870851 -0.00331309
-0.00066572 0.000506172 -0.00176396
-0.000692806 0.000271132 -0.0017865
-0.0020747 0.00192492 0.00263954
-0.000684572 0.000783779 0.00173824
-0.0017576 0.00196156 0.00199228
-0.000631606 0.00116221 0.0012245
0 0 0
-0.000934169 0.00158706 0.0016706
-0.00112345 0.00239439 0.00115472
-0.000802097 0.00163095 0.0011813
-0.000631735 -0.00117003 0.00123903
-0.000738919 -0.000782921 0.00180251
-0.000937905 -0.00161632 0.00168204
-0.0018275 -0.00155777 0.00245548
-0.00302406 -0.00310408 0.00255531
-0.0142252 0.00167157 0.000790741
-0.015 0 0
-0.00140364 0.00148679 0.00046014
0 0 0
-0.00137189 0.000947578 0.000949079
-0.0128769 0.00191778 0.00265286
-0.0143483 0.00112882 0.00122661
-0.00269954 -0.00192134 -0.00330033
-0.00211806 -0.00192413 -0.00266205
-0.00376058 -0.00300718 -0.00307582
-0.0024242 -0.00248106 -0.00264541
-0.00969181 -0.0038323 0.0033098
-0.00862527 -0.00347074 0.00399295
-0.0122216 -1.74177e-06 -0.00259676
-0.000698262 -0.000497109 0.00179071
-0.000502259 -0.000251859 0.00128447
0 0 0
-0.0139135 -0.000243212 -0.00256184
-0.015 0 0
-0.00303072 -0.00060275 -0.00322892
-0.00145043 -0.000477095 -0.00207605
-0.000496032 -0.00025625 -0.00129118
-0.00319219 0.00317864 -0.00181721
-0.00619667 0.00433441 -0.00152462
-0.00486638 -0.00139348 0.00418518
-0.00179914 -0.000901369 0.00266638
0 0 0
-0.000529221 -0.00128526 -0.000503003
-0.000750679 -0.00173038 -0.00078461
-0.000709735 -0.00175681 -0.000467645
-0.015 0 0
-0.015 0 0
-0.0139328 0.00251437 -0.00056914
-0.00235011 -0.00329897 0.000513626
-0.000663171 -0.00184966 1.44821e-05
-0.00530303 -0.00385371 0.00331246
-0.00627211 -0.00349183 0.0034779
-0.00635353 -0.00349725 0.00401485
-0.000740506 -0.00169632 0.000803609
0 0 0
-0.00503767 -0.00335357 0.00334771
-0.00509231 -0.00276008 0.00400598
-0.00312007 -0.00120525 0.00323082
-0.00303456 -0.000598244 0.00323788
-0.00616105 -0.000752684 0.00441607
-0.00324459 -0.00180574 0.00322411
-0.00481927 -0.00273596 0.00346527
-0.00177765 -0.00194154 0.00202951
-0.0134401 0.00206748 -0.000937364
-0.0138674 0.00239624 0.00115235
-0.015 0 0
-0.0141855 0.00162322 0.00117686
-0.0101709 -0.00271323 -0.00342462
-0.0100542 -0.00140921 -0.00414558
0 0 0
-0.00103557 -0.000182269 0.00253828
-0.000698574 5.3535e-06 0.00173205
-0.000678109 -0.000219037 0.00175546
-0.00635446 0.00348894 0.00401878
-0.00529406 0.00386817 0.00331044
0 0 0
-0.000676455 -0.00177107 0.000264191
-0.00103457 -0.00249894 0.000574931
-0.00070181 -0.00172136 0.000494235
-0.00861868 -0.00347376 -0.00400052
-0.00968599 -0.00383675 -0.0033116
-0.00994054 -0.00333621 -0.00333236
-0.0121142 0.00261157 -0.00122282
-0.0123178 0.00196048 -0.00124342
-0.0119824 0.00325265 1.27734e-06
-0.00878639 -0.0042654 -0.00149784
-0.00302948 -0.00321299 0.000590351
-0.00302899 -0.00322798 1.32724e-05
-0.00175368 -0.00263613 0.000447688
-0.00479788 -0.00420431 0.000704803
-0.0045381 -0.00137934 0.00360106
-0.00455429 -0.00278232 0.00282421
-0.00617854 -0.00359154 0.00286231
-0.00311557 -0.00245731 0.00252778
-0.00422249 -0.00144982 0.00215695
-0.00441043 -0.00210783 0.00286589
-0.00434 -0.00142533 0.00288284
-0.00149278 -0.000486287 0.00205121
-0.0013554 -0.000966008 0.000969964
0 0 0
-0.00426978 -0.00290868 0.000686706
-0.00140129 -0.00148732 0.000468529
-0.00441543 -0.00360889 0.000702096
-0.00147762 -0.00146679 0.00151112
-0.0014247 -0.00148955 0.000967736
0 0 0
-0.00149375 -0.00205331 0.0009711
-0.00315681 -0.00313689 0.00182464
-0.00308424 -0.00321297 0.0012042
-0.000516916 -0.0012601 0.000552375
-0.011903 0.00120037 0.0032186
-0.00882747 0.000750421 0.0043977
-0.011986 0.000595307 0.00324044
-0.0104663 0.00138965 0.00356089
-0.015 0 0
-0.0142842 -3.54788e-06 0.0017713
-0.0143124 0.00022329 0.00177445
-0.0139689 0.00019681 0.00255903
-0.0123057 -0.00194498 0.00330225
-0.01255 -0.00249322 0.0026296
-0.0131712 -0.00151353 0.00244184
-0.0119405 -0.00312414 0.0025614
-0.00993125 0.00335779 0.00333895
-0.0112269 0.00301893 0.00304962
-0.00988639 0.00275026 0.00397506
-0.0143057 0.000489607 0.00179822
-0.0126596 0.000845615 0.00332963
-0.0132182 0.000885061 0.00266661
-0.014278 0.000768862 0.00180765
-0.0128799 -0.00193552 0.00263788
-0.014306 -0.000763481 0.00172549
-0.014048 -0.00159143 0.00166983
-0.015 0 0
-0.013862 -0.00241146 0.00115617
-0.0141781 -0.00163708 0.00116768
-0.015 0 0
-0.0143556 -0.00114414 0.00120035
-0.0142404 -0.00169225 0.000780808
-0.00627177 0.00411245 0.00288575
-0.00627006 0.00349703 0.00348468
-0.0031972 0.0018202 0.0031925
-0.000529374 0.000511378 0.00126362
-0.00153417 0.000938026 0.00203705
-0.00440887 0.00211776 0.00284982
-0.00430475 0.00215224 0.00213334
-0.00423613 0.00143313 0.00217785
-0.0048672 0.00140057 0.00418088
-0.00308455 0.0012002 0.00321819
-0.00174611 0.000430578 0.00262515
-0.00613284 0.000765052 0.00442281
-0.00303043 0.000580939 0.00322518
-0.0029795 -9.43758e-08 0.00324183
-0.00427659 0.000708389 0.00293855
-0.00136919 0.000460965 0.00150215
-0.00441627 0.000706457 0.00362835
-0.00135339 -1.34174e-05 0.0015078
-0.00143104 0.00148357 0.000958365
0 0 0
-0.00150029 0.0020613 0.000952814
-0.00147797 0.0014589 0.00148889
-0.00870751 0.00346965 0.00347974
-0.0074885 0.00348733 0.00350021
-0.00871148 0.00407368 0.00288267
-0.00510886 0.0027666 0.00399961
-0.00374872 0.00303039 0.00305366
-0.00482072 0.00274956 0.00345661
-0.00503414 0.00337173 0.00334401
-0.0037472 0.00302358 -0.00305911
-0.00510441 0.00271941 -0.00398381
-0.00503177 0.00333837 -0.00335155
-0.00883253 -0.00075872 0.00436402
-0.00888242 -0.00216245 0.00362779
-0.00751999 -0.0022071 0.00367076
-0.00990125 -0.00272248 0.00395455
-0.0112178 -0.0030346 0.00307456
-0.00994338 -0.00333004 0.00333041
-0.0103929 -0.00278269 0.00278325
-0.00881183 -0.00426471 0.00148713
-0.00895878 -0.00146101 0.00371191
-0.009017 -0.00298406 0.00222073
-0.00748203 -0.00302232 0.00228578
-0.00617027 0.00359396 0.00286792
-0.00454698 0.00279051 0.00280884
-0.00315587 0.00315812 0.00181246
-0.00309941 0.00248072 0.00249683
-0.0017547 0.00264824 0.000439001
-0.00302591 0.00323353 7.11037e-06
-0.00479786 0.00420403 0.000703563
-0.0132189 0.0027195 -0.00042055
-0.0126245 0.00335584 -0.000484376
-0.0143022 0.00178905 -0.000249903
-0.00414835 0.00145219 0.00145545
-0.0105413 0.00285974 0.00207845
-0.00907333 0.00304407 0.00149119
-0.0101827 0.004186 0.00071113
-0.011756 0.00181207 0.00318375
-0.0131937 0.00193087 0.00199148
-0.0101387 0.00273761 0.00342628
-0.0118377 0.00247698 0.00247187
-0.00880028 0.00354076 0.00288371
-0.00889357 0.00216757 0.00365563
-0.0074781 0.00220545 0.00365534
-0.0061955 -0.00434871 -0.00150998
-0.0032075 -0.00315168 -0.00182114
-0.00309415 -0.00319643 -0.00120311
-0.0119431 -0.00311614 -0.00255834
-0.0131691 -0.00151991 -0.00243951
-0.00234682 0.00330747 -0.000491807
-0.00066219 0.00184838 6.25945e-06
-0.00175007 0.00264252 -0.000425284
-0.000677217 0.00178076 -0.000236366
-0.0107875 -0.00142657 0.00217938
-0.0120216 6.67705e-06 0.00326348
-0.0090763 -0.00149514 0.00305221
-0.0134558 -0.00211794 0.000913047
-0.010186 -0.00419233 0.000708898
-0.0121168 -0.00257801 0.0012165
-0.0122985 -0.00124369 0.00193354
-0.0105403 -0.00283323 0.00210074
-0.0134458 -0.00092125 0.00206228
-0.0132258 -0.000423834 0.00268325
-0.0133651 -0.00143417 0.00202733
-0.0144616 -0.00049405 0.0012481
-0.013203 -0.00197371 0.00198376
-0.00303431 0.00321521 -0.00057891
-0.00308315 0.00320774 -0.00120337
-0.000522974 0.00128593 -0.000502278
-0.0126103 0.00333593 0.00050236
-0.0143195 0.00186287 6.73968e-07
-0.0131817 0.00268583 0.000436806
-0.00748227 0.00303638 0.00225697
-0.00885351 0.00425494 0.00150306
-0.00900474 0.00300144 0.0022195
-0.00890484 0.00292923 0.00292302
-0.0139343 0.00250897 0.00057946
-0.0142767 0.00168444 0.000476628
-0.015 0 0
-0.0142888 0.00176478 0.000255698
-0.0136901 0.000468624 0.000967878
-0.0108767 0.00143677 0.0014477
-0.0107829 0.00217165 0.00142013
-0.0142887 -0.000247251 -0.00177809
-0.0126062 -0.000847704 -0.00336608
-0.0107875 0.0021929 -0.00143371
-0.0137254 0.000491318 -0.000980001
-0.0136055 0.00152713 -7.27935e-06
-0.0112197 0.00303162 -0.00307621
-0.0122904 0.00193437 -0.00330071
-0.0128672 0.00193838 -0.00265148
-0.0125578 0.00249639 -0.00264084
-0.00269704 -0.00192939 0.00331456
-0.00374818 -0.00301061 0.00307243
-0.00210837 -0.00192111 0.00267956
-0.00241354 -0.00247669 0.00264875
-0.00426525 0.000678375 -0.00289678
-0.0141799 0.00163467 -0.00116683
-0.015 0 0
-0.0143554 0.00114008 -0.00121196
-0.0125568 -0.00248579 -0.00263085
-0.0112202 -0.00304081 -0.00307586
-0.0123052 -0.00194326 -0.00330941
-0.0101992 0.00420663 -0.000704142
-0.0136286 0.000456489 0.00151139
-0.0135534 0.000440699 0.00209495
-0.015 0 0
-0.00413232 0.00143729 -0.00144923
-0.0108787 0.00145237 -0.00145296
-0.00750401 0.00167118 2.29183e-07
-0.0132096 0.000890521 -0.00270597
-0.0126322 0.000865796 -0.00335698
-0.014288 0.000764585 -0.00177662
-0.0143035 0.000488661 -0.0017731
-0.015 0 0
-0.0117374 0.00323156 -0.00181994
-0.0103612 0.00279605 -0.00278775
-0.0101418 0.00272542 -0.00342444
-0.01029 0.00353329 -0.00207033
-0.0108825 -0.00144482 0.00144729
-0.0075053 -1.41753e-06 0.00165876
-0.00413513 -0.00145522 0.00143989
-0.0125693 0.0024734 0.0026288
-0.011956 0.00310272 0.00254073
-0.0140531 0.00160986 0.00167758
-0.0131709 0.00155668 0.00245293
-0.0142864 0.00169568 -0.000470287
-0.0142325 0.001667 -0.000781942
-0.015 0 0
-0.0088912 0.00363554 -0.0021901
-0.00883745 0.00427999 -0.00151657
-0.00993376 0.00334901 -0.00334239
-0.00860922 0.00344364 -0.00401193
-0.00969386 0.00384796 -0.00332381
-0.00140318 -0.00150376 -1.39707e-06
-0.00422185 -0.00216363 -0.00144549
-0.0144606 0.00119209 -0.000517431
-0.0145171 0.000808537 -0.000858977
-0.0131944 0.00197159 -0.00199474
-0.0133594 0.00201441 -0.0014446
-0.0137187 -0.000984499 0.000487299
-0.0121911 -0.00259576 0.000597668
-0.0144598 -0.00124289 0.000511979
-0.015 0 0
-0.0145094 -0.000814204 0.000846065
-0.014545 -0.000871286 0.000531084
-0.00879773 0.00354557 -0.00286463
-0.00748285 0.00347729 -0.00350135
-0.00870372 0.00345883 -0.0034755
-0.00870661 0.00408093 -0.00289588
-0.0144509 0.00116889 0.000528848
-0.0120597 0.00185723 0.00251627
-0.0136048 0.000937751 0.00150796
-0.0121988 0.00191385 0.00185103
-0.00311467 0.00248752 -0.00248678
-0.00176614 0.00199546 -0.00198381
-0.00481568 0.00270481 -0.00344441
-0.00454906 0.00278559 -0.00280176
-0.00750611 0.00367484 -0.00221134
-0.00451038 0.00357781 -0.00139222
-0.00311117 -0.00120857 -0.0032182
-0.00179298 -0.000910744 -0.00265624
-0.00485251 -0.00138291 -0.00417216
-0.00487056 0.00136977 -0.00417072
-0.00174979 0.000441236 -0.00266012
-0.00421867 0.00214486 -0.00145533
-0.00137497 0.00150884 -3.43088e-06
-0.00440128 0.00283492 -0.00212353
-0.00432982 0.00286472 -0.00143506
-0.0014954 0.00204732 -0.000466371
-0.00136077 0.000962817 -0.000973899
-0.00140518 0.000456097 -0.0015072
0 0 0
-0.00148304 0.00149675 -0.00147036
-0.00142903 0.000951611 -0.00150379
0 0 0
-0.00308984 0.0011887 -0.00322087
-0.00318583 0.00181017 -0.00315294
-0.00150558 0.0009577 -0.00206438
-0.000527113 0.000547041 -0.00127184
0 0 0
-0.00131934 -0.000482001 -0.00098067
-0.00139142 -8.94713e-07 -0.00152724
-0.0013763 -0.000491924 -0.0015122
-0.010104 0.0014097 -0.00415968
-0.0120122 0.00184435 -0.00253411
-0.0134731 0.000899869 -0.00211238
-0.0145585 0.000530105 -0.000868217
-0.0144855 0.000253183 -0.00125868
-0.015 0 0
-0.014577 -0.000866929 -0.000258946
-0.00871129 -0.0040692 0.00286699
-0.00749924 -0.0034955 0.00348854
-0.00883259 -0.0035358 0.00286067
-0.00871966 -0.00346313 0.0034561
-0.00299396 2.15935e-06 -0.00326402
-0.00615166 0.000755599 -0.00439792
-0.00442321 0.000686688 -0.00359515
-0.00303362 0.000572466 -0.00323941
-0.00880822 0.000759426 -0.00441118
-0.0122072 0.000594865 -0.00259907
-0.0106379 0.00140148 -0.00288811
-0.0121427 0.00120595 -0.00258106
-0.00412464 -0.00144331 -0.00145882
-0.00748785 -3.7471e-06 -0.00165626
-0.0108522 -0.00145853 -0.00145408
-0.00751323 -0.00166555 -1.82913e-05
-0.0123714 -0.00124606 -0.0012629
-0.0122069 -0.002597 3.89295e-06
-0.00323956 -0.00180392 -0.00320673
-0.00314795 -0.00246185 -0.00251013
-0.0048237 -0.00272368 -0.00345936
-0.00179902 -0.00195653 -0.00200455
-0.00749739 -0.00350568 -0.00351194
-0.00869559 -0.00407488 -0.00287549
-0.00871519 -0.00347137 -0.00346456
-0.0145677 0.000265184 -0.000882761
-0.0146182 0.000262178 -0.000566893
-0.015 0 0
-0.015 0 0
-0.0143216 -0.000478108 -0.00175596
-0.00906882 0.00305919 -0.00151204
-0.00745939 0.00227719 -0.00303727
-0.0089922 0.00222362 -0.00300783
-0.00895245 0.00371759 -0.0014778
-0.015 0 0
-0.0102969 -0.00204972 -0.00350835
-0.0103935 -0.00278883 -0.00278884
-0.0088309 -0.00354796 -0.00286956
-0.00616613 0.00434649 0.00148182
-0.0030909 0.00322648 0.00119859
-0.0044283 0.0036117 0.000707536
-0.0030362 0.00322218 0.000587922
-0.004513 -0.00358392 -0.00139165
-0.00427364 -0.00214719 -0.00216527
-0.0117229 -0.00180403 -0.00324779
-0.0132048 -0.000413339 -0.00270499
-0.015 0 0
-0.0139402 -0.00250299 -0.000569999
-0.0101689 -0.0027089 0.00342352
-0.0117302 -0.00181092 0.00322953
-0.0100767 -0.00140518 0.00414359
-0.0103096 -0.00204763 0.00350637
-0.015 0 0
-0.0142467 -0.00166384 -0.000778119
-0.0142959 -0.00169778 -0.000470982
-0.013492 -0.00209091 -0.000447267
-0.0136831 -0.000948738 -0.000979922
-0.0146179 -0.000554413 -0.000527255
-0.0136127 -0.000953484 -0.00150773
-0.0134562 -0.000936041 -0.00206116
-0.0145721 6.18013e-06 -0.000900155
-0.0139434 -0.00252573 0.000563705
-0.015 0 0
-0.0142912 -0.00173335 0.000469336
-0.00439781 -0.00210896 -0.00287405
-0.00456739 -0.00279254 -0.00282769
-0.00452388 -0.00136213 -0.00358771
-0.0105581 -0.0028691 -0.00208612
-0.0106506 -0.00289644 -0.00139044
-0.0120456 -0.00256347 -0.00185691
-0.0101336 -0.00418629 -0.000709164
-0.00902529 -0.00300354 -0.00223149
-0.00751985 -0.00304538 -0.00227518
-0.00904583 -0.00150619 -0.00307098
-0.00894431 -0.00146915 -0.00371603
-0.00751216 -0.00221354 -0.00364287
-0.0088848 -0.00217433 -0.00362814
-0.00881956 -0.000758227 -0.0043661
-0.0145608 -0.000894709 0.000258831
-0.0145566 -0.000900701 2.40188e-06
-0.015 0 0
-0.0146178 -0.000574133 0.000259501
-0.0126304 -0.00335456 -0.000507473
-0.0143155 -0.00176178 -0.000249556
-0.013256 -0.0027193 -0.00044705
-0.0143108 -0.00179698 0.000238472
-0.0143447 -0.00184531 -8.45598e-06
-0.0132496 -0.00274133 0.000430796
-0.0126465 -0.00336661 0.000503007
-0.0144649 -0.000497652 -0.00123028
-0.0133809 -0.00142307 -0.00203873
-0.015 0 0
-0.0142828 4.42884e-06 -0.00175753
-0.013951 0.000204457 -0.00255297
-0.0143127 0.000222579 -0.00174732
-0.0145544 -0.000838635 -0.000517327
-0.0145223 -0.000832354 -0.000840581
-0.0144739 -0.00120789 -0.000506363
-0.015 0 0
-0.0128869 -0.00192719 -0.00264809
-0.0132169 -0.00195469 -0.00199959
-0.0143018 -0.000768848 -0.00172118
-0.0143641 -0.0011393 -0.00119974
-0.015 0 0
-0.0138631 -0.00239643 -0.00115315
-0.014053 -0.00158621 -0.00166734
-0.0141822 -0.00161808 -0.00116821

CELL_DATA 236
TENSORS stress float
-5007.96 -329.819 293.734
-329.819 -913.782 39.7113
293.734 39.7113 -301.725

-3946.96 64.0798 -18.5882
64.0798 118.731 135.304
-18.5882 135.304 286.15

-5436.69 -1203.78 1204.92
-1203.78 -2144.06 -262.927
1204.92 -262.927 -2613.05

-5062.76 91.8779 -177.282
91.8779 -1128 17.1651
-177.282 17.1651 -1075.59

-4855.96 -1086.65 -1007.1
-1086.65 -2406.23 106.843
-1007.1 106.843 -2610.54

-4835.43 512.834 -1165.34
512.834 -3020.68 -37.5847
-1165.34 -37.5847 -2377.31

-4896.33 -334.161 -515.708
-334.161 -2377.34 -2.02828
-515.708 -2.02828 -2263.19

-4366.01 59.3577 -81.7622
59.3577 -251.038 15.391
-81.7622 15.391 -270.006

-4938.13 121.975 208.699
121.975 -1072.69 -72.6298
208.699 -72.6298 -980.859

-4717.52 -177.49 -346.319
-177.49 -2322.78 6.83365
-346.319 6.83365 -2176.79

-3788.96 -50.9391 19.7056
-50.9391 105.114 100.736
19.7056 100.736 106.306

-4704.03 -371.485 -1206.74
-371.485 -3033.11 62.1428
-1206.74 62.1428 -2382.05

-4561.15 287.016 -518.561
287.016 -1671.4 11.2131
-518.561 11.2131 -870.054

-4996.44 -322.498 -284.491
-322.498 -910.808 -47.2709
-284.491 -47.2709 -303.012

-4472.45 -79.2957 -10.8169
-79.2957 -28.3138 -43.8242
-10.8169 -43.8242 -217.441

-4039.62 -12.7297 -79.1488
-12.7297 170.677 -142.91
-79.1488 -142.91 14.6082

-3776.29 58.3867 13.4041
58.3867 101.076 -98.219
13.4041 -98.219 111.401

-4582.1 500.084 88.0833
500.084 -982.455 10.7448
88.0833 10.7448 -1673.18

-4934.36 51.2307 39.6992
51.2307 -265.313 -105.913
39.6992 -105.913 -208.157

-4946.44 -535.152 -644.532
-535.152 -1616.52 -48.222
-644.532 -48.222 -1295.04

-4054.39 -7.19521 54.4003
-7.19521 164.204 -130.155
54.4003 -130.155 15.4376

-4856.11 550.005 -1171.55
550.005 -3050.04 -33.5036
-1171.55 -33.5036 -2474.95

-5028.79 184.974 -1378.98
184.974 -3157.47 -62.5441
-1378.98 -62.5441 -1923.61

-4220.18 174.765 -40.298
174.765 -201.546 53.5392
-40.298 53.5392 65.6541

-4993.27 41.5684 80.1386
41.5684 -530.022 -51.5277
80.1386 -51.5277 -449.863

-5398.55 -1210.77 -1204.16
-1210.77 -2145.78 248.6
-1204.16 248.6 -2599.82

-3961.07 -44.4011 37.8352
-44.4011 70.6115 133.51
37.8352 133.51 224.593

-4854.86 531.802 -274.548
531.802 -1779.05 19.5848
-274.548 19.5848 -2098.7

-4896.79 -259.708 -183.781
-259.708 -862.608 -45.1462
-183.781 -45.1462 -912.666

-4821.22 -1062.58 -1034.45
-1062.58 -2312.95 117.583
-1034.45 117.583 -2571.45

-4844.3 -390.489 -217.671
-390.489 -1111.38 -43.3394
-217.671 -43.3394 -1329.75

-4466.23 -63.3343 -88.1438
-63.3343 -133.8 -163.007
-88.1438 -163.007 -90.655

-5009.46 199.153 -1358.21
199.153 -3133.04 -67.0666
-1358.21 -67.0666 -1952.76

-4850.82 -182.262 -122.317
-182.262 -519.371 -70.121
-122.317 -70.121 -715.677

-4825.99 -1072.18 1024.55
-1072.18 -2398.48 -105.124
1024.55 -105.124 -2618.79

-4074.72 4.3995 -53.9507
4.3995 143.474 148.988
-53.9507 148.988 -16.2754

-4874.77 -80.304 -15.384
-80.304 -325.643 -61.6893
-15.384 -61.6893 -431.89

-4409.4 -0.138444 51.5567
-0.138444 -206.435 66.5253
51.5567 66.5253 -13.7003

-4249.41 -210.28 -31.1125
-210.28 -196.266 -54.5313
-31.1125 -54.5313 57.5883

-3773.42 75.5323 11.0543
75.5323 97.8389 -98.2328
11.0543 -98.2328 111.714

-4521.95 41.8278 -79.4665
41.8278 -195.613 148.926
-79.4665 148.926 -161.805

-4657.78 -426.503 -510.808
-426.503 -1567.57 -29.9473
-510.808 -29.9473 -953.571

-4222.6 190.503 32.118
190.503 -188.403 -48.4759
32.118 -48.4759 68.2725

-4835.12 38.1987 -225.923
38.1987 -979.351 39.3991
-225.923 39.3991 -859.194

-4827.13 1088.78 -1006.28
1088.78 -2386.78 -107.121
-1006.28 -107.121 -2582.86

-5389.42 -1206.04 1207.36
-1206.04 -2145.05 -250.214
1207.36 -250.214 -2605.28

-4514.8 499.037 350.906
499.037 -2911.99 2.91477
350.906 2.91477 -3020.23

-4974.33 325.844 -283.524
325.844 -892.304 47.5354
-283.524 47.5354 -313.779

-5381.7 1198.72 -1203.76
1198.72 -2131.69 -233.932
-1203.76 -233.932 -2589.81

-4896.61 522.127 1165.3
522.127 -3091.73 54.5149
1165.3 54.5149 -2509.44

-4559.66 155.623 94.8195
155.623 -343.381 -114.554
94.8195 -114.554 -363.096

-4850.59 520.107 -655.417
520.107 -1597.76 33.864
-655.417 33.864 -1249.06

-4814.86 1066.99 1018.01
1066.99 -2383.08 100.167
1018.01 100.167 -2604.14

-4751.89 -377.593 -1190.4
-377.593 -3063.93 49.3736
-1190.4 49.3736 -2445.82

-5023.7 -184.804 -1352.38
-184.804 -3247.88 29.6832
-1352.38 29.6832 -1952.4

-4999.01 190.433 1339.83
190.433 -3147.65 72.306
1339.83 72.306 -1933.46

-3942.32 56.3415 33.744
56.3415 106.188 -133.104
33.744 -133.104 257.261

-4981.32 324.996 275.546
324.996 -890.716 -43.0575
275.546 -43.0575 -325.875

-4412.56 -171.103 -46.9193
-171.103 -279.031 -37.5679
-46.9193 -37.5679 -271.104

-4900.49 1143.55 -503.462
1143.55 -2572.48 -58.8443
-503.462 -58.8443 -3102.56

-4965.77 1387.95 -311.341
1387.95 -1856.09 -109.894
-311.341 -109.894 -3097.47

-4680.06 -114.843 -356.812
-114.843 -1333.92 -3.36799
-356.812 -3.36799 -1059.04

-4973.78 -1389.94 -311.682
-1389.94 -1864.61 110.077
-311.682 110.077 -3094.85

-4859.5 235.302 19.7613
235.302 -904.14 -21.7184
19.7613 -21.7184 -974.772

-4560.5 301.289 478.918
301.289 -1676.57 8.61973
478.918 8.61973 -908.342

-4598.01 -493.875 -89.18
-493.875 -985.16 16.1593
-89.18 16.1593 -1684.17

-4656.17 -428.16 515.762
-428.16 -1562.73 19.2643
515.762 19.2643 -954.038

-4760.98 342.118 287.446
342.118 -1113.45 -78.9293
287.446 -78.9293 -1311.19

-4948.82 1384.76 327.997
1384.76 -1836.85 96.1384
327.997 96.1384 -3074.93

-4784.03 1135.48 534.343
1135.48 -2460.3 37.7753
534.343 37.7753 -2982.53

-4375.83 -62.9246 -78.7822
-62.9246 -251.021 -12.7416
-78.7822 -12.7416 -272.939

-4559.48 306.072 -485.469
306.072 -1666.24 18.8762
-485.469 18.8762 -918.763

-4835.86 523.844 647.832
523.844 -1556.98 -14.649
647.832 -14.649 -1242.17

-5387.46 1187.91 1201.47
1187.91 -2135.43 234.128
1201.47 234.128 -2609.13

-4934 -536.61 635.777
-536.61 -1606.9 30.7645
635.777 30.7645 -1315.91

-4990.39 -322.766 282.107
-322.766 -913.267 45.7207
282.107 45.7207 -311.434

-4624.4 -68.2105 -59.0712
-68.2105 -162.593 -113.023
-59.0712 -113.023 -252.923

-4723.9 -1097.61 -516.85
-1097.61 -2268.86 43.4663
-516.85 43.4663 -2849.23

-4593.1 334.131 257.118
334.131 -2061.63 11.0621
257.118 11.0621 -2127.13

-4946.35 -526.558 -633.901
-526.558 -1610.93 -28.5953
-633.901 -28.5953 -1310.51

-4232.46 -195.379 -38.8573
-195.379 -189.589 -55.4613
-38.8573 -55.4613 49.5827

-3798.37 -54.6174 31.3864
-54.6174 82.4675 82.3471
31.3864 82.3471 112.178

-4737.18 -105.522 379.795
-105.522 -1322.86 45.6343
379.795 45.6343 -1019.47

-4983.76 -146.044 248.66
-146.044 -1692.17 11.9978
248.66 11.9978 -1511.09

-4811.84 -370.782 1187.3
-370.782 -3112.37 -56.5089
1187.3 -56.5089 -2484.92

-5027.01 177.07 1354.91
177.07 -3143 56.5177
1354.91 56.5177 -1899.41

-4746.44 -115.142 -353.3
-115.142 -1358.02 -55.8976
-353.3 -55.8976 -1103.8

-4377.58 0.891306 -117.551
0.891306 -110.46 36.4722
-117.551 36.4722 102.803

-4408.58 -176.457 60.2702
-176.457 -265.485 30.8559
60.2702 30.8559 -271.409

-4962.91 -1142.46 -501.969
-1142.46 -2623.51 56.4383
-501.969 56.4383 -3157.69

-4817.69 1139.82 -505.836
1139.82 -2418.95 -30.9369
-505.836 -30.9369 -2980.05

-5052.15 -1376.35 322.791
-1376.35 -1843.55 -78.8207
322.791 -78.8207 -3156.39

-4722.71 -185.532 120.298
-185.532 -470.706 120.229
120.298 120.229 -608.33

-4586.87 -497.769 92.4855
-497.769 -983.491 -3.94847
92.4855 -3.94847 -1670.39

-3787.85 64.6667 -23.0517
64.6667 92.5648 97.8238
-23.0517 97.8238 120.501

-4777.35 -1132.6 545.862
-1132.6 -2460.32 -38.0445
545.862 -38.0445 -2981.08

-4065.38 -15.7128 -66.1821
-15.7128 156.656 140.032
-66.1821 140.032 14.7573

-4400.81 -79.2626 15.8647
-79.2626 56.1599 40.9749
15.8647 40.9749 -135.746

-4530.55 -177.162 96.7114
-177.162 -349.513 119.199
96.7114 119.199 -374.156

-4752.43 -325.344 209.302
-325.344 -711.31 78.3045
209.302 78.3045 -971.006

-5419.77 -1203.91 -1200.66
-1203.91 -2140.08 255.545
-1200.66 255.545 -2624.16

-4171.99 59.1894 -163.095
59.1894 375.364 -85.0246
-163.095 -85.0246 151.198

-5025.16 -175.504 1346.61
-175.504 -3258.6 -42.795
1346.61 -42.795 -1942.97

-3783.35 -63.0705 -23.1204
-63.0705 95.2576 -104.278
-23.1204 -104.278 122.362

-4941.8 -1381.33 337.717
-1381.33 -1836.51 -95.1386
337.717 -95.1386 -3072.13

-3790.49 -61.9042 -22.5882
-61.9042 89.1808 -85.8957
-22.5882 -85.8957 125.282

-4879.82 -99.3185 60.4412
-99.3185 -342.133 117.776
60.4412 117.776 -455.513

-4896.67 -80.1981 29.5123
-80.1981 -329.091 46.1236
29.5123 46.1236 -415.053

-4453.1 -55.6707 8.34703
-55.6707 2.79482 -139.739
8.34703 -139.739 301.414

-4367.13 -56.0564 85.1248
-56.0564 -251.895 20.0027
85.1248 20.0027 -306.231

-4515.98 -44.592 0.841184
-44.592 95.6033 129.666
0.841184 129.666 -22.3948

-4484.95 -41.7524 42.7016
-41.7524 -125.925 168.006
42.7016 168.006 -96.5117

-4954.45 -41.4434 45.1826
-41.4434 -294.111 97.3775
45.1826 97.3775 -238.572

-5014.68 -78.4043 209.836
-78.4043 -1118.53 41.0652
209.836 41.0652 -1020.79

-4789.92 -171.197 261.802
-171.197 -885.411 78.2363
261.802 78.2363 -707.909

-4628.75 -334.013 269.381
-334.013 -2113.63 -12.7981
269.381 -12.7981 -2159.17

-4859.5 -238.561 40.8713
-238.561 -885.09 20.5338
40.8713 20.5338 -966.833

-4937.6 -510.36 425.303
-510.36 -2309.45 -1.91784
425.303 -1.91784 -2342.22

-4732.23 -340.636 280.522
-340.636 -1088.86 92.6228
280.522 92.6228 -1262.42

-4482.11 -65.7066 -5.16405
-65.7066 -28.2879 -43.2079
-5.16405 -43.2079 -200.373

-5015.22 -185.305 -1375.57
-185.305 -3255.21 40.951
-1375.57 40.951 -1916.02

-4247.22 202.716 -68.2082
202.716 -213.595 58.7402
-68.2082 58.7402 57.0826

-4994.98 338.521 -285.572
338.521 -886.931 41.9316
-285.572 41.9316 -312.068

-4074.7 -2.51497 37.2478
-2.51497 141.642 -131.85
37.2478 -131.85 23.4321

-4649.74 -430.473 -512.897
-430.473 -1591.25 -10.9564
-512.897 -10.9564 -976.848

-4922.01 523.077 -647.503
523.077 -1588.71 18.7523
-647.503 18.7523 -1275.13

-5427.18 1195.26 -1198.79
1195.26 -2133.99 -242.847
-1198.79 -242.847 -2606.51

-4783.53 1061.6 -1003.02
1061.6 -2294.86 -110.575
-1003.02 -110.575 -2540.76

-3935.9 -57.0582 -21.2759
-57.0582 110.136 -139.589
-21.2759 -139.589 279.879

-4732.52 264.97 367.542
264.97 -1235.21 -39.4956
367.542 -39.4956 -1037.78

-4760.18 189.514 237.783
189.514 -878.866 -89.6924
237.783 -89.6924 -774.893

-4799.5 6.6314 48.8945
6.6314 -110.956 -107.982
48.8945 -107.982 -226.341

-4358.47 93.229 50.0288
93.229 -277.126 -28.6384
50.0288 -28.6384 -266.768

-4379.83 7.32409 0.0895231
7.32409 13.8859 -51.678
0.0895231 -51.678 -148.676

-4962.7 31.869 238.803
31.869 -1070.16 -39.1009
238.803 -39.1009 -1031.45

-4923.76 506.589 431.004
506.589 -2261.85 -4.49157
431.004 -4.49157 -2343.59

-3939.11 49.8281 30.9913
49.8281 112.214 -118.237
30.9913 -118.237 227.132

-4082.39 20.9481 -65.4283
20.9481 166.829 -143.699
-65.4283 -143.699 13.7536

-4072.7 1.45936 58.9072
1.45936 188.74 133.713
58.9072 133.713 14.8009

-4412.95 -20.282 71.198
-20.282 119.336 152.16
71.198 152.16 45.3792

-4346.13 -9.39853 75.5634
-9.39853 356.111 110.959
75.5634 110.959 -124.483

-4038.06 -6.34821 79.0383
-6.34821 164.562 133.363
79.0383 133.363 5.91601

-4429.98 -32.1901 -7.15756
-32.1901 74.7425 139.101
-7.15756 139.101 326.338

-4627.57 0.645819 -6.59721
0.645819 185.023 177.897
-6.59721 177.897 179.125

-4476.14 33.4064 44.4702
33.4064 -106.606 -158.357
44.4702 -158.357 -106.718

-4363.04 56.8683 81.2383
56.8683 -254.515 -19.4595
81.2383 -19.4595 -296.504

-4606.72 -541.059 65.1356
-541.059 -1016.94 -11.7396
65.1356 -11.7396 -1704.93

-5266.38 -4.50767 -3.97373
-4.50767 -420.06 -60.3928
-3.97373 -60.3928 -418.392

-4555.28 67.8985 -29.8837
67.8985 78.7387 -85.5632
-29.8837 -85.5632 254.737

-4564.04 -156.948 -107.548
-156.948 -368.752 -122.323
-107.548 -122.323 -353.908

-4339.62 24.3805 25.6752
24.3805 223.686 -206.413
25.6752 -206.413 136.794

-4399.51 -12.9144 -113.204
-12.9144 -144.875 -61.8561
-113.204 -61.8561 75.0655

-4997.84 338.296 285.6
338.296 -889.23 -37.4632
285.6 -37.4632 -308.011

-4584.2 496.648 -91.5553
496.648 -977.343 -14.5507
-91.5553 -14.5507 -1687.27

-4861.32 8.6111 -86.1789
8.6111 -399.305 69.2944
-86.1789 69.2944 -288.254

-4628.49 93.8624 -157.506
93.8624 -473.688 33.6337
-157.506 33.6337 -468.038

-4903.44 125.321 -203.587
125.321 -758.618 92.199
-203.587 92.199 -637.796

-4826.2 195.928 -308.856
195.928 -1091.6 64.896
-308.856 64.896 -846.475

-4811.07 456.444 -588.34
456.444 -1801.84 30.4683
-588.34 30.4683 -1644.57

-4806.28 378.002 -222.048
378.002 -1108.62 40.8861
-222.048 40.8861 -1319.99

-4632.17 -554.21 -62.7835
-554.21 -996.091 -9.16327
-62.7835 -9.16327 -1725.21

-4422.67 29.3411 13.7235
29.3411 98.5009 -147.173
13.7235 -147.173 374.054

-5023.53 -1369.4 -332.769
-1369.4 -1781.9 88.6749
-332.769 88.6749 -3110.84

-4972.12 -525.788 634.964
-525.788 -1638.02 31.5669
634.964 31.5669 -1332.82

-5065.23 -183.311 -100.895
-183.311 -1078.68 -36.3724
-100.895 -36.3724 -1131.94

-4548.19 294.112 515.096
294.112 -1635.89 -5.97171
515.096 -5.97171 -831.663

-4770.06 -418.684 497.867
-418.684 -1974.34 6.59052
497.867 6.59052 -1700.4

-5055.52 -177.222 107.955
-177.222 -1044.78 17.1978
107.955 17.1978 -1104.51

-4222.45 -205.362 53.1337
-205.362 -167.449 61.6437
53.1337 61.6437 80.0393

-4224.15 -202.448 28.9374
-202.448 -180.085 56.5777
28.9374 56.5777 49.0916

-4935.23 51.8968 -46.7202
51.8968 -243.493 102.041
-46.7202 102.041 -284.796

-4792.89 -1057.33 1017.07
-1057.33 -2285.43 -128.98
1017.07 -128.98 -2539.83

-4256.33 211.075 64.4879
211.075 -215.853 -64.7683
64.4879 -64.7683 55.2302

-4276.81 84.1656 17.5757
84.1656 33.7414 93.9579
17.5757 93.9579 410.288

-4896.72 -324.886 -518.099
-324.886 -2439.58 10.8804
-518.099 10.8804 -2256.36

-5272.71 0.522466 1.63008
0.522466 -431.758 54.3243
1.63008 54.3243 -426.207

-4626.58 -445.635 523.72
-445.635 -1571.61 9.43388
523.72 9.43388 -950.699

-4721.39 -373.261 1186.91
-373.261 -3029.72 -49.5333
1186.91 -49.5333 -2369.69

-4397.46 52.2054 11.5596
52.2054 124.785 154.548
11.5596 154.548 128.333

-5281.5 5.47198 3.28319
5.47198 -439.571 54.4148
3.28319 54.4148 -427.841

-5005.61 -326.153 -278.401
-326.153 -912.611 -41.0046
-278.401 -41.0046 -309.713

-4786.04 -1106.45 508.37
-1106.45 -2356.57 -34.1121
508.37 -34.1121 -2927.12

-4267.75 48.974 -21.6971
48.974 -95.818 114.524
-21.6971 114.524 345.068

-3776.96 71.3456 -19.3697
71.3456 91.2703 101.786
-19.3697 101.786 122.975

-5063.75 -182.28 -97.8567
-182.28 -1099.94 -28.9191
-97.8567 -28.9191 -1123.89

-4806.54 -599.826 436.48
-599.826 -1695.27 40.1189
436.48 40.1189 -1792.2

-4867.81 236.036 -144.247
236.036 -1401.93 11.9976
-144.247 11.9976 -1574.16

-4685.99 690.248 -564.365
690.248 -2888.42 16.6423
-564.365 16.6423 -3032.25

-3922.46 52.0522 -24.9208
52.0522 114.71 107.885
-24.9208 107.885 272.497

-4849.33 -396.633 -290.743
-396.633 -1241.14 -78.2821
-290.743 -78.2821 -1303.86

-4580.53 130.566 -107.392
130.566 -367.154 105.475
-107.392 105.475 -362.19

-4515.13 17.8067 -33.0302
17.8067 -34.2036 134.327
-33.0302 134.327 110.992

-4394.84 -166.125 -59.6802
-166.125 -260.057 -41.9207
-59.6802 -41.9207 -259.374

-4393.27 80.3055 -38.3141
80.3055 -328.765 39.2736
-38.3141 39.2736 -301.492

-5014.75 216.88 -85.023
216.88 -1037.77 50.8642
-85.023 50.8642 -1113.8

-4793.23 271.779 -173.163
271.779 -744.854 88.9427
-173.163 88.9427 -876.652

-4640.93 267.976 -334.535
267.976 -2166.11 -1.79037
-334.535 -1.79037 -2098.22

-4903.86 416.068 -508.152
416.068 -2304.72 5.23759
-508.152 5.23759 -2268.1

-4684.19 265.069 -346.997
265.069 -1203.87 79.6846
-346.997 79.6846 -1037.61

-4759.23 -185.272 -356.321
-185.272 -2315.03 9.31982
-356.321 9.31982 -2210.87

-4662.62 -175.484 70.0778
-175.484 -530.049 72.9179
70.0778 72.9179 -555.726

-4736.96 -397.146 702.668
-397.146 -3216.21 -13.6511
702.668 -13.6511 -2962.75

-4906.59 515.323 122.304
515.323 -1759.17 -33.6568
122.304 -33.6568 -2189.35

-3958.61 -46.8406 39.9395
-46.8406 89.1824 111.368
39.9395 111.368 211.746

-4335.73 23.6927 18.9351
23.6927 44.8662 59.3055
18.9351 59.3055 -36.8162

-4619.33 -82.9152 47.4267
-82.9152 -141.072 65.2014
47.4267 65.2014 -289.149

-5264.46 0.521114 -2.75511
0.521114 -422.806 -48.9009
-2.75511 -48.9009 -428.127

-5014.26 145.773 105.59
145.773 -837.673 -38.7484
105.59 -38.7484 -885.235

-4538.78 -165.105 -122.882
-165.105 -356.283 -123.229
-122.882 -123.229 -364.688

-3953.28 -59.6498 -14.6867
-59.6498 84.5323 -110.537
-14.6867 -110.537 221.848

-4492.26 -198.486 507.307
-198.486 -3043.71 -1.73134
507.307 -1.73134 -2858.14

-4772.32 515.14 1156.43
515.14 -2948.12 48.5961
1156.43 48.5961 -2324.74

-4592.27 -1.67032 -10.1786
-1.67032 226.726 180.478
-10.1786 180.478 238.275

-4779 1050.33 999.912
1050.33 -2313.32 120.121
999.912 120.121 -2535.62

-4387.93 -22.4486 -73.7863
-22.4486 134.26 -161.86
-73.7863 -161.86 53.3804

-4432.73 6.59735 59.012
6.59735 -222.143 -66.8458
59.012 -66.8458 -33.5431

-4721.92 -45.8379 -60.0513
-45.8379 -83.6959 -140.762
-60.0513 -140.762 0.720363

-4805.56 217.632 299.241
217.632 -1096.01 -90.3805
299.241 -90.3805 -815.564

-4957.54 1366.06 326.576
1366.06 -1795.1 90.5838
326.576 90.5838 -3077.89

-4201.41 50.2099 154
50.2099 322.928 91.5791
154 91.5791 119.504

-4750.62 1112.24 506.654
1112.24 -2364.86 36.9922
506.654 36.9922 -2929.87

-4952.49 253.737 228.116
253.737 -1168.24 -50.973
228.116 -50.973 -1243.17

-4990.37 219.021 486.243
219.021 -2267.18 -31.3803
486.243 -31.3803 -2081.17

-4970.89 1393.91 -319.471
1393.91 -1824.38 -92.1431
-319.471 -92.1431 -3085.5

-4527.02 -38.2772 6.40502
-38.2772 85.5725 -135.588
6.40502 -135.588 -68.3382

-4567.55 -47.4992 63.6205
-47.4992 -34.8429 -75.1898
63.6205 -75.1898 134.482

-4615.11 8.44939 -8.06402
8.44939 168.119 -194.18
-8.06402 -194.18 122.909

-4247.7 -10.7374 -92.8343
-10.7374 491.735 -115.455
-92.8343 -115.455 1.06216

-4569.79 502.979 -202.991
502.979 -2929.98 -3.75034
-202.991 -3.75034 -3115.73

-4530.04 542.87 78.9496
542.87 -969.433 -13.9708
78.9496 -13.9708 -1659.26

-4560.43 536.294 -83.7411
536.294 -1033.91 -19.3179
-83.7411 -19.3179 -1686.23

-4873.18 459.078 584.779
459.078 -1896.98 -38.4932
584.779 -38.4932 -1727.54

-5028.48 -186.506 1355.25
-186.506 -3257.89 -37.3901
1355.25 -37.3901 -1911.96

-4770.55 680.262 553.713
680.262 -2984.9 13.4868
553.713 13.4868 -3116.53

-4916.07 524.51 652.774
524.51 -1585.77 -13.1383
652.774 -13.1383 -1273.78

-5430.54 1189.99 1198.78
1189.99 -2135.55 249.769
1198.78 249.769 -2616.52

