# vtk DataFile Version 3.0
vtk output at time 0.1
ASCII
DATASET UNSTRUCTURED_GRID
POINTS 1524 float
0 0 0 0 0 0.05 0 0 0.1 
0 0 0.15 0 0 0.2 0 0.05 0 
0 0.05 0.05 0 0.05 0.1 0 0.05 0.15 
0 0.05 0.2 0 0.1 0 0 0.1 0.05 
0 0.1 0.1 0 0.1 0.15 0 0.1 0.2 
0 0.15 0 0 0.15 0.05 0 0.15 0.1 
0 0.15 0.15 0 0.15 0.2 0 0.2 0 
0 0.2 0.05 0 0.2 0.1 0 0.2 0.15 
0 0.2 0.2 0.0485499 -0.0012197 -0.00127653 0.0488015 -0.00132568 0.0493736 
0.0488514 -0.00134503 0.100003 0.0488018 -0.00132887 0.150626 0.0485538 -0.00122487 0.201271 
0.0487961 0.0493765 -0.00133393 0.0487933 0.0493746 0.20134 0.0488519 0.100005 -0.00138425 
0.0488565 0.100007 0.201376 0.0487972 0.15062 -0.0013242 0.0487925 0.150625 0.201334 
0.0485548 0.201213 -0.00127539 0.0487977 0.201332 0.0493689 0.0488527 0.201347 0.100001 
0.0488 0.201333 0.150626 0.0485533 0.201224 0.201268 0.0975075 -0.00140936 -0.00141492 
0.0975062 -0.00147919 0.0492153 0.0974984 -0.0016083 0.0999995 0.0974834 -0.00149385 0.150771 
0.0975068 -0.00141499 0.201403 0.0975153 0.0492147 -0.00145934 0.0975146 0.0492135 0.201466 
0.0974945 0.100007 -0.00162865 0.0975097 0.0999931 0.201615 0.0974701 0.150774 -0.00147858 
0.0974619 0.150761 0.201461 0.0975038 0.201399 -0.00141462 0.0974998 0.201471 0.0492092 
0.0975133 0.201615 0.100001 0.0974911 0.201493 0.15078 0.0975072 0.201405 0.201417 
0.146447 -0.00121948 -0.00127277 0.146214 -0.0013601 0.0493801 0.14614 -0.00139462 0.0999997 
0.146196 -0.00134499 0.150629 0.146445 -0.0012202 0.201271 0.146236 0.0493792 -0.00135962 
0.146236 0.04938 0.201354 0.146123 0.100009 -0.00140075 0.146122 0.100015 0.201392 
0.146205 0.150625 -0.00133197 0.146205 0.150628 0.201327 0.146451 0.20122 -0.00127377 
0.14623 0.201356 0.0493646 0.146134 0.201372 0.100009 0.146204 0.201377 0.150613 
0.146452 0.201226 0.201268 0.195 0 0 0.195 0 0.05 
0.195 0 0.1 0.195 0 0.15 0.195 0 0.2 
0.195 0.05 0 0.195 0.05 0.05 0.195 0.05 0.1 
0.195 0.05 0.15 0.195 0.05 0.2 0.195 0.1 0 
0.195 0.1 0.05 0.195 0.1 0.1 0.195 0.1 0.15 
0.195 0.1 0.2 0.195 0.15 0 0.195 0.15 0.05 
0.195 0.15 0.1 0.195 0.15 0.15 0.195 0.15 0.2 
0.195 0.2 0 0.195 0.2 0.05 0.195 0.2 0.1 
0.195 0.2 0.15 0.195 0.2 0.2 0 0 0.0166667 
0 0 0.0333333 0 0.0166667 0 0 0.0333333 0 
0.0159771 -0.00069597 -0.000909433 0.032187 -0.00105693 -0.00107462 0.016299 -0.00079593 0.0161029 
0.0324354 -0.00106817 0.0326484 0 0 0.0666667 0 0 0.0833333 
0 0.0166667 0.0333333 0 0.0333333 0.0166667 0 0.0166667 0.05 
0 0.0333333 0.05 0 0.0166667 0.0666667 0 0.0333333 0.0833333 
0.0163701 -0.000839713 0.0497251 0.0325344 -0.0011285 0.0495258 0 0 0.116667 
0 0 0.133333 0 0.0166667 0.1 0 0.0333333 0.1 
0.0163678 -0.000876071 0.0832279 0.0325484 -0.00112661 0.0663596 0.0163768 -0.000839017 0.100005 
0.0326054 -0.00116382 0.100004 0.0163673 -0.000872126 0.116781 0.0325469 -0.00112511 0.133646 
0 0 0.166667 0 0 0.183333 0 0.0166667 0.133333 
0 0.0333333 0.116667 0 0.0166667 0.15 0 0.0333333 0.15 
0 0.0166667 0.166667 0 0.0333333 0.183333 0.0163702 -0.000831658 0.150276 
0.0325336 -0.00112365 0.150479 0 0.0166667 0.2 0 0.0333333 0.2 
0.0162997 -0.00079448 0.183896 0.0324366 -0.00106532 0.167352 0.0159776 -0.000696756 0.200907 
0.0321891 -0.00105896 0.201071 0 0.05 0.0166667 0 0.05 0.0333333 
0 0.0666667 0 0 0.0833333 0 0 0.0666667 0.0166667 
0 0.0833333 0.0333333 0.0161999 0.0330029 -0.000834638 0.0323565 0.0158069 -0.00110329 
0.0164474 0.0329371 0.0160854 0.0326722 0.0157936 0.0326637 0.0163543 0.0497585 -0.000818728 
0.032577 0.0495435 -0.00116968 0.0163796 0.0665531 -0.000858493 0.0325725 0.0831967 -0.00116455 
0 0.05 0.0666667 0 0.05 0.0833333 0 0.0666667 0.05 
0 0.0833333 0.05 0.0164869 0.0329045 0.0497295 0.0327374 0.015767 0.0495336 
0.0164766 0.0497162 0.0329035 0.0327245 0.049525 0.015748 0.0165045 0.0664888 0.0328921 
0.0327794 0.083182 0.01574 0.0327877 0.0326503 0.0495079 0.0651476 0.0154319 0.0492779 
0.032827 0.032632 0.066349 0.0651921 0.0153952 0.0830968 0.0328067 0.0495068 0.0326306 
0.0651399 0.0492904 0.0154242 0.0328321 0.066334 0.0326282 0.0651861 0.0831051 0.0153956 
0 0.05 0.116667 0 0.05 0.133333 0 0.0666667 0.0833333 
0 0.0833333 0.0666667 0 0.0666667 0.1 0 0.0833333 0.1 
0 0.0666667 0.116667 0 0.0833333 0.133333 0.0165036 0.0328912 0.0832536 
0.0327686 0.0157453 0.0663555 0.0165015 0.0328828 0.100006 0.0327624 0.0157358 0.100004 
0.0165084 0.03289 0.116762 0.0327736 0.0157408 0.133658 0.0328477 0.0326221 0.100003 
0.0652163 0.0153834 0.100008 0.0328451 0.0326179 0.116829 0.0651834 0.0154131 0.133808 
0.0328865 0.0663271 0.0663314 0.0652484 0.0830944 0.0323155 0 0.05 0.166667 
0 0.05 0.183333 0 0.0666667 0.15 0 0.0833333 0.15 
0.0164937 0.0329125 0.150287 0.032747 0.015774 0.150476 0.0164791 0.0497202 0.1671 
0.0327247 0.0495271 0.184258 0.0165018 0.0664902 0.167108 0.032776 0.0831841 0.18426 
0.0328176 0.0326492 0.150507 0.0651559 0.0154409 0.150711 0.0328098 0.0495129 0.167376 
0.0651356 0.0492848 0.184581 0.0328319 0.0663424 0.167376 0.0651896 0.0830954 0.184608 
0 0.0666667 0.183333 0 0.0833333 0.166667 0 0.0666667 0.2 
0 0.0833333 0.2 0.0164494 0.0329366 0.183919 0.0326774 0.0157967 0.167338 
0.0162002 0.0330002 0.200839 0.0323585 0.0158035 0.201103 0.0163528 0.0497575 0.200821 
0.0325747 0.0495431 0.201174 0.0163782 0.0665544 0.200859 0.0325706 0.0832011 0.201164 
0 0.1 0.0166667 0 0.1 0.0333333 0 0.116667 0 
0 0.133333 0 0.0163453 0.100004 -0.000885453 0.0325131 0.0999898 -0.00112514 
0 0.1 0.0666667 0 0.1 0.0833333 0 0.116667 0.0333333 
0 0.133333 0.0166667 0 0.116667 0.05 0 0.133333 0.05 
0 0.116667 0.0666667 0 0.133333 0.0833333 0.0165096 0.0999983 0.0328805 
0.0327937 0.0999987 0.0157174 0.0165026 0.116759 0.0328889 0.032762 0.133648 0.0157472 
0.0328554 0.0999991 0.0326047 0.0652067 0.1 0.0153877 0.0328464 0.116822 0.0326063 
0.0651771 0.133801 0.0154144 0 0.1 0.116667 0 0.1 0.133333 
0 0.116667 0.1 0 0.133333 0.1 0.0328921 0.0663301 0.0999996 
0.0652441 0.0323162 0.0999966 0.0328884 0.0663452 0.116826 0.0652362 0.0323245 0.13381 
0.0328857 0.100001 0.0663334 0.0652449 0.1 0.0323193 0.0329153 0.0999982 0.133668 
0.0652474 0.0999963 0.167691 0.0328865 0.116826 0.0663425 0.0652346 0.133803 0.0323277 
0.0329003 0.116824 0.133667 0.065235 0.133828 0.167682 0.0329052 0.133669 0.100001 
0.0652457 0.167689 0.0999921 0.0328955 0.13366 0.116822 0.0652315 0.167677 0.133815 
0.0653419 0.0999991 0.0999968 0.129667 0.100003 0.100002 0 0.1 0.166667 
0 0.1 0.183333 0 0.116667 0.133333 0 0.133333 0.116667 
0 0.116667 0.15 0 0.133333 0.15 0 0.116667 0.166667 
0 0.133333 0.183333 0.0165107 0.0999971 0.167105 0.0327961 0.0999997 0.184269 
0.0165043 0.11675 0.167099 0.0327627 0.13364 0.184251 0.0328705 0.0663307 0.150517 
0.0652112 0.0323419 0.150728 0.0328568 0.0999937 0.167379 0.0652194 0.100001 0.184623 
0.0328489 0.11682 0.167379 0.0651796 0.133815 0.184596 0.032866 0.133657 0.150511 
0.0652108 0.167659 0.150729 0 0.116667 0.2 0 0.133333 0.2 
0.0163465 0.100006 0.200881 0.0325159 0.0999925 0.201118 0 0.15 0.0166667 
0 0.15 0.0333333 0 0.166667 0 0 0.183333 0 
0 0.166667 0.0166667 0 0.183333 0.0333333 0.0163584 0.133506 -0.000849885 
0.032546 0.116807 -0.00114693 0.0163882 0.150239 -0.00080734 0.0326024 0.150457 -0.00115722 
0.0162094 0.166984 -0.000823391 0.0323576 0.184192 -0.00109736 0.0164495 0.167053 0.0160871 
0.0326749 0.184218 0.0326672 0 0.15 0.0666667 0 0.15 0.0833333 
0 0.166667 0.05 0 0.183333 0.05 0.0164917 0.150287 0.0329047 
0.0327486 0.15048 0.0157646 0.0164897 0.167098 0.049731 0.0327391 0.18424 0.0495348 
0.0328123 0.150501 0.0326448 0.0651448 0.1507 0.0154405 0.0328038 0.167362 0.0495097 
0.0651478 0.184569 0.0492791 0.0328339 0.167373 0.066348 0.0651919 0.184602 0.0830938 
0 0.15 0.116667 0 0.15 0.133333 0 0.166667 0.0833333 
0 0.183333 0.0666667 0 0.166667 0.1 0 0.183333 0.1 
0 0.166667 0.116667 0 0.183333 0.133333 0.0165057 0.167108 0.0832529 
0.0327707 0.184259 0.0663551 0.0165038 0.167117 0.100003 0.0327638 0.184266 0.100002 
0.0165077 0.167112 0.116756 0.0327719 0.184264 0.133655 0.0328683 0.150514 0.0663325 
0.0652074 0.150718 0.0323438 0.0328544 0.167381 0.100001 0.065217 0.184619 0.100005 
0.0328435 0.167384 0.116826 0.0651793 0.18459 0.133811 0 0.15 0.166667 
0 0.15 0.183333 0 0.166667 0.15 0 0.183333 0.15 
0.0164899 0.150275 0.167095 0.0327447 0.150474 0.184243 0.0164931 0.167088 0.150282 
0.0327447 0.184231 0.150474 0.0328132 0.150488 0.167365 0.0651407 0.150718 0.184574 
0.0328236 0.167358 0.150497 0.0651551 0.184563 0.150711 0 0.166667 0.183333 
0 0.183333 0.166667 0 0.166667 0.2 0 0.183333 0.2 
0.0163577 0.133503 0.200849 0.0325461 0.116805 0.20114 0.0163854 0.150236 0.20081 
0.0325976 0.150456 0.201163 0.0164503 0.167049 0.183914 0.0326779 0.18421 0.167333 
0.0162085 0.166984 0.200824 0.0323566 0.184195 0.201096 0 0.2 0.0166667 
0 0.2 0.0333333 0.0159757 0.200687 -0.000909154 0.0321851 0.201054 -0.00107378 
0.0162987 0.200792 0.0161022 0.0324334 0.201078 0.0326459 0 0.2 0.0666667 
0 0.2 0.0833333 0.0163682 0.200841 0.049727 0.0325298 0.201135 0.0495281 
0 0.2 0.116667 0 0.2 0.133333 0.0163679 0.200876 0.0832273 
0.0325479 0.20113 0.066361 0.0163767 0.20084 0.100002 0.0326058 0.201166 0.100002 
0.0163664 0.200874 0.116778 0.0325448 0.20113 0.133644 0 0.2 0.166667 
0 0.2 0.183333 0.0163683 0.200834 0.150275 0.0325298 0.201129 0.150475 
0.0162985 0.20079 0.183896 0.0324333 0.201072 0.167352 0.0159748 0.200687 0.200906 
0.0321833 0.201057 0.201069 0.0486381 -0.00123856 0.0155956 0.0487039 -0.00128031 0.032496 
0.0486453 0.0156168 -0.001262 0.0487255 0.0324888 -0.00128595 0.0648624 -0.00134533 -0.00134738 
0.0811875 -0.0014029 -0.00139639 0.0649406 0.0155101 -0.0013664 0.0812557 0.0323296 -0.00145135 
0.0488329 -0.0013358 0.0662628 0.0488398 -0.00134311 0.0831296 0.0488743 0.0155994 0.0324853 
0.048866 0.0324989 0.0155739 0.0649825 -0.00139237 0.0323665 0.0812176 -0.00140817 0.0154429 
0.0650264 -0.00144203 0.0492704 0.0812626 -0.00149838 0.0492222 0.0650561 -0.00147286 0.066172 
0.0812813 -0.00156825 0.0830623 0.0650833 0.0154695 0.0323736 0.0812922 0.0323342 0.0154029 
0.0488414 -0.00134493 0.116875 0.048835 -0.00133766 0.133738 0.0650848 -0.00148689 0.100004 
0.0812985 -0.00157702 0.100003 0.0487053 -0.00128036 0.167501 0.04864 -0.00124005 0.1844 
0.0488809 0.0155997 0.167512 0.048869 0.0324971 0.184431 0.0650651 -0.00146904 0.133813 
0.081297 -0.00156361 0.116933 0.0650193 -0.00144274 0.15072 0.081244 -0.00149889 0.15076 
0.0649842 -0.0013927 0.167625 0.0812194 -0.00140893 0.184544 0.0650878 0.0154694 0.167617 
0.0812913 0.0323322 0.184595 0.0486484 0.0156112 0.201261 0.0487265 0.0324837 0.201291 
0.0648658 -0.0013528 0.201338 0.0811893 -0.00140974 0.201384 0.0649438 0.0155024 0.201363 
0.0812569 0.0323226 0.201451 0.0488239 0.0662601 -0.00134403 0.0488295 0.0831372 -0.00135228 
0.0650391 0.0492764 -0.00145109 0.081275 0.0492255 -0.00149286 0.0488206 0.066261 0.201349 
0.0488285 0.0831399 0.201354 0.0650356 0.0492708 0.201457 0.0812717 0.0492188 0.201499 
0.0488278 0.116864 -0.0013499 0.0488188 0.133738 -0.00133888 0.0650694 0.0831026 -0.00148971 
0.0812882 0.066154 -0.00152885 0.0650693 0.100005 -0.00151207 0.0812787 0.10001 -0.00159283 
0.0650742 0.116911 -0.00148188 0.081285 0.133853 -0.00152664 0.0488283 0.116864 0.201345 
0.0488184 0.133737 0.201339 0.0650693 0.0830993 0.201493 0.0812835 0.0661452 0.201535 
0.065076 0.100005 0.201508 0.08129 0.100003 0.201589 0.0650757 0.116914 0.201487 
0.0812845 0.133858 0.201536 0.0487286 0.167513 -0.00127978 0.0486467 0.184383 -0.00125582 
0.0488741 0.167506 0.0155835 0.0488799 0.184412 0.0324895 0.0650204 0.150709 -0.00144803 
0.0812416 0.15075 -0.00150317 0.0488733 0.16751 0.184422 0.048882 0.184409 0.167507 
0.0487256 0.167522 0.201284 0.0486445 0.184393 0.201255 0.0650169 0.150723 0.20146 
0.081237 0.150765 0.201505 0.0486436 0.20124 0.0155935 0.0487082 0.201289 0.0324908 
0.064944 0.184484 -0.00136314 0.0812463 0.167656 -0.00144752 0.0648695 0.20134 -0.00134792 
0.081191 0.201393 -0.00139676 0.0488337 0.20134 0.0662609 0.0488422 0.201346 0.0831282 
0.0650888 0.184533 0.0323773 0.0812873 0.167654 0.0154057 0.0649906 0.201393 0.0323649 
0.0812245 0.2014 0.0154443 0.0650264 0.20145 0.0492651 0.0812595 0.201498 0.0492156 
0.0650579 0.201473 0.0661711 0.081286 0.201562 0.0830619 0.0488412 0.201349 0.116873 
0.048833 0.201344 0.133737 0.0650865 0.201487 0.100002 0.081303 0.201577 0.100002 
0.048707 0.201287 0.167501 0.0486406 0.201243 0.184398 0.0650897 0.184536 0.167616 
0.0812841 0.167667 0.184595 0.065064 0.201472 0.133815 0.0812981 0.201559 0.116934 
0.0650249 0.201449 0.15072 0.0812542 0.201504 0.150765 0.0649884 0.201396 0.167623 
0.0812237 0.201409 0.184549 0.0649428 0.1845 0.201362 0.0812467 0.167672 0.201452 
0.0648652 0.201355 0.201338 0.08119 0.201406 0.20139 0.0975043 -0.00142087 0.0154343 
0.0975048 -0.0014461 0.0323145 0.0975067 0.0154438 -0.00141846 0.0975098 0.0323166 -0.00143826 
0.113821 -0.00140134 -0.00138575 0.130138 -0.00134327 -0.00134073 0.113786 -0.00140227 0.0154558 
0.130018 -0.00138496 0.0323748 0.0974998 -0.00152582 0.0661357 0.0974917 -0.00157065 0.0830676 
0.097497 0.0154152 0.0323152 0.0975011 0.0323285 0.0154161 0.0974922 0.0323017 0.0322974 
0.0975013 0.0661544 0.0153435 0.113749 -0.00147072 0.049233 0.129987 -0.00142977 0.0492803 
0.113677 0.0323153 0.0323109 0.129855 0.0661961 0.0154074 0.097498 -0.00157264 0.116926 
0.0974983 -0.00153729 0.133854 0.0974946 0.0322323 0.0661279 0.097503 0.066131 0.0322356 
0.0975045 0.0322428 0.133868 0.0974993 0.0661284 0.167763 0.113721 -0.00152918 0.0830672 
0.12996 -0.00145187 0.0661765 0.113719 -0.00157455 0.100006 0.129927 -0.00150935 0.100005 
0.113709 -0.00155596 0.116929 0.129936 -0.00147764 0.133819 0.11363 0.0322516 0.0661474 
0.129785 0.0661835 0.0323118 0.113639 0.0322623 0.133848 0.129776 0.0661834 0.167682 
0.129762 0.0323222 0.0999993 0.162094 0.0663338 0.100005 0.129763 0.0323176 0.116905 
0.162101 0.066326 0.133667 0.0974999 -0.0014431 0.167673 0.0975046 -0.00141861 0.184554 
0.0974954 0.0154153 0.167677 0.0975011 0.0323313 0.184584 0.0974947 0.0323143 0.167715 
0.0974948 0.0661545 0.18467 0.113732 -0.00146602 0.150764 0.129968 -0.00142112 0.150725 
0.113678 0.0323205 0.167689 0.129852 0.0661999 0.184592 0.0975051 0.0154396 0.201411 
0.0975093 0.0323134 0.201436 0.113785 -0.00140029 0.184539 0.130012 -0.00138325 0.167625 
0.113818 -0.00140125 0.201381 0.130135 -0.00134228 0.201339 0.0975045 0.0661299 -0.00150359 
0.0975031 0.0830578 -0.00155604 0.113753 0.0323312 -0.00144103 0.130061 0.0155141 -0.00135865 
0.113713 0.0323388 0.015422 0.129926 0.0154723 0.032384 0.11374 0.0492297 -0.0014713 
0.129989 0.0492773 -0.00142615 0.113733 0.0661435 -0.00150172 0.129932 0.0830829 -0.00149237 
0.0975025 0.0661284 0.201515 0.097503 0.0830566 0.201565 0.113714 0.0323402 0.184577 
0.129924 0.0154754 0.167616 0.113752 0.0323306 0.20144 0.13006 0.0155141 0.201357 
0.113739 0.0492289 0.201475 0.129989 0.0492758 0.201427 0.113732 0.0661428 0.201504 
0.129926 0.0830859 0.201489 0.0974988 0.116924 -0.00159234 0.097492 0.133853 -0.00153751 
0.0975117 0.133865 0.0322349 0.0975025 0.167763 0.0661245 0.113709 0.100008 -0.00159121 
0.129912 0.100007 -0.00152001 0.113643 0.133849 0.0322548 0.129776 0.167687 0.0661784 
0.129759 0.0999994 0.0323154 0.162095 0.100003 0.066334 0.129763 0.116907 0.0323151 
0.162101 0.133669 0.0663279 0.0975013 0.116918 0.201576 0.0974876 0.133848 0.201519 
0.0974957 0.133871 0.167761 0.0975021 0.16776 0.133865 0.097506 0.133846 0.184666 
0.0975104 0.167699 0.167699 0.113712 0.100003 0.201585 0.12991 0.100007 0.201516 
0.113627 0.133853 0.167739 0.12978 0.16768 0.133812 0.113667 0.133826 0.184656 
0.129853 0.167637 0.167634 0.129751 0.0999992 0.167677 0.162104 0.0999983 0.133665 
0.129789 0.100005 0.18461 0.16214 0.099995 0.167392 0.129745 0.116904 0.167687 
0.162107 0.13366 0.133667 0.129806 0.116908 0.184598 0.162155 0.133647 0.167383 
0.0974983 0.167675 -0.001436 0.0975056 0.184546 -0.00141563 0.097499 0.167676 0.0154181 
0.0975064 0.184582 0.0323253 0.0975031 0.167715 0.0323123 0.0975013 0.184672 0.0661516 
0.113727 0.133857 -0.00152314 0.129935 0.116915 -0.00148893 0.113733 0.150761 -0.00149212 
0.129971 0.150715 -0.0014457 0.113752 0.167654 -0.00143524 0.130063 0.184485 -0.00135959 
0.113713 0.167657 0.015416 0.129935 0.184537 0.0323812 0.113685 0.167686 0.0323097 
0.129852 0.184595 0.0661894 0.129811 0.150729 0.0323412 0.162127 0.150519 0.0663407 
0.0974972 0.167672 0.18458 0.0975035 0.184584 0.167681 0.0974969 0.167668 0.201423 
0.0975058 0.184548 0.201411 0.113715 0.133859 0.20152 0.129926 0.116913 0.20149 
0.113721 0.150777 0.201481 0.129963 0.150731 0.201439 0.113719 0.167655 0.184587 
0.129931 0.184539 0.16762 0.113747 0.167662 0.201439 0.130065 0.184492 0.20136 
0.12987 0.150721 0.18456 0.162182 0.150482 0.16737 0.0975079 0.201409 0.0154338 
0.0975079 0.201437 0.0323121 0.113818 0.201392 -0.00139411 0.130137 0.201342 -0.00134513 
0.113786 0.201397 0.0154491 0.13002 0.201388 0.0323745 0.0974939 0.201519 0.0661283 
0.0974976 0.201568 0.0830636 0.113735 0.201475 0.0492221 0.12997 0.201429 0.0492668 
0.0974975 0.201563 0.116927 0.0974939 0.201526 0.133859 0.113707 0.201542 0.0830641 
0.129931 0.201462 0.0661782 0.113712 0.201578 0.100003 0.129915 0.201503 0.100005 
0.11371 0.201532 0.116935 0.129932 0.201456 0.133822 0.129756 0.167677 0.0999975 
0.162107 0.13367 0.0999989 0.129793 0.184606 0.0999993 0.162149 0.167397 0.0999985 
0.0975027 0.201443 0.167684 0.0975053 0.201417 0.184565 0.113724 0.201469 0.150773 
0.129965 0.20143 0.150728 0.113784 0.201402 0.184549 0.130016 0.201395 0.167629 
0.113817 0.201398 0.201391 0.13014 0.201348 0.201341 0.146363 -0.00124452 0.0155969 
0.1463 -0.00129804 0.0324979 0.14636 0.0156111 -0.00125827 0.146283 0.0324817 -0.00129034 
0.162821 -0.00105996 -0.00107401 0.179029 -0.000689946 -0.000909653 0.162651 0.0158024 -0.00110077 
0.178797 0.0330181 -0.000823556 0.146172 -0.0013833 0.0662623 0.146152 -0.00139081 0.0831335 
0.146139 0.0155764 0.032484 0.146141 0.0324872 0.0155672 0.14603 0.0324705 0.0324604 
0.146039 0.0662757 0.0155191 0.162576 -0.00107408 0.0326472 0.178705 -0.000792491 0.0161027 
0.162484 -0.00113599 0.0495271 0.178637 -0.000829832 0.0497264 0.162472 -0.00114941 0.0663573 
0.178639 -0.000875408 0.0832239 0.162339 0.0157876 0.0326675 0.178556 0.0329549 0.0160906 
0.162269 0.0157634 0.0495346 0.17851 0.0329307 0.0497269 0.162232 0.0157234 0.06635 
0.178493 0.0329018 0.0832464 0.16219 0.0326442 0.0495072 0.17847 0.066476 0.0497136 
0.162167 0.0326237 0.0663543 0.178457 0.0664844 0.0832477 0.146145 -0.00136388 0.116876 
0.146156 -0.00135419 0.133752 0.14594 0.0324306 0.0662491 0.145948 0.0662491 0.0324311 
0.162403 -0.00119354 0.0999969 0.178627 -0.000843515 0.0999965 0.162229 0.0157005 0.0999974 
0.178497 0.0328825 0.0999983 0.162161 0.0325924 0.0999994 0.17846 0.0664689 0.1 
0.162161 0.0325976 0.116819 0.178465 0.0664751 0.133516 0.146294 -0.00129059 0.167506 
0.14636 -0.00124289 0.184403 0.146138 0.0155849 0.167519 0.146142 0.032489 0.184433 
0.146033 0.0324697 0.167534 0.146032 0.0662645 0.184475 0.162464 -0.00115186 0.133644 
0.178637 -0.0008806 0.116771 0.162477 -0.00114343 0.150474 0.178636 -0.000838455 0.150274 
0.162574 -0.00107846 0.167353 0.178706 -0.000793924 0.1839 0.162233 0.0157164 0.133645 
0.178498 0.0328898 0.116749 0.162273 0.0157512 0.150466 0.178514 0.0329266 0.150276 
0.16234 0.0157826 0.167334 0.178558 0.0329555 0.183906 0.162195 0.0326267 0.150486 
0.178472 0.0664924 0.150294 0.14636 0.0156103 0.201257 0.146284 0.032481 0.201289 
0.162821 -0.00105976 0.201075 0.179029 -0.000687893 0.200913 0.16265 0.0158024 0.2011 
0.178797 0.0330209 0.20082 0.146189 0.0662606 -0.00138808 0.146168 0.0831379 -0.00139348 
0.162422 0.049541 -0.00117776 0.178621 0.0497626 -0.000812755 0.162271 0.0495313 0.0157453 
0.178508 0.0497326 0.0329197 0.162252 0.0663693 0.0157336 0.178497 0.0832476 0.032909 
0.146183 0.0662681 0.201382 0.14616 0.0831493 0.201388 0.162269 0.0495285 0.18425 
0.178507 0.049734 0.167082 0.162421 0.0495371 0.201171 0.178621 0.0497644 0.200813 
0.162245 0.0663657 0.184264 0.178498 0.0832466 0.167102 0.146156 0.116875 -0.00136719 
0.146175 0.133751 -0.00134698 0.162472 0.0831963 -0.0011692 0.178653 0.066499 -0.000855828 
0.162491 0.100015 -0.00114444 0.17866 0.100001 -0.000896518 0.162217 0.100002 0.0156933 
0.178496 0.0999973 0.0328945 0.162156 0.1 0.0325961 0.178453 0.100003 0.0664673 
0.162431 0.116808 -0.00118993 0.178625 0.133448 -0.000860681 0.162228 0.116811 0.0157092 
0.178502 0.133506 0.0329054 0.162151 0.116814 0.0325942 0.17846 0.133514 0.0664766 
0.146157 0.116877 0.20136 0.146174 0.133748 0.201345 0.16245 0.0832068 0.201154 
0.178643 0.0665005 0.200859 0.162218 0.100004 0.184272 0.178495 0.0999928 0.167112 
0.162477 0.100016 0.201122 0.178653 0.0999998 0.200893 0.162222 0.116813 0.184265 
0.178498 0.133505 0.167113 0.162415 0.116801 0.201168 0.178616 0.133445 0.200861 
0.146277 0.167517 -0.00128255 0.146357 0.184387 -0.00125952 0.146143 0.167506 0.0155746 
0.146139 0.184423 0.0324828 0.146036 0.167532 0.0324682 0.146031 0.184482 0.0662637 
0.162424 0.150462 -0.00117901 0.178645 0.150242 -0.000815404 0.162273 0.150476 0.0157427 
0.17851 0.150268 0.0329071 0.162197 0.150483 0.0326237 0.178471 0.150284 0.0664894 
0.14614 0.167505 0.184419 0.146133 0.184414 0.1675 0.146279 0.167516 0.201283 
0.146358 0.184389 0.201256 0.162271 0.150471 0.184252 0.17851 0.150269 0.167105 
0.162424 0.15046 0.201167 0.178646 0.150244 0.200818 0.146366 0.201246 0.0155928 
0.146309 0.201304 0.0324873 0.162648 0.184195 -0.00110289 0.178802 0.166995 -0.000831785 
0.162817 0.201058 -0.00107715 0.179026 0.200695 -0.00091227 0.146177 0.201382 0.0662541 
0.146154 0.201387 0.0831368 0.162338 0.184217 0.0326678 0.178554 0.16706 0.016091 
0.162281 0.184237 0.0495383 0.178513 0.167062 0.0497224 0.162241 0.184272 0.0663614 
0.1785 0.167101 0.083251 0.16258 0.201076 0.0326456 0.178705 0.200797 0.0161017 
0.162494 0.20114 0.0495261 0.17864 0.200834 0.0497283 0.162477 0.201147 0.0663595 
0.17864 0.200885 0.0832267 0.146153 0.201388 0.11687 0.146167 0.201392 0.133738 
0.16224 0.184269 0.100003 0.178503 0.167123 0.100001 0.162393 0.201173 0.100005 
0.178625 0.20085 0.100002 0.146304 0.201294 0.167494 0.146368 0.201242 0.184396 
0.162252 0.184259 0.133644 0.178502 0.167082 0.116751 0.162288 0.184227 0.150467 
0.178517 0.16706 0.150281 0.16233 0.184203 0.167329 0.178554 0.167059 0.183915 
0.162476 0.201141 0.133641 0.178643 0.200883 0.116776 0.162478 0.201135 0.150474 
0.178635 0.200834 0.150276 0.162571 0.201065 0.167346 0.178704 0.200795 0.183895 
0.162645 0.184197 0.201099 0.1788 0.167 0.200836 0.162814 0.201061 0.201068 
0.179023 0.200698 0.200906 0.195 0 0.0166667 0.195 0 0.0333333 
0.195 0.0166667 0 0.195 0.0333333 0 0.195 0 0.0666667 
0.195 0 0.0833333 0.195 0.0166667 0.0333333 0.195 0.0333333 0.0166667 
0.195 0.0166667 0.05 0.195 0.0333333 0.05 0.195 0.0166667 0.0666667 
0.195 0.0333333 0.0833333 0.195 0 0.116667 0.195 0 0.133333 
0.195 0.0166667 0.1 0.195 0.0333333 0.1 0.195 0 0.166667 
0.195 0 0.183333 0.195 0.0166667 0.133333 0.195 0.0333333 0.116667 
0.195 0.0166667 0.15 0.195 0.0333333 0.15 0.195 0.0166667 0.166667 
0.195 0.0333333 0.183333 0.195 0.0166667 0.2 0.195 0.0333333 0.2 
0.195 0.05 0.0166667 0.195 0.05 0.0333333 0.195 0.0666667 0 
0.195 0.0833333 0 0.195 0.0666667 0.0166667 0.195 0.0833333 0.0333333 
0.195 0.05 0.0666667 0.195 0.05 0.0833333 0.195 0.0666667 0.05 
0.195 0.0833333 0.05 0.195 0.05 0.116667 0.195 0.05 0.133333 
0.195 0.0666667 0.0833333 0.195 0.0833333 0.0666667 0.195 0.0666667 0.1 
0.195 0.0833333 0.1 0.195 0.0666667 0.116667 0.195 0.0833333 0.133333 
0.195 0.05 0.166667 0.195 0.05 0.183333 0.195 0.0666667 0.15 
0.195 0.0833333 0.15 0.195 0.0666667 0.183333 0.195 0.0833333 0.166667 
0.195 0.0666667 0.2 0.195 0.0833333 0.2 0.195 0.1 0.0166667 
0.195 0.1 0.0333333 0.195 0.116667 0 0.195 0.133333 0 
0.195 0.1 0.0666667 0.195 0.1 0.0833333 0.195 0.116667 0.0333333 
0.195 0.133333 0.0166667 0.195 0.116667 0.05 0.195 0.133333 0.05 
0.195 0.116667 0.0666667 0.195 0.133333 0.0833333 0.195 0.1 0.116667 
0.195 0.1 0.133333 0.195 0.116667 0.1 0.195 0.133333 0.1 
0.195 0.1 0.166667 0.195 0.1 0.183333 0.195 0.116667 0.133333 
0.195 0.133333 0.116667 0.195 0.116667 0.15 0.195 0.133333 0.15 
0.195 0.116667 0.166667 0.195 0.133333 0.183333 0.195 0.116667 0.2 
0.195 0.133333 0.2 0.195 0.15 0.0166667 0.195 0.15 0.0333333 
0.195 0.166667 0 0.195 0.183333 0 0.195 0.166667 0.0166667 
0.195 0.183333 0.0333333 0.195 0.15 0.0666667 0.195 0.15 0.0833333 
0.195 0.166667 0.05 0.195 0.183333 0.05 0.195 0.15 0.116667 
0.195 0.15 0.133333 0.195 0.166667 0.0833333 0.195 0.183333 0.0666667 
0.195 0.166667 0.1 0.195 0.183333 0.1 0.195 0.166667 0.116667 
0.195 0.183333 0.133333 0.195 0.15 0.166667 0.195 0.15 0.183333 
0.195 0.166667 0.15 0.195 0.183333 0.15 0.195 0.166667 0.183333 
0.195 0.183333 0.166667 0.195 0.166667 0.2 0.195 0.183333 0.2 
0.195 0.2 0.0166667 0.195 0.2 0.0333333 0.195 0.2 0.0666667 
0.195 0.2 0.0833333 0.195 0.2 0.116667 0.195 0.2 0.133333 
0.195 0.2 0.166667 0.195 0.2 0.183333 0.162626 0.201086 0.0157876 
0.178881 0.18386 -0.000847622 0.0812474 -0.00144638 0.167673 0.178667 0.20083 0.0329491 
0.195 0.183333 0.0166667 0.178612 0.183876 0.0161008 0 0.0333333 0.0333333 
0.195 0.0666667 0.166667 0 0.0666667 0.0666667 0.0650766 0.201482 0.0830873 
0.195 0.116667 0.116667 0.162122 0.0999954 0.150522 0.0649285 0.201346 0.0155004 
0.0812254 0.184538 -0.00141229 0.195 0.133333 0.166667 0.162416 0.0663809 0.201174 
0.178539 0.0665042 0.183942 0.0323822 -0.0010806 0.0157908 0.0161206 0.0161385 -0.000848399 
0.0812857 0.0830791 -0.00155665 0.130012 0.0323867 -0.00138864 0.0812249 0.01545 -0.00141555 
0.0649203 -0.00134655 0.0155016 0.0325796 0.201165 0.116838 0.016473 0.0329329 0.0329237 
0.0649903 0.0323811 -0.00140272 0.0650099 0.0155008 0.0154939 0 0.133333 0.0333333 
0.17855 0.083244 0.183953 0.195 0.0833333 0.183333 0.178646 0.0832524 0.200892 
0.0324901 0.167325 -0.00114786 0 0.0166667 0.0166667 0.0163912 0.0161219 0.0160978 
0.0163404 -0.000828402 0.032949 0.0164254 0.0161077 0.0329369 0.0812556 0.201442 0.0323138 
0.0812562 0.184546 0.0154436 0.0328681 0.066322 0.0494872 0.195 0.166667 0.166667 
0.0328375 0.0326275 0.0831772 0 0.116667 0.0166667 0.0163542 0.116754 -0.000881801 
0 0.0333333 0.166667 0.130016 0.167612 -0.00139063 0.145896 0.150668 0.133756 
0.0812865 -0.00153609 0.133845 0.162524 0.167327 0.201152 0.130082 0.201349 0.184493 
0.113781 0.184544 0.201406 0.0812906 0.184586 0.032325 0.0325841 0.0663794 -0.00116487 
0.0164455 0.0497354 0.0160537 0.0324875 0.167327 0.20115 0 0.166667 0.0333333 
0.0163407 -0.00082477 0.167051 0 0.0166667 0.183333 0.0164266 0.0161116 0.167065 
0.195 0.0833333 0.0833333 0.0325765 0.18419 0.0157641 0.0323815 0.201084 0.0157895 
0.0161231 0.18385 -0.000842228 0.0163924 0.183872 0.016101 0.0163391 0.200831 0.0329479 
0.0164256 0.183894 0.0329368 0 0.183333 0.0166667 0 0.133333 0.166667 
0.0164616 0.150269 0.0160751 0.0164737 0.16707 0.0329252 0.0326789 0.167329 0.0157581 
0 0.166667 0.166667 0 0.0666667 0.0333333 0.0164565 0.0664967 0.0160549 
0 0.0833333 0.0166667 0.0164598 0.0832556 0.0160648 0.01645 0.100001 0.0160636 
0.0163614 0.0832659 -0.000881979 0 0.116667 0.183333 0.0163547 0.116752 0.200876 
0.0812486 -0.00144763 0.032314 0.0812859 0.0154059 0.0323204 0.0812538 0.0154454 0.0154397 
0.0161225 0.18385 0.200841 0.0325769 0.184187 0.184235 0.0323803 0.201082 0.184206 
0.129939 0.133824 0.201465 0 0.166667 0.0666667 0.0164387 0.183925 0.0497379 
0 0.183333 0.0833333 0.0164506 0.183935 0.0665114 0.0163628 0.200877 0.0664805 
0.178493 0.116747 0.167113 0 0.0166667 0.0833333 0.0163636 -0.000876072 0.0664792 
0.0652472 0.16769 0.116904 0.0325855 0.133625 0.201161 0.0164647 0.133499 0.183937 
0.0164563 0.116753 0.183939 0.0325809 -0.00116154 0.0831661 0.01646 0.0160539 0.0832562 
0.032582 0.0663817 0.201168 0 0.183333 0.116667 0.0164598 0.183944 0.116751 
0.016362 0.200872 0.133526 0 0.166667 0.133333 0.0164511 0.183928 0.133496 
0.0165053 0.167102 0.133515 0.0164402 0.183915 0.150267 0.0490033 0.0155423 0.0831383 
0.0650735 -0.00148247 0.083089 0.0327689 0.0157471 0.0831901 0.032586 0.13363 -0.00116221 
0.0164647 0.133504 0.0160615 0.0164555 0.116757 0.0160532 0.0326791 0.167325 0.184244 
0.0164608 0.150264 0.183927 0.0327734 0.16734 0.167349 0.0164762 0.167061 0.167081 
0 0.183333 0.183333 0.0163928 0.183868 0.183898 0.0163391 0.200826 0.167052 
0.0164262 0.183887 0.167064 0.0164765 0.032937 0.167086 0.016446 0.0497364 0.183949 
0.0163925 0.0161233 0.183902 0.0161209 0.0161369 0.200848 0.0323841 -0.00107968 0.184207 
0.178571 0.183905 0.150264 0.195 0.166667 0.133333 0.0328686 0.150514 0.116824 
0 0.116667 0.116667 0.0328788 0.133659 0.133659 0.162336 0.167323 0.184249 
0.178531 0.16705 0.167081 0.0324783 0.0326761 -0.00115351 0.0326662 0.0326749 0.015748 
0.0487842 0.015623 0.0155989 0.0325741 0.0158127 0.0157578 0.130079 -0.00134218 0.184488 
0.11378 0.0154517 0.201402 0.14592 0.0999993 0.0324266 0.0164552 0.066498 0.183947 
0.0165097 0.0832473 0.167108 0 0.0666667 0.166667 0.178655 0.0832509 -0.000892681 
0.195 0.0833333 0.0166667 0.0490061 0.0831282 0.0155362 0.0328585 0.0831708 0.0326159 
0.0165117 0.0832456 0.0328897 0.0489599 0.184442 0.0493764 0.081275 0.20153 0.0661358 
0.0650585 0.0661852 0.201475 0.0327585 0.066361 0.184261 0 0.0333333 0.0666667 
0.0165022 0.0328931 0.0664967 0.016439 0.0160758 0.0497374 0.0164506 0.0160645 0.0665108 
0.195 0.0333333 0.133333 0.195 0.183333 0.0833333 0.178647 0.200873 0.0664741 
0.0325806 -0.00116116 0.116841 0.0164645 0.0160261 0.100004 0.064923 -0.00134889 0.184488 
0.0812548 0.0154454 0.18455 0.0812267 0.0154431 0.201409 0.0164415 0.0160867 0.150269 
0 0.0333333 0.133333 0.0650125 0.0154975 0.184501 0.064991 0.0323732 0.201406 
0.0489798 0.0662543 0.184463 0.0490057 0.0831293 0.184468 0.0812859 0.0830723 0.201562 
0.0489437 0.0493795 0.184458 0.0650821 0.0323836 0.184544 0.0327678 0.0326666 0.167362 
0.162173 0.167381 0.0663478 0.178664 0.200825 0.16705 0.195 0.183333 0.183333 
0.178578 0.183883 0.167062 0.129921 0.0323915 0.0154685 0.129968 0.0661798 -0.00146168 
0 0.0833333 0.183333 0.016361 0.0832708 0.200883 0.016451 0.100001 0.183927 
0.0164592 0.0832581 0.183936 0.0812268 0.184553 0.20141 0.0649256 0.201353 0.184489 
0 0.0166667 0.116667 0.0164605 0.0160575 0.116754 0.0163635 -0.000868554 0.133528 
0.0164522 0.0160753 0.133498 0.113782 0.015452 -0.00140444 0.130081 -0.00134313 0.0155103 
0.129995 0.0155031 0.015503 0.145949 0.167575 0.0662463 0.145888 0.150679 0.0662372 
0.14599 0.184474 0.100001 0.11373 -0.00150379 0.066146 0.0490066 0.0155413 0.116869 
0.049006 0.0155333 0.100005 0.0327696 0.0157467 0.116818 0.0650806 -0.00148389 0.116912 
0.0651681 0.0661917 0.184598 0.0651665 0.0323658 0.16765 0.0812854 0.0154077 0.167665 
0.0489853 0.0324843 0.167541 0.0652646 0.066163 0.150753 0.0652106 0.0492696 0.167667 
0.0652307 0.0661729 0.167676 0.0328459 0.0831678 0.167377 0.0328841 0.0663342 0.133665 
0 0.0833333 0.116667 0.0652503 0.0323131 0.116904 0.0328693 0.0494868 0.116827 
0.0652077 0.0153974 0.116909 0.0328505 0.0494969 0.150517 0.0328639 0.0494878 0.133664 
0 0.0666667 0.133333 0.0328465 0.0326246 0.133664 0.0489717 0.0155732 0.150626 
0.0489914 0.0155433 0.133746 0.0165059 0.032901 0.133519 0.146013 0.133745 0.184458 
0.113718 0.116927 0.201557 0.145988 0.116871 0.184468 0.12983 0.133813 0.184585 
0.195 0.116667 0.183333 0.178554 0.0999994 0.18394 0.178544 0.116743 0.183942 
0.178636 0.116734 0.20089 0.162521 0.0326681 0.201154 0.162435 0.0158082 0.184237 
0.178881 0.016151 0.200843 0.162626 -0.00108682 0.184211 0.129998 0.184504 0.184499 
0.14622 0.184381 0.184393 0.130015 0.167622 0.201396 0.178544 0.1335 0.18395 
0.162414 0.133621 0.201167 0.162237 0.133634 0.184261 0.178549 0.15026 0.18395 
0.162336 0.0326708 0.184243 0.178543 0.0497433 0.18392 0.178613 0.0161304 0.183898 
0.195 0.0166667 0.183333 0.178665 -0.000831678 0.167053 0.178581 0.0161109 0.16706 
0.195 0.0333333 0.166667 0.178529 0.0329456 0.167072 0.178566 0.0160869 0.150261 
0.081253 0.201445 0.167675 0.0812556 0.184557 0.184553 0.0489592 0.150626 0.184448 
0.0165015 0.133506 0.167099 0.0328343 0.133653 0.167371 0.0652106 0.150735 0.167662 
0.0652405 0.150749 0.150743 0.0652599 0.133831 0.150761 0.0650574 0.133817 0.201475 
0.0489909 0.133746 0.18446 0.032772 0.116813 0.18425 0.0812946 0.116932 0.201565 
0.0490056 0.116866 0.184464 0.049022 0.1 0.184471 0.065248 0.116911 0.167698 
0.0328804 0.116824 0.150519 0.065206 0.11691 0.18461 0.0328838 0.0999955 0.150521 
0.0328615 0.15051 0.133661 0 0.133333 0.133333 0.0328444 0.167378 0.133658 
0.0328499 0.1505 0.15051 0.113752 0.184547 0.184552 0.097504 0.184555 0.184561 
0.113752 0.201431 0.167674 0.0649859 0.167629 0.201404 0.0487873 0.184384 0.184394 
0.0650817 0.167621 0.184542 0.0650136 0.184508 0.1845 0.0487882 0.184381 0.0156042 
0.0649876 0.167612 -0.00139807 0.0650145 0.184497 0.0154975 0.113717 0.08307 0.201545 
0.113697 0.0492486 0.18461 0.097494 0.0492318 0.184626 0.130012 0.0323859 0.201389 
0.146223 0.0156138 0.184401 0.129994 0.0155045 0.184496 0.129851 0.0323641 0.167636 
0.113721 -0.00150375 0.13385 0.113673 0.0661607 0.184642 0.113653 0.0322887 0.150775 
0.0975057 0.0322746 0.150798 0.0812882 0.184593 0.167668 0.0651691 0.167637 0.167645 
0.048972 0.184434 0.150622 0.0489902 0.167524 0.16753 0.0327693 0.184258 0.116816 
0.0490071 0.184469 0.100003 0.0650806 0.201483 0.116912 0.162239 0.184282 0.083191 
0.162426 0.201181 0.083169 0.178546 0.183949 0.0832503 0.0652855 0.133839 0.133841 
0.129805 0.167665 0.150722 0.113636 0.167735 0.133851 0.129925 0.201478 0.116914 
0.146056 0.150623 0.184444 0.162242 0.16733 0.167348 0.129931 0.167617 0.184532 
0.14603 0.167524 0.167522 0.113722 0.184574 0.167674 0.113692 0.150752 0.184619 
0.0975074 0.150768 0.18462 0.0812768 -0.00153504 0.0661417 0.0489561 0.0155676 0.0493754 
0.0489894 0.0155492 0.0662553 0.162626 -0.00108426 0.0157899 0.178882 0.0161489 -0.000842662 
0.032582 0.201164 0.0831659 0.0164647 0.183974 0.100002 0.0327712 0.184255 0.0831893 
0.0164607 0.183945 0.0832551 0.129732 0.0661711 0.150761 0.145977 0.100003 0.184478 
0.113636 0.0661474 0.16774 0.162169 0.0325998 0.133644 0.129925 -0.00147907 0.116913 
0.145948 0.0324348 0.13375 0.145893 0.0662373 0.150671 0.129806 0.0323448 0.150729 
0.16217 0.0663531 0.167379 0.162237 0.0831891 0.184268 0.162192 0.0495095 0.167364 
0.178501 0.0665002 0.167092 0.16224 0.0326553 0.167346 0.0490054 0.18446 0.083136 
0.0489923 0.184455 0.0662551 0.0165041 0.167108 0.0664969 0.16243 0.201174 0.116837 
0.178542 0.18398 0.1 0.162252 0.18427 0.116815 0.0975055 0.167731 0.150788 
0.113707 0.201501 0.133857 0.113657 0.167719 0.150773 0.113688 0.167691 0.167688 
0.178645 0.200872 0.133529 0.178556 0.183911 0.133491 0.195 0.183333 0.116667 
0.178551 0.183941 0.116752 0.162103 0.116828 0.133667 0.129706 0.133834 0.133838 
0.129733 0.150757 0.133827 0.178552 0.0832494 0.016056 0.162431 0.0663776 -0.0011818 
0.129732 0.150765 0.0661687 0.162093 0.116835 0.0663294 0.162128 0.150527 0.0999974 
0.146222 0.184384 0.0155986 0.162525 0.167328 -0.00115402 0.16234 0.16733 0.0157511 
0.162432 0.184193 0.0157591 0.0324791 0.0326728 0.201158 0.0487879 0.0156217 0.184399 
0.0326693 0.0326758 0.184258 0.0325773 0.0158138 0.184243 0.0652514 0.116901 0.032317 
0.17858 0.183887 0.0329414 0.195 0.166667 0.0333333 0.178528 0.167053 0.0329241 
0.162433 0.0158106 0.0157622 0.146222 0.0156125 0.015599 0.162521 0.0326689 -0.0011562 
0.12992 0.201486 0.0830897 0.162121 0.116823 0.150521 0.16214 0.116817 0.167391 
0.195 0.133333 0.133333 0.06529 0.133834 0.0661623 0.129706 0.133839 0.0661607 
0.0974983 0.133918 0.1 0.162243 0.133636 0.0157243 0.162423 0.133628 -0.00117819 
0.178548 0.150258 0.0160592 0.178546 0.133499 0.0160577 0.195 0.133333 0.0333333 
0.146063 0.18446 0.0493745 0.129861 0.16764 0.0323631 0.129929 0.167612 0.0154704 
0.129885 0.184572 0.0492826 0.129705 0.0661634 0.133838 0.0974987 0.0999992 0.133914 
0.06529 0.0661602 0.133835 0.162428 0.184185 0.184236 0.162622 0.201079 0.184203 
0.17861 0.183875 0.1839 0.17888 0.183863 0.200847 0.178553 0.183914 0.0665106 
0.178568 0.183902 0.0497392 0.195 0.166667 0.0666667 0.113693 0.184611 0.0492387 
0.113713 0.201511 0.0661388 0.129996 0.1845 0.0155005 0.113785 0.184538 -0.00140744 
0.130078 0.201346 0.0155058 0.0328678 0.0494801 0.1 0.0652653 0.0492454 0.0661647 
0.178502 0.167074 0.0664931 0.178485 0.150274 0.0497098 0.162243 0.167344 0.0326502 
0.162195 0.16736 0.0495071 0.162095 0.0663278 0.116834 0.145927 0.0324268 0.116871 
0.178504 0.0329092 0.133506 0.195 0.0666667 0.133333 0.178489 0.0497229 0.150286 
0.17848 0.0497034 0.133513 0.113723 0.184577 0.0323343 0.0975059 0.184551 0.0154396 
0.113753 0.184544 0.0154508 0.113755 0.201434 0.0323217 0.178506 0.167067 0.133511 
0.145962 0.15064 0.16754 0.162126 0.133655 0.150518 0.145922 0.150662 0.150641 
0.0489852 0.167527 0.0324737 0.0327705 0.167352 0.0326537 0.0650836 0.167605 0.0154626 
0.0651679 0.167636 0.0323585 0.0974988 0.184626 0.04923 0.0651779 0.184589 0.0661869 
0.0489824 0.0662535 0.0155419 0.0327604 0.0663579 0.0157422 0.0650629 0.0661895 -0.00146995 
0.0650573 0.133807 -0.00147016 0.0327715 0.116816 0.0157388 0.0652651 0.150749 0.066161 
0.0328767 0.150522 0.0999994 0.0652131 0.167656 0.0492637 0.0652336 0.167669 0.0661694 
0.0328444 0.167376 0.083175 0.032882 0.133663 0.0663321 0.0328679 0.116823 0.0494807 
0 0.116667 0.0833333 0.0328482 0.150513 0.0494966 0.0328624 0.133659 0.0494836 
0 0.133333 0.0666667 0.0489898 0.133741 0.015541 0.048963 0.150622 0.0155679 
0.0328427 0.133659 0.0326216 0.0165026 0.133517 0.0328981 0 0.0833333 0.0833333 
0.0328932 0.0831684 0.066329 0.0328706 0.0999995 0.0494726 0.0328774 0.0831648 0.0494794 
0.12995 0.133821 -0.00146459 0.145978 0.150635 0.0324527 0.162163 0.13364 0.0326013 
0.178476 0.133513 0.0497049 0.178497 0.116752 0.0329031 0.195 0.133333 0.0666667 
0.178471 0.049704 0.0832461 0.113753 -0.00142899 0.167668 0.0975005 0.0154422 0.184557 
0.113711 0.0154282 0.167665 0.113748 0.0154551 0.184543 0.0490172 0.100002 0.0155219 
0.0812892 0.116929 -0.00155616 0.0652049 0.116904 0.0154023 0.0490054 0.116863 0.0155325 
0.113724 0.11693 -0.00155825 0.145923 0.11687 0.032426 0.129777 0.133817 0.0323228 
0.14594 0.133746 0.0324329 0.0652933 0.0661641 0.0661587 0.0975034 0.0999987 0.0660873 
0.129715 0.066159 0.06616 0.0974958 0.0660841 0.0999935 0.145874 0.0662346 0.0662289 
0.145924 0.0324262 0.100001 0.0489455 0.0493804 0.0155479 0.0489754 0.0324822 0.0324654 
0.0650807 0.032388 0.0154576 0.0327611 0.0326613 0.0326466 0.0975012 0.0154393 0.0154354 
0.113758 -0.00143097 0.0323283 0.11375 0.0154529 0.0154537 0.178474 0.116756 0.0496983 
0.17846 0.116756 0.0664731 0.195 0.116667 0.0833333 0.195 0.0666667 0.0333333 
0.17854 0.0665047 0.016065 0.113638 0.167741 0.0661417 0.0975125 0.150794 0.0322689 
0.113661 0.150774 0.0322812 0.113675 0.184643 0.0661546 0.195 0.0333333 0.0333333 
0.129882 0.0492911 0.0154363 0.129851 0.0323626 0.032362 0.113713 0.0154241 0.0323316 
0.0812857 0.201534 0.133849 0.0489892 0.184461 0.133745 0.0652033 0.184603 0.116911 
0.0490043 0.184462 0.116868 0.0651779 0.0154085 0.0661875 0.0652517 0.0492533 0.0492472 
0.146067 0.0493812 0.0155339 0.162245 0.0831922 0.0157218 0.195 0.0166667 0.0833333 
0.178645 -0.000871829 0.0664731 0.129921 0.0323924 0.184532 0.146065 0.0493773 0.184461 
0.129963 0.0661805 0.201462 0.129879 0.0492912 0.184564 0.195 0.0333333 0.0666667 
0.178565 0.0160962 0.0497396 0.17855 0.0160825 0.0665097 0.16216 0.0326077 0.0831804 
0.162103 0.0663402 0.0663301 0.178459 0.0664784 0.0664883 0.162123 0.0663404 0.0494813 
0.162168 0.0663474 0.0326209 0.178473 0.100002 0.0496919 0.178643 -0.000878882 0.133525 
0.195 0.0166667 0.116667 0.178551 0.0160714 0.13349 0.0652146 0.0492696 0.0323304 
0.0651622 0.0323622 0.0323494 0.0651726 0.0661982 0.0154073 0.129801 0.0323316 0.0492764 
0.129774 0.0323194 0.0661857 0.145969 0.0324434 0.0493599 0.12994 -0.00147756 0.0830889 
0.113651 0.032282 0.0492226 0.0974938 0.032266 0.0492062 0.113645 0.0661447 0.0322549 
0.113677 0.0661588 0.0153583 0.0974966 0.0492296 0.0153851 0.113696 0.049245 0.0153916 
0.11372 0.0830711 -0.00154379 0.178476 0.0496951 0.116754 0.178478 0.0496922 0.100001 
0.195 0.0833333 0.116667 0.17846 0.066471 0.116755 0.162425 -0.00118174 0.0831612 
0.178544 0.0160594 0.0832503 0.162231 0.0157181 0.0831812 0.178544 0.0160485 0.116746 
0.178534 0.0160275 0.0999969 0.162232 0.0157108 0.116813 0.16242 -0.001185 0.116838 
0.1785 0.0664986 0.0329134 0.162188 0.0495129 0.0326317 0.195 0.116667 0.0166667 
0.178557 0.100002 0.0160627 0.178643 0.116736 -0.000890496 0.178546 0.116743 0.0160654 
0.178477 0.0497145 0.0664923 0.178485 0.0497172 0.0497165 0.1785 0.0329208 0.0664965 
0.195 0.0666667 0.0666667 0.162334 0.0326737 0.0157528 0.162237 0.0326615 0.0326482 
0.178545 0.0497415 0.0160799 0.178527 0.0329467 0.032928 0.195 0.0166667 0.0166667 
0.178665 -0.000827158 0.0329482 0.178612 0.016132 0.0161021 0.17858 0.0161165 0.03294 

CELLS 236 4956
20 69 93 88 68 814 815 925 924 808 809 801 800 805 804 803 802 956 957 1317 961 
20 28 47 45 44 422 423 549 548 420 421 418 419 541 540 539 538 1160 1418 958 1119 
20 93 69 88 94 815 814 808 809 925 924 948 949 816 817 926 927 959 1323 960 961 
20 43 49 86 85 522 523 600 601 536 537 534 535 598 599 909 908 1345 967 1366 1279 
20 5 1 26 6 109 108 114 115 150 151 142 143 110 111 161 160 962 1111 980 991 
20 82 86 81 63 892 893 891 890 889 888 749 748 751 750 747 746 972 1290 1198 963 
20 7 11 48 6 176 177 240 241 192 193 157 156 159 158 173 172 964 1103 994 1409 
20 37 17 54 38 327 326 334 335 480 481 472 473 328 329 485 484 1277 1254 965 1292 
20 55 13 12 51 285 284 245 244 263 262 625 624 282 283 258 259 1211 1221 1212 1087 
20 90 86 49 85 915 914 601 600 603 602 911 910 909 908 598 599 966 967 1306 1330 
20 37 52 50 36 476 477 607 606 474 475 467 466 471 470 469 468 968 969 1237 993 
20 91 92 65 86 940 941 779 778 777 776 917 916 919 918 772 773 970 1184 1047 1193 
20 82 65 86 63 771 770 772 773 892 893 749 748 745 744 751 750 971 1288 972 984 
20 25 5 0 26 149 148 101 100 103 102 388 389 150 151 104 105 1093 989 973 974 
20 46 32 6 48 441 440 165 164 171 170 554 555 442 443 172 173 975 1102 1483 1386 
20 57 46 58 62 557 556 558 559 668 669 670 671 560 561 678 679 976 1135 1327 1149 
20 26 41 25 46 400 401 393 392 389 388 406 407 502 503 394 395 1037 977 982 978 
20 22 38 39 17 376 377 482 483 378 379 323 322 329 328 331 330 1276 1253 1058 979 
20 55 49 12 54 591 590 255 254 263 262 649 648 588 589 260 261 1298 1259 1050 1213 
20 26 5 6 30 151 150 142 143 161 160 398 399 152 153 162 163 1091 1008 1438 980 
20 25 30 26 46 390 391 399 398 388 389 394 395 432 433 406 407 981 1437 982 1092 
20 11 15 16 34 230 231 290 291 232 233 238 239 298 299 308 309 1068 1023 1405 983 
20 82 65 87 86 771 770 774 775 894 895 892 893 772 773 913 912 984 1183 985 986 
20 15 34 36 37 298 299 454 455 300 301 302 303 456 457 466 467 1025 1235 1015 987 
20 43 85 64 48 534 535 761 760 530 531 520 521 583 582 579 578 1431 1096 1490 1433 
20 1 5 26 0 108 109 150 151 114 115 99 98 101 100 105 104 988 989 990 991 
20 52 37 50 53 477 476 474 475 607 606 638 639 478 479 608 609 992 1006 1373 993 
20 60 80 59 86 722 723 705 704 699 698 728 729 886 887 708 709 1371 1495 1282 1504 
20 48 7 6 43 193 192 157 156 173 172 521 520 188 189 168 169 1361 996 1460 994 
20 92 71 96 91 833 832 836 837 944 945 941 940 830 831 943 942 1089 1083 995 1134 
20 26 7 43 6 183 182 188 189 404 405 161 160 157 156 169 168 1110 996 1272 1064 
20 6 26 46 42 160 161 406 407 170 171 166 167 402 403 511 510 1271 1036 1482 1436 
20 32 15 10 11 297 296 225 224 227 226 237 236 231 230 222 223 1069 997 1031 998 
20 90 71 70 49 829 828 821 820 823 822 603 602 597 596 595 594 1379 1260 1001 1297 
20 28 9 8 3 215 214 195 194 199 198 135 134 133 132 131 130 1013 999 1121 1078 
20 68 69 50 66 800 801 619 618 617 616 781 780 783 782 614 615 1314 1343 1000 1357 
20 49 90 54 70 602 603 659 658 588 589 594 595 823 822 652 653 1001 1152 1261 1308 
20 28 43 7 44 416 417 189 188 187 186 418 419 518 519 190 191 1002 1170 1176 1154 
20 92 72 71 67 841 840 827 826 833 832 799 798 795 794 793 792 1003 1191 1088 1348 
20 71 56 51 72 665 664 627 626 633 632 826 827 666 667 634 635 1004 1005 1190 1228 
20 50 37 16 53 475 474 311 310 313 312 608 609 478 479 314 315 1006 1105 1383 1380 
20 5 6 30 32 142 143 162 163 152 153 154 155 164 165 430 431 1028 1387 1007 1008 
20 39 19 35 40 359 358 356 357 461 460 486 487 360 361 462 463 1039 1009 1232 1070 
20 12 11 50 48 229 228 242 243 256 257 252 253 240 241 575 574 1408 1423 1322 1397 
20 21 15 37 16 295 294 302 303 370 371 307 306 290 291 311 310 1010 1024 1043 1020 
20 28 4 9 3 139 138 136 137 215 214 135 134 127 126 133 132 1011 1012 1013 1080 
20 80 84 58 85 882 883 695 694 693 692 884 885 900 901 696 697 1014 1474 1416 1512 
20 15 36 20 37 300 301 365 364 292 293 302 303 466 467 366 367 1015 1016 1018 1017 
20 15 20 21 37 292 293 362 363 294 295 302 303 366 367 370 371 1018 1019 1020 1021 
20 19 18 35 13 339 338 342 343 356 357 273 272 271 270 277 276 1022 1209 1052 1071 
20 39 51 35 18 488 489 465 464 461 460 345 344 347 346 343 342 1252 1208 1072 1233 
20 15 34 37 16 298 299 456 457 302 303 290 291 309 308 311 310 1023 1381 1024 1025 
20 19 23 39 18 350 351 382 383 358 359 339 338 341 340 345 344 1026 1063 1073 1077 
20 5 6 32 11 142 143 164 165 154 155 146 147 158 159 237 236 1027 1104 1030 1028 
20 10 5 32 11 145 144 154 155 226 227 222 223 146 147 237 236 1029 1030 1031 1032 
20 19 33 14 13 354 355 289 288 287 286 273 272 275 274 267 266 1053 1139 1033 1034 
20 26 41 46 42 400 401 502 503 406 407 402 403 500 501 511 510 1035 1439 1036 1037 
20 24 19 39 40 353 352 358 359 384 385 386 387 360 361 486 487 1038 1039 1040 1075 
20 51 91 67 65 636 637 797 796 630 631 628 629 777 776 769 768 1178 1195 1041 1263 
20 17 21 37 16 320 321 370 371 326 327 305 304 307 306 311 310 1042 1043 1294 1045 
20 37 22 21 17 375 374 369 368 371 370 327 326 323 322 321 320 1278 1044 1045 1046 
20 49 91 65 86 604 605 777 776 592 593 600 601 917 916 772 773 1331 1047 1280 1180 
20 7 1 26 2 113 112 114 115 182 183 119 118 106 107 121 120 1048 1049 1055 1112 
20 17 55 12 54 336 337 263 262 247 246 334 335 649 648 260 261 1457 1050 1392 1085 
20 19 33 13 35 354 355 275 274 273 272 356 357 446 447 276 277 1051 1216 1052 1053 
20 7 2 26 27 119 118 120 121 182 183 184 185 122 123 396 397 1117 1054 1066 1055 
20 33 9 8 31 221 220 195 194 203 202 435 434 218 219 200 201 1056 1079 1108 1097 
20 55 18 39 17 349 348 344 345 493 492 337 336 319 318 331 330 1226 1062 1456 1251 
20 23 22 39 17 373 372 378 379 382 383 325 324 323 322 331 330 1057 1058 1061 1059 
20 18 23 39 17 340 341 382 383 344 345 319 318 325 324 331 330 1060 1061 1062 1063 
20 26 7 27 43 183 182 184 185 396 397 404 405 188 189 410 411 1064 1155 1065 1066 
20 32 15 11 34 297 296 231 230 237 236 438 439 298 299 238 239 1067 1068 1390 1069 
20 39 19 18 35 359 358 339 338 345 344 461 460 356 357 342 343 1070 1071 1072 1073 
20 23 19 39 24 351 350 358 359 382 383 380 381 352 353 385 384 1074 1075 1076 1077 
20 28 9 31 8 215 214 218 219 414 415 199 198 195 194 201 200 1078 1079 1130 1320 
20 28 4 29 9 139 138 140 141 412 413 215 214 136 137 217 216 1080 1081 1321 1082 
20 51 91 49 71 636 637 605 604 587 586 632 633 831 830 596 597 1266 1377 1268 1181 
20 96 71 90 91 837 836 828 829 939 938 943 942 830 831 932 933 1083 1376 1084 1303 
20 13 55 12 17 284 285 263 262 245 244 268 269 337 336 246 247 1224 1085 1086 1087 
20 92 71 91 67 833 832 830 831 941 940 799 798 793 792 797 796 1088 1264 1196 1089 
20 25 5 26 30 149 148 150 151 388 389 390 391 152 153 398 399 1090 1091 1092 1093 
20 47 61 45 60 568 569 553 552 549 548 566 567 711 710 550 551 1243 1094 1420 1095 
20 33 49 8 13 450 451 209 208 203 202 275 274 281 280 196 197 1219 1165 1098 1126 
20 85 90 64 48 910 911 767 766 761 760 583 582 585 584 579 578 1312 1426 1096 1443 
20 13 9 8 33 211 210 195 194 197 196 274 275 220 221 202 203 1140 1097 1098 1099 
20 78 64 84 83 755 754 758 759 874 875 872 873 756 757 897 896 1100 1509 1101 1309 
20 6 32 11 48 164 165 237 236 158 159 172 173 442 443 240 241 1102 1421 1103 1104 
20 16 37 54 53 310 311 480 481 316 317 314 315 478 479 645 644 1105 1106 1385 1293 
20 47 33 8 31 449 448 203 202 207 206 437 436 435 434 200 201 1107 1108 1128 1125 
20 1 7 26 6 112 113 182 183 114 115 110 111 157 156 161 160 1109 1110 1111 1112 
20 76 80 60 81 862 863 723 722 719 718 864 865 880 881 724 725 1113 1368 1205 1480 
20 90 94 69 95 934 935 817 816 813 812 936 937 950 951 818 819 1114 1115 1258 1352 
20 90 50 70 66 623 622 620 621 823 822 791 790 614 615 785 784 1411 1342 1131 1150 
20 7 2 27 28 119 118 122 123 184 185 186 187 124 125 408 409 1144 1116 1156 1117 
20 29 28 47 45 413 412 422 423 428 429 426 427 420 421 549 548 1118 1119 1120 1123 
20 3 7 8 28 128 129 174 175 130 131 134 135 186 187 198 199 1146 1177 1121 1122 
20 29 28 31 47 413 412 414 415 424 425 428 429 422 423 436 437 1123 1129 1124 1319 
20 47 33 49 8 449 448 450 451 564 565 207 206 203 202 209 208 1125 1126 1158 1127 
20 28 8 31 47 199 198 200 201 414 415 422 423 206 207 436 437 1161 1128 1129 1130 
20 90 70 69 66 823 822 807 806 813 812 791 790 785 784 783 782 1131 1341 1365 1256 
20 71 97 92 96 838 839 947 946 832 833 836 837 955 954 944 945 1132 1133 1134 1350 
20 58 46 64 62 559 558 562 563 680 681 678 679 560 561 737 736 1135 1136 1461 1452 
20 13 9 33 14 211 210 220 221 274 275 266 267 212 213 289 288 1137 1138 1139 1140 
20 39 56 40 51 494 495 499 498 486 487 488 489 627 626 496 497 1207 1141 1234 1142 
20 3 7 28 2 128 129 186 187 134 135 117 116 119 118 125 124 1143 1144 1145 1146 
20 46 57 58 41 556 557 668 669 558 559 503 502 505 504 507 506 1147 1148 1441 1149 
20 90 50 48 70 623 622 575 574 585 584 823 822 620 621 580 581 1150 1449 1151 1427 
20 90 54 70 48 659 658 652 653 823 822 585 584 577 576 581 580 1311 1447 1151 1152 
20 58 43 64 42 525 524 530 531 680 681 515 514 509 508 517 516 1153 1488 1453 1484 
20 28 43 27 7 416 417 411 410 409 408 187 186 189 188 185 184 1154 1155 1156 1157 
20 8 49 47 44 208 209 565 564 206 207 204 205 543 542 541 540 1163 1240 1159 1158 
20 28 8 47 44 199 198 206 207 422 423 418 419 204 205 541 540 1175 1159 1160 1161 
20 43 49 12 44 522 523 255 254 249 248 518 519 543 542 250 251 1248 1162 1168 1347 
20 12 49 13 44 254 255 281 280 244 245 250 251 543 542 278 279 1162 1164 1166 1223 
20 49 8 13 44 209 208 196 197 281 280 543 542 204 205 278 279 1163 1171 1164 1165 
20 12 13 7 44 244 245 181 180 179 178 250 251 278 279 190 191 1166 1172 1169 1167 
20 43 12 7 44 249 248 179 178 189 188 518 519 250 251 190 191 1168 1169 1170 1360 
20 13 8 7 44 197 196 175 174 181 180 278 279 204 205 190 191 1171 1174 1172 1173 
20 7 8 28 44 174 175 198 199 186 187 190 191 204 205 418 419 1174 1175 1176 1177 
20 91 51 49 65 637 636 587 586 605 604 777 776 628 629 592 593 1178 1179 1180 1181 
20 92 87 65 86 921 920 775 774 779 778 919 918 913 912 772 773 1182 1183 1184 1185 
20 63 61 60 82 731 730 711 710 713 712 748 749 734 735 726 727 1186 1187 1197 1242 
20 60 61 77 82 710 711 732 733 720 721 726 727 734 735 868 869 1187 1188 1199 1189 
20 67 51 72 71 631 630 634 635 794 795 792 793 632 633 827 826 1265 1190 1191 1192 
20 91 92 67 65 940 941 799 798 797 796 777 776 779 778 769 768 1193 1194 1195 1196 
20 63 60 81 82 713 712 724 725 746 747 748 749 726 727 888 889 1197 1204 1198 1291 
20 76 60 77 82 719 718 720 721 860 861 866 867 726 727 868 869 1202 1199 1200 1201 
20 60 76 81 82 718 719 864 865 724 725 726 727 866 867 888 889 1202 1203 1204 1205 
20 39 56 51 55 494 495 627 626 488 489 492 493 661 660 624 625 1206 1229 1249 1207 
20 18 35 13 51 342 343 277 276 271 270 346 347 464 465 282 283 1208 1215 1210 1209 
20 55 13 51 18 285 284 282 283 625 624 349 348 270 271 347 346 1227 1210 1250 1211 
20 49 55 12 51 590 591 263 262 255 254 586 587 625 624 258 259 1269 1212 1220 1213 
20 35 33 13 51 447 446 275 274 277 276 464 465 452 453 282 283 1214 1218 1215 1216 
20 33 49 13 51 450 451 281 280 275 274 452 453 586 587 282 283 1217 1222 1218 1219 
20 49 12 13 51 255 254 244 245 281 280 586 587 258 259 282 283 1220 1221 1222 1223 
20 55 13 18 17 285 284 270 271 349 348 337 336 268 269 319 318 1224 1225 1226 1227 
20 71 56 55 51 665 664 661 660 663 662 633 632 627 626 625 624 1228 1229 1267 1230 
20 51 40 39 35 497 496 487 486 489 488 465 464 463 462 461 460 1231 1232 1233 1234 
20 37 36 50 34 467 466 468 469 474 475 457 456 455 454 459 458 1235 1236 1382 1237 
20 47 60 44 65 566 567 545 544 541 540 572 573 714 715 546 547 1468 1244 1239 1419 
20 49 47 44 65 565 564 541 540 543 542 592 593 572 573 546 547 1238 1239 1246 1240 
20 47 61 60 63 568 569 711 710 566 567 570 571 730 731 712 713 1241 1242 1465 1243 
20 43 44 60 65 518 519 544 545 528 529 532 533 546 547 714 715 1247 1244 1286 1245 
20 43 49 44 65 522 523 543 542 518 519 532 533 592 593 546 547 1281 1246 1247 1248 
20 39 51 18 55 488 489 347 346 345 344 492 493 624 625 348 349 1249 1250 1251 1252 
20 54 39 38 17 491 490 483 482 485 484 335 334 331 330 329 328 1458 1253 1254 1255 
20 90 70 95 69 823 822 824 825 936 937 813 812 807 806 819 818 1256 1257 1258 1296 
20 49 12 54 85 255 254 260 261 588 589 598 599 264 265 656 657 1346 1335 1307 1259 
20 71 49 54 70 597 596 588 589 655 654 821 820 594 595 652 653 1260 1261 1262 1300 
20 51 91 71 67 636 637 831 830 632 633 630 631 797 796 793 792 1263 1264 1265 1266 
20 49 55 51 71 590 591 625 624 586 587 596 597 662 663 632 633 1301 1267 1268 1269 
20 6 43 26 42 168 169 405 404 160 161 166 167 509 508 402 403 1459 1270 1271 1272 
20 73 58 78 57 683 682 688 689 846 847 673 672 669 668 675 674 1273 1326 1274 1522 
20 37 22 17 38 375 374 323 322 327 326 472 473 376 377 328 329 1275 1276 1277 1278 
20 43 49 65 86 522 523 592 593 532 533 536 537 600 601 772 773 1279 1280 1285 1281 
20 59 43 60 86 527 526 528 529 698 699 708 709 536 537 728 729 1367 1284 1282 1283 
20 60 43 65 86 529 528 532 533 714 715 728 729 536 537 772 773 1284 1285 1287 1286 
20 63 60 65 86 713 712 714 715 744 745 750 751 728 729 772 773 1289 1287 1288 1466 
20 60 63 81 86 712 713 746 747 724 725 728 729 750 751 890 891 1289 1290 1370 1291 
20 37 17 16 54 327 326 305 304 311 310 480 481 334 335 316 317 1292 1395 1293 1294 
20 71 95 90 70 834 835 937 936 828 829 821 820 825 824 823 822 1295 1296 1297 1305 
20 49 55 71 54 590 591 662 663 596 597 588 589 649 648 655 654 1298 1299 1300 1301 
20 95 71 90 96 835 834 828 829 937 936 952 953 836 837 938 939 1302 1303 1304 1305 
20 88 69 66 89 809 808 783 782 787 786 922 923 810 811 788 789 1325 1364 1338 1316 
20 90 49 54 85 603 602 588 589 659 658 911 910 598 599 656 657 1306 1307 1313 1308 
20 78 64 62 84 755 754 737 736 739 738 874 875 758 759 742 743 1309 1462 1446 1310 
20 90 66 89 64 791 790 788 789 929 928 767 766 753 752 765 764 1412 1336 1413 1363 
20 54 90 85 48 658 659 911 910 656 657 577 576 585 584 583 582 1311 1312 1334 1313 
20 69 68 88 66 801 800 802 803 808 809 783 782 781 780 787 786 1314 1315 1316 1317 
20 9 29 28 31 216 217 413 412 214 215 218 219 424 425 414 415 1318 1319 1320 1321 
20 54 12 50 48 261 260 256 257 611 610 577 576 252 253 575 574 1333 1322 1448 1391 
20 88 69 89 94 809 808 810 811 922 923 926 927 816 817 930 931 1323 1353 1324 1325 
20 78 58 62 57 689 688 678 679 739 738 675 674 669 668 671 670 1326 1327 1328 1516 
20 69 54 50 70 651 650 611 610 619 618 806 807 652 653 620 621 1329 1450 1344 1355 
20 90 86 91 49 915 914 916 917 932 933 603 602 601 600 605 604 1330 1331 1378 1332 
20 12 54 85 48 260 261 656 657 264 265 252 253 577 576 583 582 1333 1334 1430 1335 
20 89 66 88 64 789 788 786 787 923 922 765 764 753 752 763 762 1336 1337 1339 1338 
20 88 84 89 64 903 902 904 905 922 923 763 762 759 758 765 764 1511 1414 1339 1340 
20 69 70 50 66 806 807 621 620 619 618 783 782 785 784 614 615 1341 1342 1343 1344 
20 49 43 12 85 523 522 249 248 255 254 598 599 534 535 264 265 1345 1432 1346 1347 
20 92 72 97 71 841 840 842 843 946 947 833 832 827 826 839 838 1348 1349 1350 1351 
20 90 94 89 69 934 935 931 930 929 928 813 812 817 816 811 810 1352 1353 1362 1354 
20 69 54 53 50 651 650 645 644 647 646 619 618 611 610 609 608 1355 1384 1372 1356 
20 68 69 52 50 800 801 643 642 641 640 617 616 619 618 607 606 1357 1374 1358 1359 
20 48 7 43 12 193 192 188 189 521 520 253 252 178 179 249 248 1407 1360 1429 1361 
20 69 90 66 89 812 813 791 790 783 782 810 811 929 928 788 789 1362 1363 1364 1365 
20 59 43 86 85 527 526 536 537 708 709 706 707 534 535 909 908 1434 1366 1498 1367 
20 60 80 86 81 722 723 886 887 728 729 724 725 880 881 891 890 1368 1369 1370 1371 
20 69 53 52 50 647 646 639 638 643 642 619 618 609 608 607 606 1372 1373 1374 1375 
20 90 71 49 91 829 828 597 596 603 602 932 933 830 831 604 605 1376 1377 1378 1379 
20 50 37 34 16 475 474 457 456 459 458 313 312 311 310 309 308 1380 1381 1403 1382 
20 54 16 53 50 317 316 314 315 645 644 611 610 312 313 609 608 1393 1383 1384 1385 
20 46 32 30 6 441 440 431 430 433 432 171 170 165 164 163 162 1386 1387 1435 1388 
20 32 34 11 50 438 439 239 238 237 236 444 445 458 459 242 243 1389 1402 1424 1390 
20 12 17 54 50 246 247 334 335 260 261 256 257 332 333 611 610 1396 1394 1391 1392 
20 17 16 54 50 305 304 316 317 334 335 332 333 312 313 611 610 1399 1393 1394 1395 
20 11 17 12 50 234 235 247 246 228 229 242 243 332 333 256 257 1400 1396 1397 1398 
20 11 16 17 50 232 233 304 305 234 235 242 243 312 313 332 333 1404 1399 1400 1401 
20 11 34 16 50 238 239 309 308 232 233 242 243 458 459 312 313 1402 1403 1404 1405 
20 11 7 48 12 177 176 192 193 240 241 228 229 178 179 253 252 1406 1407 1408 1409 
20 64 50 90 66 613 612 622 623 766 767 752 753 614 615 791 790 1410 1411 1412 1428 
20 90 89 84 64 929 928 905 904 907 906 767 766 765 764 759 758 1413 1414 1442 1415 
20 85 59 58 80 707 706 677 676 697 696 885 884 704 705 692 693 1496 1501 1416 1472 
20 60 45 47 44 551 550 548 549 567 566 545 544 539 538 541 540 1417 1418 1419 1420 
20 11 32 50 48 236 237 444 445 242 243 240 241 442 443 575 574 1421 1422 1423 1424 
20 50 64 90 48 612 613 766 767 622 623 575 574 579 578 585 584 1425 1426 1427 1428 
20 43 12 85 48 249 248 264 265 534 535 520 521 252 253 583 582 1429 1430 1431 1432 
20 59 43 85 64 527 526 534 535 706 707 700 701 530 531 761 760 1485 1433 1473 1434 
20 30 6 26 46 163 162 160 161 399 398 432 433 170 171 406 407 1435 1436 1437 1438 
20 46 41 58 42 503 502 506 507 558 559 511 510 500 501 515 514 1439 1440 1454 1441 
20 90 84 85 64 907 906 900 901 911 910 767 766 759 758 761 760 1442 1477 1443 1444 
20 84 62 78 79 743 742 738 739 875 874 879 878 740 741 870 871 1506 1518 1445 1446 
20 70 54 50 48 653 652 611 610 621 620 581 580 577 576 575 574 1447 1448 1449 1450 
20 78 74 79 58 851 850 852 853 870 871 689 688 685 684 691 690 1523 1470 1519 1451 
20 58 46 42 64 559 558 511 510 515 514 680 681 562 563 516 517 1452 1493 1453 1454 
20 54 39 17 55 491 490 331 330 335 334 648 649 492 493 336 337 1455 1456 1457 1458 
20 43 6 48 42 169 168 172 173 520 521 509 508 166 167 513 512 1459 1481 1489 1460 
20 84 64 62 58 759 758 737 736 743 742 695 694 681 680 679 678 1476 1461 1507 1462 
20 58 80 75 74 692 693 859 858 686 687 684 685 855 854 849 848 1471 1463 1464 1500 
20 47 60 65 63 566 567 714 715 572 573 570 571 712 713 745 744 1465 1466 1467 1468 
20 58 80 74 79 692 693 855 854 684 685 690 691 877 876 852 853 1514 1469 1470 1471 
20 85 59 64 58 707 706 700 701 761 760 697 696 677 676 681 680 1472 1486 1475 1473 
20 84 85 64 58 900 901 761 760 759 758 695 694 697 696 681 680 1474 1475 1476 1477 
20 60 75 80 76 716 717 858 859 722 723 718 719 856 857 863 862 1478 1479 1480 1502 
20 48 6 46 42 173 172 170 171 555 554 513 512 166 167 511 510 1481 1482 1492 1483 
20 58 43 59 64 525 524 526 527 676 677 680 681 530 531 700 701 1484 1485 1486 1487 
20 64 43 48 42 531 530 520 521 579 578 517 516 509 508 513 512 1488 1489 1491 1490 
20 64 48 46 42 579 578 555 554 563 562 517 516 513 512 511 510 1491 1492 1493 1494 
20 86 59 85 80 709 708 706 707 909 908 887 886 704 705 885 884 1495 1496 1497 1498 
20 59 58 80 75 677 676 692 693 704 705 702 703 686 687 859 858 1499 1500 1503 1501 
20 60 75 59 80 716 717 703 702 699 698 722 723 858 859 704 705 1502 1503 1504 1505 
20 62 84 58 79 742 743 695 694 679 678 740 741 879 878 690 691 1506 1513 1517 1507 
20 88 84 64 83 903 902 759 758 763 762 899 898 897 896 756 757 1508 1509 1510 1511 
20 80 84 79 58 882 883 879 878 877 876 693 692 695 694 691 690 1512 1513 1514 1515 
20 78 58 79 62 689 688 690 691 870 871 739 738 678 679 741 740 1516 1517 1518 1519 
20 78 74 58 73 851 850 685 684 689 688 847 846 845 844 682 683 1520 1521 1522 1523 

CELL_TYPES 236
-1
-1
-1
-1
-1
-1
-1
-1
-1
-1
-1
-1
-1
-1
-1
-1
-1
-1
-1
-1
-1
-1
-1
-1
-1
-1
-1
-1
-1
-1
-1
-1
-1
-1
-1
-1
-1
-1
-1
-1
-1
-1
-1
-1
-1
-1
-1
-1
-1
-1
-1
-1
-1
-1
-1
-1
-1
-1
-1
-1
-1
-1
-1
-1
-1
-1
-1
-1
-1
-1
-1
-1
-1
-1
-1
-1
-1
-1
-1
-1
-1
-1
-1
-1
-1
-1
-1
-1
-1
-1
-1
-1
-1
-1
-1
-1
-1
-1
-1
-1
-1
-1
-1
-1
-1
-1
-1
-1
-1
-1
-1
-1
-1
-1
-1
-1
-1
-1
-1
-1
-1
-1
-1
-1
-1
-1
-1
-1
-1
-1
-1
-1
-1
-1
-1
-1
-1
-1
-1
-1
-1
-1
-1
-1
-1
-1
-1
-1
-1
-1
-1
-1
-1
-1
-1
-1
-1
-1
-1
-1
-1
-1
-1
-1
-1
-1
-1
-1
-1
-1
-1
-1
-1
-1
-1
-1
-1
-1
-1
-1
-1
-1
-1
-1
-1
-1
-1
-1
-1
-1
-1
-1
-1
-1
-1
-1
-1
-1
-1
-1
-1
-1
-1
-1
-1
-1
-1
-1
-1
-1
-1
-1
-1
-1
-1
-1
-1
-1
-1
-1
-1
-1
-1
-1
-1
-1
-1
-1
-1
-1
-1
-1
-1
-1
-1
-1

POINT_DATA 1524
VECTORS displacement float
0 0 0
0 0 0
0 0 0
0 0 0
0 0 0
0 0 0
0 0 0
0 0 0
0 0 0
0 0 0
0 0 0
0 0 0
0 0 0
0 0 0
0 0 0
0 0 0
0 0 0
0 0 0
0 0 0
0 0 0
0 0 0
0 0 0
0 0 0
0 0 0
0 0 0
-0.00145014 -0.0012197 -0.00127653
-0.00119845 -0.00132568 -0.000626384
-0.00114856 -0.00134503 3.18615e-06
-0.00119821 -0.00132887 0.000626437
-0.00144617 -0.00122487 0.00127106
-0.00120394 -0.000623524 -0.00133393
-0.00120672 -0.000625376 0.00133996
-0.00114809 5.03216e-06 -0.00138425
-0.00114352 6.86978e-06 0.00137643
-0.00120279 0.000620253 -0.0013242
-0.00120746 0.000625168 0.00133449
-0.00144516 0.00121295 -0.00127539
-0.00120225 0.00133175 -0.000631142
-0.00114734 0.00134742 1.41368e-06
-0.00120004 0.00133279 0.000626374
-0.00144672 0.00122391 0.00126812
-0.00249252 -0.00140936 -0.00141492
-0.00249383 -0.00147919 -0.000784687
-0.00250164 -0.0016083 -5.48315e-07
-0.0025166 -0.00149385 0.000770655
-0.00249324 -0.00141499 0.00140339
-0.00248474 -0.000785306 -0.00145934
-0.0024854 -0.000786545 0.0014657
-0.00250553 6.6859e-06 -0.00162865
-0.00249029 -6.87253e-06 0.00161513
-0.00252987 0.000773816 -0.00147858
-0.00253809 0.000761277 0.00146083
-0.00249617 0.00139883 -0.00141462
-0.00250023 0.00147139 -0.000790816
-0.00248675 0.00161531 4.97335e-07
-0.0025089 0.00149326 0.000779827
-0.00249281 0.00140493 0.00141654
-0.0035534 -0.00121948 -0.00127277
-0.00378609 -0.0013601 -0.000619936
-0.00386026 -0.00139462 -3.45488e-07
-0.00380407 -0.00134499 0.000628826
-0.00355534 -0.0012202 0.00127082
-0.00376403 -0.000620795 -0.00135962
-0.00376426 -0.000619954 0.00135424
-0.00387749 8.80676e-06 -0.00140075
-0.00387835 1.5434e-05 0.00139233
-0.00379534 0.000624669 -0.00133197
-0.00379465 0.000627576 0.00132687
-0.00354864 0.00121951 -0.00127377
-0.00376954 0.00135554 -0.000635415
-0.00386567 0.00137224 8.50522e-06
-0.00379596 0.00137742 0.000613349
-0.00354753 0.00122621 0.00126791
-0.005 0 0
-0.005 0 0
-0.005 0 0
-0.005 0 0
-0.005 0 0
-0.005 0 0
-0.005 0 0
-0.005 0 0
-0.005 0 0
-0.005 0 0
-0.005 0 0
-0.005 0 0
-0.005 0 0
-0.005 0 0
-0.005 0 0
-0.005 0 0
-0.005 0 0
-0.005 0 0
-0.005 0 0
-0.005 0 0
-0.005 0 0
-0.005 0 0
-0.005 0 0
-0.005 0 0
-0.005 0 0
0 0 0
0 0 0
0 0 0
0 0 0
-0.00068961 -0.00069597 -0.000909433
-0.00114638 -0.00105693 -0.00107462
-0.000367709 -0.00079593 -0.000563728
-0.000897964 -0.00106817 -0.000684933
0 0 0
0 0 0
0 0 0
0 0 0
0 0 0
0 0 0
0 0 0
0 0 0
-0.000296578 -0.000839713 -0.000274871
-0.000798938 -0.0011285 -0.000474166
0 0 0
0 0 0
0 0 0
0 0 0
-0.000298917 -0.000876071 -0.000105457
-0.000784945 -0.00112661 -0.000307096
-0.000289836 -0.000839017 4.78074e-06
-0.000727956 -0.00116382 4.35367e-06
-0.00029937 -0.000872126 0.000114311
-0.000786409 -0.00112511 0.000312809
0 0 0
0 0 0
0 0 0
0 0 0
0 0 0
0 0 0
0 0 0
0 0 0
-0.000296498 -0.000831658 0.000276178
-0.00079971 -0.00112365 0.000478641
0 0 0
0 0 0
-0.000366981 -0.00079448 0.000562284
-0.000896699 -0.00106532 0.000685717
-0.000689074 -0.000696756 0.000906754
-0.00114428 -0.00105896 0.00107141
0 0 0
0 0 0
0 0 0
0 0 0
0 0 0
0 0 0
-0.000466736 -0.000330441 -0.000834638
-0.000976797 -0.000859792 -0.00110329
-0.000219253 -0.000396279 -0.000581239
-0.000661179 -0.000873026 -0.000669605
-0.000312401 -0.000241504 -0.000818728
-0.000756376 -0.000456503 -0.00116968
-0.000287084 -0.000113561 -0.000858493
-0.000760872 -0.000136619 -0.00116455
0 0 0
0 0 0
0 0 0
0 0 0
-0.000179721 -0.000428805 -0.000270481
-0.000595944 -0.000899693 -0.000466366
-0.000190029 -0.000283811 -0.000429846
-0.000608828 -0.000474951 -0.000918643
-0.000162217 -0.000177916 -0.000441184
-0.000553908 -0.00015138 -0.000926706
-0.000545653 -0.000683082 -0.000492127
-0.00151905 -0.00123472 -0.000722069
-0.000506349 -0.000701328 -0.000317705
-0.00147456 -0.00127152 -0.000236499
-0.000526678 -0.000493218 -0.000702746
-0.00152677 -0.000709639 -0.00124249
-0.000501262 -0.000332684 -0.000705117
-0.00148058 -0.000228243 -0.00127103
0 0 0
0 0 0
0 0 0
0 0 0
0 0 0
0 0 0
0 0 0
0 0 0
-0.000163104 -0.000442092 -7.97411e-05
-0.000564737 -0.000921331 -0.000311138
-0.000165211 -0.000450526 5.72942e-06
-0.000570941 -0.000930867 3.95781e-06
-0.000158276 -0.000443328 9.50614e-05
-0.000559724 -0.000925857 0.000324415
-0.000485607 -0.000711226 3.02537e-06
-0.0014504 -0.00128326 7.68141e-06
-0.000488211 -0.000715474 0.000162486
-0.00148323 -0.00125361 0.000474601
-0.000446781 -0.000339616 -0.000335272
-0.0014183 -0.000238933 -0.00101779
0 0 0
0 0 0
0 0 0
0 0 0
-0.000172948 -0.000420828 0.000286747
-0.000586319 -0.000892715 0.000476416
-0.000187528 -0.000279825 0.000433132
-0.000608582 -0.000472877 0.000924541
-0.000164841 -0.000176422 0.000441654
-0.000557333 -0.000149219 0.000926648
-0.00051577 -0.000684173 0.00050652
-0.00151079 -0.00122575 0.00071067
-0.000523562 -0.000487062 0.000709075
-0.00153111 -0.000715169 0.00124738
-0.000501471 -0.000324239 0.000709675
-0.00147707 -0.000237922 0.00127512
0 0 0
0 0 0
0 0 0
0 0 0
-0.000217235 -0.000396689 0.000585643
-0.000655965 -0.00086996 0.000671417
-0.000466448 -0.00033314 0.000838632
-0.000974798 -0.00086318 0.00110317
-0.000313869 -0.000242538 0.000820743
-0.000758622 -0.000456862 0.0011742
-0.000288514 -0.000112249 0.000859241
-0.000762715 -0.000132205 0.0011641
0 0 0
0 0 0
0 0 0
0 0 0
-0.000321321 3.62704e-06 -0.000885453
-0.000820228 -1.01524e-05 -0.00112514
0 0 0
0 0 0
0 0 0
0 0 0
0 0 0
0 0 0
0 0 0
0 0 0
-0.000157114 -1.71916e-06 -0.000452832
-0.000539642 -1.28631e-06 -0.000949287
-0.000164041 9.27098e-05 -0.000444381
-0.000571362 0.000314434 -0.000919471
-0.000477907 -9.15191e-07 -0.000728584
-0.00145996 3.74168e-08 -0.001279
-0.000486906 0.00015555 -0.000727048
-0.00148954 0.000468091 -0.00125224
0 0 0
0 0 0
0 0 0
0 0 0
-0.000441252 -0.000336602 -4.36873e-07
-0.00142256 -0.00101717 -3.43656e-06
-0.00044493 -0.000321471 0.000159486
-0.00143047 -0.00100879 0.000476241
-0.000447582 5.60137e-07 -0.000333318
-0.00142175 3.30805e-07 -0.00101405
-0.000418071 -1.81795e-06 0.000334385
-0.00141927 -3.71353e-06 0.0010244
-0.000446826 0.00015916 -0.000324127
-0.00143209 0.000469815 -0.00100563
-0.000433036 0.000156899 0.000333221
-0.00143166 0.000494684 0.00101527
-0.000428158 0.000335724 1.11667e-06
-0.00142095 0.00102281 -7.92125e-06
-0.000437795 0.000326927 0.000155393
-0.00143517 0.00101042 0.000481302
-0.00132482 -9.2528e-07 -3.22354e-06
-0.00366591 3.44424e-06 1.80731e-06
0 0 0
0 0 0
0 0 0
0 0 0
0 0 0
0 0 0
0 0 0
0 0 0
-0.000155984 -2.93853e-06 0.000438706
-0.000537261 -2.99416e-07 0.000935711
-0.000162391 8.3661e-05 0.000432331
-0.000570608 0.000306701 0.000918115
-0.000462794 -0.000335954 0.000516565
-0.0014555 -0.000991391 0.000727514
-0.000476529 -6.27883e-06 0.000712831
-0.00144728 8.23467e-07 0.00128963
-0.000484408 0.000152952 0.000712544
-0.00148703 0.000481565 0.0012624
-0.000467328 0.000323952 0.000510974
-0.00145585 0.000992322 0.000729292
0 0 0
0 0 0
-0.000320207 5.8394e-06 0.00088096
-0.000817421 -7.4556e-06 0.00111796
0 0 0
0 0 0
0 0 0
0 0 0
0 0 0
0 0 0
-0.000308274 0.000172976 -0.000849885
-0.000787363 0.000140333 -0.00114693
-0.000278456 0.000238707 -0.00080734
-0.000730936 0.000457072 -0.00115722
-0.000457316 0.000317571 -0.000823391
-0.000975773 0.000858656 -0.00109736
-0.000217136 0.000385958 -0.000579557
-0.000658413 0.000884855 -0.000666153
0 0 0
0 0 0
0 0 0
0 0 0
-0.000174978 0.000286637 -0.000428645
-0.000584766 0.000479589 -0.000902064
-0.000176958 0.000431408 -0.000269041
-0.000594259 0.000906599 -0.00046521
-0.000521043 0.000500928 -0.000688546
-0.00152189 0.000700047 -0.00122619
-0.000529538 0.000695218 -0.000490312
-0.00151889 0.00123565 -0.000720939
-0.000499453 0.000706151 -0.000318696
-0.00147475 0.00126824 -0.000239515
0 0 0
0 0 0
0 0 0
0 0 0
0 0 0
0 0 0
0 0 0
0 0 0
-0.000161015 0.000441598 -8.04467e-05
-0.000562676 0.000926014 -0.000311538
-0.000162892 0.000450276 2.53976e-06
-0.000569559 0.000932769 1.92452e-06
-0.000158943 0.000445072 8.96588e-05
-0.000561421 0.000930863 0.000321471
-0.000464984 0.000514274 -0.000334192
-0.00145931 0.000717954 -0.000989538
-0.000478912 0.000714129 1.40284e-06
-0.00144971 0.0012855 5.00898e-06
-0.000489852 0.000717005 0.000159116
-0.00148737 0.00125628 0.000478051
0 0 0
0 0 0
0 0 0
0 0 0
-0.0001768 0.000275423 0.000428324
-0.000588589 0.000473974 0.000909586
-0.000173614 0.000421107 0.000281879
-0.000588659 0.000897346 0.000473884
-0.000520118 0.000488173 0.000698422
-0.00152599 0.000718347 0.00124065
-0.000509728 0.000691371 0.000497475
-0.0015116 0.00122977 0.000711477
0 0 0
0 0 0
0 0 0
0 0 0
-0.00030898 0.000169741 0.000848671
-0.0007872 0.000138403 0.00113987
-0.000281288 0.000236267 0.000809875
-0.000735749 0.000455888 0.0011629
-0.000216415 0.000382434 0.000580493
-0.000655402 0.000876811 0.000666427
-0.000458199 0.000317057 0.00082441
-0.000976766 0.00086172 0.00109645
0 0 0
0 0 0
-0.000690973 0.000686544 -0.000909154
-0.00114827 0.00105409 -0.00107378
-0.00036797 0.000791958 -0.000564516
-0.000899943 0.00107818 -0.000687467
0 0 0
0 0 0
-0.000298463 0.000841196 -0.000273008
-0.000803544 0.00113487 -0.000471922
0 0 0
0 0 0
-0.000298759 0.00087636 -0.000106004
-0.000785408 0.00113 -0.000305699
-0.000289957 0.000839511 2.38368e-06
-0.000727508 0.00116609 2.358e-06
-0.000300234 0.000874269 0.000111517
-0.000788484 0.00113023 0.000310198
0 0 0
0 0 0
-0.000298361 0.000834213 0.000274889
-0.00080356 0.00112872 0.00047518
-0.000368161 0.000789717 0.000562388
-0.000899981 0.00107249 0.000685444
-0.000691883 0.000686864 0.000906433
-0.00115002 0.001057 0.00106941
-0.00136191 -0.00123856 -0.00107107
-0.00129614 -0.00128031 -0.000837312
-0.00135466 -0.00104985 -0.001262
-0.00127448 -0.000844556 -0.00128595
-0.00180423 -0.00134533 -0.00134738
-0.00214588 -0.0014029 -0.00139639
-0.0017261 -0.00115659 -0.0013664
-0.00207759 -0.00100372 -0.00145135
-0.00116713 -0.0013358 -0.00040391
-0.00116017 -0.00134311 -0.000203782
-0.00112569 -0.00106723 -0.000848059
-0.00113405 -0.000834457 -0.00109281
-0.0016842 -0.00139237 -0.000966815
-0.00211578 -0.00140817 -0.00122379
-0.00164023 -0.00144203 -0.000729589
-0.00207076 -0.00149838 -0.000777836
-0.00161056 -0.00147286 -0.000494716
-0.00205206 -0.00156825 -0.000271045
-0.00158333 -0.00119718 -0.000959689
-0.00204118 -0.000999136 -0.00126374
-0.0011586 -0.00134493 0.000207976
-0.00116499 -0.00133766 0.000404413
-0.00158182 -0.00148689 3.51449e-06
-0.00203485 -0.00157702 2.9227e-06
-0.00129468 -0.00128036 0.000834531
-0.00135998 -0.00124005 0.00106653
-0.00111915 -0.00106696 0.000845216
-0.00113102 -0.000836187 0.00109764
-0.00160153 -0.00146904 0.00048009
-0.00203638 -0.00156361 0.000266736
-0.00164733 -0.00144274 0.000719606
-0.0020893 -0.00149889 0.00076004
-0.00168248 -0.0013927 0.00095804
-0.00211398 -0.00140893 0.00121067
-0.00157883 -0.00119732 0.000950734
-0.00204199 -0.00100109 0.00126172
-0.00135155 -0.00105549 0.00126056
-0.0012735 -0.00084963 0.00129059
-0.00180091 -0.0013528 0.00133754
-0.00214406 -0.00140974 0.00138359
-0.0017229 -0.00116428 0.0013625
-0.0020764 -0.00101072 0.00145144
-0.00117606 -0.000406587 -0.00134403
-0.00117048 -0.00019609 -0.00135228
-0.00162759 -0.000723639 -0.00145109
-0.00205835 -0.000774513 -0.00149286
-0.00117938 -0.000405713 0.00134869
-0.00117149 -0.000193429 0.00135361
-0.00163108 -0.000729156 0.00145722
-0.00206162 -0.000781208 0.00149881
-0.00117224 0.000197241 -0.0013499
-0.00118117 0.000404652 -0.00133888
-0.0015973 -0.000230731 -0.00148971
-0.00204511 -0.000512661 -0.00152885
-0.00159738 4.88618e-06 -0.00151207
-0.00205464 9.98323e-06 -0.00159283
-0.00159249 0.00024408 -0.00148188
-0.00204838 0.000519233 -0.00152664
-0.00117175 0.000197666 0.0013447
-0.00118158 0.000404098 0.00133947
-0.00159737 -0.000234085 0.00149281
-0.00204984 -0.00052142 0.00153511
-0.00159068 4.4978e-06 0.00150751
-0.0020433 3.40519e-06 0.00158925
-0.00159095 0.000247314 0.00148656
-0.00204885 0.000525004 0.00153553
-0.00127142 0.000846651 -0.00127978
-0.00135328 0.00104951 -0.00125582
-0.00112592 0.000839292 -0.0010832
-0.00112011 0.00107913 -0.000843876
-0.00164623 0.000708779 -0.00144803
-0.00209172 0.00074971 -0.00150317
-0.00112673 0.000842879 0.00108834
-0.00111797 0.00107552 0.000839881
-0.00127436 0.000855128 0.0012843
-0.00135546 0.00105932 0.00125474
-0.00164973 0.000723176 0.00145952
-0.00209636 0.000765282 0.0015048
-0.00135637 0.00123994 -0.00107313
-0.00129176 0.00128891 -0.000842499
-0.00172267 0.00115062 -0.00136314
-0.00208705 0.000989789 -0.00144752
-0.00179714 0.00133987 -0.00134792
-0.00214236 0.00139265 -0.00139676
-0.0011663 0.00133997 -0.000405806
-0.00115785 0.00134594 -0.000205115
-0.00157786 0.00119958 -0.000956039
-0.00204607 0.000987087 -0.00126093
-0.00167602 0.00139341 -0.000968458
-0.00210881 0.00139976 -0.00122232
-0.0016403 0.00144961 -0.000734851
-0.00207387 0.00149825 -0.000784371
-0.00160876 0.0014725 -0.000495597
-0.00204734 0.00156151 -0.000271413
-0.00115878 0.00134855 0.000206249
-0.00116696 0.00134358 0.000403526
-0.00158019 0.00148694 1.90115e-06
-0.00203032 0.00157675 2.04987e-06
-0.001293 0.00128695 0.000834556
-0.00135943 0.00124311 0.00106502
-0.00157702 0.00120311 0.000949313
-0.00204922 0.00100043 0.0012616
-0.00160265 0.00147243 0.000481424
-0.00203522 0.00155891 0.000267305
-0.00164175 0.0014487 0.000719798
-0.0020791 0.00150363 0.000764779
-0.00167832 0.00139614 0.000956381
-0.00210962 0.00140904 0.00121526
-0.00172387 0.00116668 0.00136168
-0.00208667 0.00100576 0.00145201
-0.00180143 0.00135499 0.00133813
-0.00214336 0.00140636 0.00138992
-0.00249574 -0.00142087 -0.00123236
-0.00249516 -0.0014461 -0.00101879
-0.00249333 -0.00122287 -0.00141846
-0.00249021 -0.00101677 -0.00143826
-0.00284594 -0.00140134 -0.00138575
-0.00319493 -0.00134327 -0.00134073
-0.00288057 -0.00140227 -0.00121085
-0.00331486 -0.00138496 -0.000958534
-0.00250024 -0.00152582 -0.000530982
-0.00250831 -0.00157065 -0.000265741
-0.00250303 -0.00125145 -0.00101811
-0.00249893 -0.0010048 -0.00125058
-0.00250782 -0.00103162 -0.0010359
-0.0024987 -0.000512314 -0.00132313
-0.00291773 -0.00147072 -0.000766993
-0.00334647 -0.00142977 -0.000719749
-0.00298976 -0.00101799 -0.0010224
-0.00347862 -0.00047059 -0.00125923
-0.002502 -0.00157264 0.000258841
-0.00250173 -0.00153729 0.000521137
-0.0025054 -0.00110099 -0.000538808
-0.00249696 -0.000535643 -0.00109775
-0.00249551 -0.00109049 0.000534484
-0.00250075 -0.000538238 0.00109669
-0.00294581 -0.00152918 -0.000266097
-0.00337323 -0.00145187 -0.00049018
-0.00294728 -0.00157455 5.91742e-06
-0.00340583 -0.00150935 4.82081e-06
-0.00295798 -0.00155596 0.000261875
-0.00339696 -0.00147764 0.000485816
-0.00303624 -0.00108174 -0.000519273
-0.00354801 -0.000483165 -0.00102153
-0.00302783 -0.001071 0.000514719
-0.00355752 -0.000483268 0.00101526
-0.00357164 -0.00101112 -7.38808e-07
-0.004573 -0.00033289 5.40482e-06
-0.00357003 -0.00101578 0.000238581
-0.00456554 -0.000340656 0.000333838
-0.0025001 -0.0014431 0.00100608
-0.00249535 -0.00141861 0.00122058
-0.00250458 -0.00125135 0.00100988
-0.00249893 -0.00100201 0.00125061
-0.00250535 -0.00101901 0.00104861
-0.00250523 -0.000512145 0.00133651
-0.002935 -0.00146602 0.000764283
-0.00336543 -0.00142112 0.000725359
-0.00298904 -0.00101286 0.00102195
-0.0034814 -0.000466753 0.00125857
-0.00249495 -0.00122708 0.00141127
-0.00249074 -0.00101997 0.00143607
-0.00288207 -0.00140029 0.00120558
-0.00332104 -0.00138325 0.000958717
-0.00284906 -0.00140125 0.00138108
-0.0031981 -0.00134228 0.00133869
-0.00249545 -0.000536799 -0.00150359
-0.0024969 -0.000275544 -0.00155604
-0.0029139 -0.0010021 -0.00144103
-0.00327196 -0.00115261 -0.00135865
-0.00295349 -0.000994558 -0.00124469
-0.00340769 -0.00119439 -0.000949292
-0.00292638 -0.000770287 -0.0014713
-0.00334397 -0.000722679 -0.00142615
-0.00293327 -0.000523175 -0.00150172
-0.00340127 -0.000250392 -0.00149237
-0.00249754 -0.000538234 0.00151484
-0.002497 -0.0002767 0.00156452
-0.00295239 -0.000993142 0.00124355
-0.00340933 -0.00119131 0.000948923
-0.00291484 -0.00100274 0.0014404
-0.00327302 -0.00115257 0.00135735
-0.00292722 -0.000771079 0.0014748
-0.00334393 -0.000724191 0.00142663
-0.00293488 -0.000523916 0.00150442
-0.00340751 -0.000247448 0.0014887
-0.00250117 0.000257209 -0.00159234
-0.00250799 0.000519873 -0.00153751
-0.00248832 0.000531353 -0.00109841
-0.00249753 0.00109647 -0.000542181
-0.00295779 7.69406e-06 -0.00159121
-0.0034217 6.54854e-06 -0.00152001
-0.00302365 0.00051532 -0.00107856
-0.0035571 0.00102042 -0.000488281
-0.00357438 -5.65252e-07 -0.00101789
-0.00457141 3.21249e-06 -0.00033267
-0.00357025 0.000240367 -0.00101825
-0.00456589 0.000335764 -0.00033881
-0.00249867 0.000251721 0.00157619
-0.00251239 0.0005146 0.00151931
-0.00250431 0.00053783 0.00109413
-0.00249789 0.00109332 0.000531864
-0.00249397 0.000512229 0.00133223
-0.00248963 0.00103232 0.00103236
-0.00295502 2.99398e-06 0.00158539
-0.00342333 7.26894e-06 0.00151569
-0.00303919 0.000520093 0.0010728
-0.00355353 0.00101331 0.00047849
-0.00299984 0.000493077 0.00132265
-0.00348075 0.000970048 0.000966959
-0.00358238 -8.4087e-07 0.00101016
-0.00456301 -1.70241e-06 0.000331795
-0.00354415 4.64003e-06 0.00127663
-0.00452665 -5.01952e-06 0.000725229
-0.00358855 0.000237697 0.00101987
-0.0045596 0.00032681 0.000333407
-0.00352782 0.00024134 0.0012649
-0.00451197 0.000313789 0.000716633
-0.00250166 0.00100816 -0.001436
-0.00249439 0.0012126 -0.00141563
-0.00250101 0.00100929 -0.00124853
-0.0024936 0.00124898 -0.00100802
-0.00249685 0.00104819 -0.00102106
-0.00249866 0.00133899 -0.000515107
-0.00293929 0.000524073 -0.00152314
-0.00339826 0.000248153 -0.00148893
-0.00293405 0.000761431 -0.00149212
-0.00336233 0.000714962 -0.0014457
-0.00291478 0.000987266 -0.00143524
-0.00326993 0.00115209 -0.00135959
-0.00295355 0.000989894 -0.00125067
-0.00339882 0.00120332 -0.000952156
-0.00298206 0.00101981 -0.00102365
-0.00348149 0.001262 -0.000477308
-0.00352191 0.000728659 -0.0009921
-0.00454 0.000518644 -0.00032601
-0.00250275 0.00100511 0.00124658
-0.00249655 0.00125062 0.00101389
-0.00250313 0.00100156 0.00142318
-0.00249418 0.00121421 0.00141113
-0.00295132 0.000525659 0.00152022
-0.00340713 0.000246334 0.00148978
-0.00294579 0.000776529 0.00148103
-0.00337078 0.00073122 0.00143904
-0.00294731 0.000988506 0.00125328
-0.00340246 0.00120595 0.000953713
-0.00292015 0.000995589 0.00143913
-0.00326858 0.001159 0.0013598
-0.00346305 0.000720735 0.00122665
-0.00448435 0.0004816 0.000703674
-0.00249214 0.00140867 -0.0012329
-0.0024921 0.0014369 -0.00102124
-0.00284826 0.00139213 -0.00139411
-0.00319586 0.00134232 -0.00134513
-0.00288048 0.00139716 -0.00121754
-0.00331363 0.00138761 -0.000958874
-0.00250613 0.00151881 -0.000538413
-0.00250239 0.00156805 -0.000269733
-0.0029321 0.00147512 -0.000777879
-0.00336349 0.00142879 -0.000733185
-0.00250247 0.00156305 0.000260394
-0.00250614 0.00152647 0.000525605
-0.00295939 0.0015425 -0.000269227
-0.00340185 0.00146238 -0.000488517
-0.00295489 0.00157815 3.01475e-06
-0.00341788 0.00150278 5.11499e-06
-0.00295645 0.00153197 0.000268772
-0.0034009 0.00145628 0.000488304
-0.00357747 0.00101079 -2.5237e-06
-0.00455972 0.000336306 -1.09007e-06
-0.00354066 0.00127222 -6.82092e-07
-0.00451778 0.000730235 -1.51994e-06
-0.00249729 0.00144269 0.00101694
-0.00249472 0.00141682 0.00123159
-0.00294271 0.00146938 0.000773294
-0.00336862 0.00143 0.000727855
-0.0028826 0.00140216 0.0012152
-0.00331719 0.00139521 0.000962366
-0.00284987 0.00139781 0.00139068
-0.00319362 0.00134794 0.00134096
-0.00363746 -0.00124452 -0.00106976
-0.00369968 -0.00129804 -0.000835462
-0.00363994 -0.00105555 -0.00125827
-0.00371671 -0.000851618 -0.00129034
-0.00384526 -0.00105996 -0.00107401
-0.00430454 -0.000689946 -0.000909653
-0.00401611 -0.000864296 -0.00110077
-0.00453588 -0.000315205 -0.000823556
-0.00382803 -0.0013833 -0.000404372
-0.00384823 -0.00139081 -0.000199862
-0.00386145 -0.00109032 -0.000849324
-0.00385892 -0.000846126 -0.00109946
-0.00396995 -0.0008628 -0.000872904
-0.00396089 -0.000391016 -0.00114758
-0.00409096 -0.00107408 -0.000686116
-0.0046285 -0.000792491 -0.000563964
-0.00418217 -0.00113599 -0.000472886
-0.00469609 -0.000829832 -0.000273617
-0.0041945 -0.00114941 -0.000309379
-0.00469452 -0.000875408 -0.000109433
-0.00432801 -0.000879096 -0.000665803
-0.00477755 -0.000378445 -0.000576101
-0.0043973 -0.00090329 -0.00046539
-0.00482288 -0.000402644 -0.000273141
-0.00443508 -0.000943287 -0.000316678
-0.00484018 -0.00043155 -8.69869e-05
-0.00447637 -0.000689102 -0.000492791
-0.00486293 -0.000190716 -0.000286401
-0.00449955 -0.000709653 -0.0003124
-0.00487667 -0.000182235 -8.56054e-05
-0.00385513 -0.00136388 0.000208864
-0.00384418 -0.00135419 0.000418333
-0.0040603 -0.000902711 -0.000417544
-0.00405215 -0.000417584 -0.000902268
-0.0042634 -0.00119354 -3.07561e-06
-0.00470629 -0.000843515 -3.47823e-06
-0.00443743 -0.00096613 -2.60254e-06
-0.00483616 -0.000450839 -1.66325e-06
-0.00450579 -0.000740906 -5.6209e-07
-0.00487343 -0.000197782 4.63014e-07
-0.00450577 -0.000735693 0.000152278
-0.00486799 -0.000191554 0.000182882
-0.00370649 -0.00129059 0.000838858
-0.00363955 -0.00124289 0.00106962
-0.00386213 -0.00108175 0.000851881
-0.00385807 -0.000844284 0.00109939
-0.00396701 -0.000863661 0.000867418
-0.00396777 -0.000402121 0.00114142
-0.00420273 -0.00115186 0.000310866
-0.00469642 -0.0008806 0.000104621
-0.00418948 -0.00114343 0.000474121
-0.00469751 -0.000838455 0.000273557
-0.00409307 -0.00107846 0.000686734
-0.00462763 -0.000793924 0.000566463
-0.00443338 -0.000950267 0.000311706
-0.00483564 -0.000443508 8.2715e-05
-0.00439374 -0.000915442 0.000466469
-0.00481943 -0.000406721 0.000275968
-0.00432667 -0.000884054 0.000667339
-0.00477565 -0.000377813 0.000572969
-0.00447203 -0.000706669 0.000486444
-0.00486134 -0.000174317 0.000293623
-0.00364004 -0.00105639 0.00125725
-0.00371621 -0.000852357 0.0012894
-0.00384558 -0.00105976 0.00107501
-0.00430466 -0.000687893 0.000913179
-0.00401625 -0.000864281 0.00109965
-0.00453615 -0.000312434 0.000819964
-0.00381085 -0.000406108 -0.00138808
-0.0038325 -0.0001954 -0.00139348
-0.00424467 -0.000459039 -0.00117776
-0.00471237 -0.00023737 -0.000812755
-0.0043954 -0.00046869 -0.000921411
-0.00482566 -0.000267369 -0.00041363
-0.00441474 -0.000297343 -0.00093303
-0.00483604 -8.57279e-05 -0.000424334
-0.00381683 -0.000398579 0.00138167
-0.00383963 -0.000184002 0.00138766
-0.00439809 -0.000471453 0.000916681
-0.00482674 -0.000266006 0.000414996
-0.00424594 -0.000462932 0.00117051
-0.00471269 -0.000235577 0.000812943
-0.00442143 -0.000300949 0.00093054
-0.00483532 -8.67813e-05 0.000435661
-0.00384366 0.000208634 -0.00136719
-0.00382493 0.000418107 -0.00134698
-0.00419506 -0.000137038 -0.0011692
-0.00468063 -0.000167694 -0.000855828
-0.00417538 1.52119e-05 -0.00114444
-0.00467335 6.75062e-07 -0.000896518
-0.00444951 2.18896e-06 -0.000973318
-0.00483762 -2.68836e-06 -0.000438822
-0.0045104 -2.61582e-08 -0.000737189
-0.00488067 2.58171e-06 -0.000199394
-0.00423574 0.000141387 -0.00118993
-0.00470857 0.000114448 -0.000860681
-0.00443828 0.000144579 -0.000957424
-0.00483168 0.000172569 -0.000427968
-0.00451608 0.000147177 -0.000739139
-0.00487301 0.000181052 -0.000190038
-0.00384336 0.000209865 0.00136031
-0.00382555 0.000414608 0.00134499
-0.00421622 -0.000126555 0.00115394
-0.00469043 -0.000166146 0.000859477
-0.00444884 4.43162e-06 0.000938789
-0.00483831 -7.16233e-06 0.000445654
-0.00418992 1.64379e-05 0.00112245
-0.00468053 -2.08235e-07 0.000893356
-0.00444502 0.000146301 0.000931935
-0.0048357 0.000171616 0.000445934
-0.00425177 0.00013412 0.0011675
-0.00471692 0.000111664 0.000861236
-0.00372279 0.000849851 -0.00128255
-0.00364328 0.0010535 -0.00125952
-0.00385681 0.000839375 -0.00109208
-0.00386079 0.00108925 -0.000850571
-0.00396398 0.000865041 -0.000865086
-0.00396903 0.00114843 -0.000402997
-0.00424229 0.00046247 -0.00117901
-0.00468881 0.000241916 -0.000815404
-0.00439383 0.00047628 -0.000923977
-0.00482321 0.000267761 -0.000426196
-0.00446983 0.000482524 -0.000709648
-0.00486253 0.000284355 -0.000177243
-0.00385986 0.000838266 0.00108595
-0.00386694 0.00108077 0.000833772
-0.00372145 0.000849394 0.00128275
-0.00364213 0.00105528 0.00125626
-0.00439556 0.00047058 0.000918766
-0.00482329 0.00026916 0.000438538
-0.00424301 0.000459688 0.0011666
-0.00468712 0.000244303 0.000818357
-0.00363406 0.00124597 -0.00107387
-0.00369129 0.00130363 -0.000846015
-0.00401872 0.000861843 -0.00110289
-0.00453168 0.000328281 -0.000831785
-0.00384922 0.00105834 -0.00107715
-0.00430764 0.000694504 -0.00091227
-0.00382281 0.00138227 -0.000412611
-0.00384553 0.00138698 -0.000196536
-0.00432882 0.000883183 -0.00066555
-0.00477954 0.00039346 -0.000575633
-0.00438519 0.000903704 -0.000461694
-0.00482057 0.000394907 -0.000277615
-0.00442582 0.000938793 -0.000305297
-0.00483375 0.000433978 -8.23715e-05
-0.00408646 0.00107621 -0.000687727
-0.00462804 0.00079712 -0.000564918
-0.00417313 0.00114023 -0.000473878
-0.00469323 0.000834028 -0.000271683
-0.00418954 0.0011475 -0.000307189
-0.0046929 0.000884745 -0.000106667
-0.00384684 0.00138813 0.000203189
-0.00383282 0.00139168 0.000404695
-0.00442622 0.0009356 2.99905e-06
-0.00483003 0.000455946 6.56612e-07
-0.00427335 0.00117343 5.46954e-06
-0.00470875 0.000849601 1.62627e-06
-0.00369633 0.0012939 0.000827643
-0.00363169 0.00124153 0.00106281
-0.00441507 0.000925431 0.000310571
-0.00483097 0.000415045 8.46471e-05
-0.00437846 0.000893416 0.000466591
-0.00481628 0.000393453 0.000281141
-0.00433669 0.0008701 0.000661966
-0.0047794 0.000392603 0.000581977
-0.00419104 0.00114065 0.000307826
-0.00469074 0.000883124 0.000109295
-0.00418822 0.00113479 0.000474461
-0.00469839 0.000834443 0.000275572
-0.0040956 0.00106472 0.000679222
-0.00462972 0.000795056 0.000561754
-0.00402187 0.000863272 0.0010988
-0.0045331 0.000333403 0.000836191
-0.00385237 0.00106052 0.00106772
-0.0043103 0.000698053 0.000906276
-0.005 0 0
-0.005 0 0
-0.005 0 0
-0.005 0 0
-0.005 0 0
-0.005 0 0
-0.005 0 0
-0.005 0 0
-0.005 0 0
-0.005 0 0
-0.005 0 0
-0.005 0 0
-0.005 0 0
-0.005 0 0
-0.005 0 0
-0.005 0 0
-0.005 0 0
-0.005 0 0
-0.005 0 0
-0.005 0 0
-0.005 0 0
-0.005 0 0
-0.005 0 0
-0.005 0 0
-0.005 0 0
-0.005 0 0
-0.005 0 0
-0.005 0 0
-0.005 0 0
-0.005 0 0
-0.005 0 0
-0.005 0 0
-0.005 0 0
-0.005 0 0
-0.005 0 0
-0.005 0 0
-0.005 0 0
-0.005 0 0
-0.005 0 0
-0.005 0 0
-0.005 0 0
-0.005 0 0
-0.005 0 0
-0.005 0 0
-0.005 0 0
-0.005 0 0
-0.005 0 0
-0.005 0 0
-0.005 0 0
-0.005 0 0
-0.005 0 0
-0.005 0 0
-0.005 0 0
-0.005 0 0
-0.005 0 0
-0.005 0 0
-0.005 0 0
-0.005 0 0
-0.005 0 0
-0.005 0 0
-0.005 0 0
-0.005 0 0
-0.005 0 0
-0.005 0 0
-0.005 0 0
-0.005 0 0
-0.005 0 0
-0.005 0 0
-0.005 0 0
-0.005 0 0
-0.005 0 0
-0.005 0 0
-0.005 0 0
-0.005 0 0
-0.005 0 0
-0.005 0 0
-0.005 0 0
-0.005 0 0
-0.005 0 0
-0.005 0 0
-0.005 0 0
-0.005 0 0
-0.005 0 0
-0.005 0 0
-0.005 0 0
-0.005 0 0
-0.005 0 0
-0.005 0 0
-0.005 0 0
-0.005 0 0
-0.005 0 0
-0.005 0 0
-0.005 0 0
-0.005 0 0
-0.005 0 0
-0.005 0 0
-0.005 0 0
-0.005 0 0
-0.005 0 0
-0.005 0 0
-0.005 0 0
-0.005 0 0
-0.005 0 0
-0.005 0 0
-0.005 0 0
-0.005 0 0
-0.005 0 0
-0.005 0 0
-0.005 0 0
-0.005 0 0
-0.005 0 0
-0.005 0 0
-0.00404059 0.00108627 -0.000879099
-0.00445196 0.000526445 -0.000847622
-0.00208593 -0.00144638 0.0010067
-0.00466646 0.000830148 -0.000384277
-0.005 0 0
-0.0047217 0.000542771 -0.000565859
0 0 0
-0.005 0 0
0 0 0
-0.00159006 0.00148164 -0.000246008
-0.005 0 0
-0.00454442 -4.64072e-06 0.000521916
-0.00173818 0.00134553 -0.00116631
-0.00210798 0.0012051 -0.00141229
-0.005 0 0
-0.00425033 -0.000285786 0.00117393
-0.00479464 -0.000162463 0.000608508
-0.000951122 -0.0010806 -0.000875887
-0.00054611 -0.000528135 -0.000848399
-0.00204761 -0.000254242 -0.00155665
-0.00332176 -0.000946585 -0.00138864
-0.00210847 -0.00121671 -0.00141555
-0.00174638 -0.00134655 -0.00116504
-0.000753748 0.00116505 0.000171813
-0.00019365 -0.000400469 -0.000409607
-0.00167633 -0.000952273 -0.00140272
-0.00165677 -0.00116583 -0.00117276
0 0 0
-0.00478316 -8.92879e-05 0.000619741
-0.005 0 0
-0.00468744 -8.0889e-05 0.00089212
-0.000843278 0.000658768 -0.00114786
0 0 0
-0.000275479 -0.000544727 -0.000568867
-0.000326272 -0.000828402 -0.000384363
-0.000241269 -0.000558974 -0.000396447
-0.00207778 0.00144192 -0.00101955
-0.00207709 0.00121266 -0.00122309
-0.000465234 -0.000344714 -0.000512793
-0.005 0 0
-0.000495821 -0.000705835 -0.000156107
0 0 0
-0.000312471 8.75419e-05 -0.000881801
0 0 0
-0.00331736 0.000945454 -0.00139063
-0.00410436 0.000668457 0.000423157
-0.00204687 -0.00153609 0.000512058
-0.00414302 0.000660646 0.00115218
-0.00325084 0.00134916 0.00115937
-0.00288536 0.00121029 0.00140626
-0.00204269 0.00125295 -0.00100836
-0.000749181 -0.000287255 -0.00116487
-0.000221176 -0.000264644 -0.000612971
-0.000845844 0.000660589 0.00115049
0 0 0
-0.000325941 -0.00082477 0.000384523
0 0 0
-0.000240031 -0.000555116 0.000398189
-0.005 0 0
-0.000756877 0.000856722 -0.000902518
-0.000951828 0.0010838 -0.000877211
-0.000543609 0.000516766 -0.000842228
-0.00027423 0.000538261 -0.000565669
-0.000327587 0.000830578 -0.000385417
-0.000241036 0.00056055 -0.000396553
0 0 0
0 0 0
-0.000205104 0.000268853 -0.000591528
-0.000192967 0.000403683 -0.000408135
-0.000654459 0.000662289 -0.000908615
0 0 0
0 0 0
-0.000210196 -0.000169972 -0.000611785
0 0 0
-0.000206902 -7.77477e-05 -0.00060186
-0.000216642 9.68529e-07 -0.0006031
-0.000305223 -6.73899e-05 -0.000881979
0 0 0
-0.000311996 8.54792e-05 0.000876266
-0.00208471 -0.00144763 -0.00101934
-0.00204744 -0.00126073 -0.00101295
-0.00207957 -0.0012213 -0.00122693
-0.000544169 0.000516493 0.000841028
-0.000756465 0.000853419 0.000901305
-0.000953007 0.00108193 0.000873079
-0.00339438 0.000490967 0.0014654
0 0 0
-0.000227995 0.000591768 -0.000262078
0 0 0
-0.000216025 0.000601444 -0.000155236
-0.000303824 0.000876764 -0.00018616
-0.00484062 8.01325e-05 0.000446068
0 0 0
-0.00030307 -0.000876072 -0.000187479
-0.0014195 0.00102349 0.000237167
-0.000747839 0.000291307 0.00116082
-0.000202017 0.000165575 0.000603993
-0.000210417 8.60275e-05 0.000605258
-0.00075238 -0.00116154 -0.000167251
-0.000206694 -0.0006128 -7.71578e-05
-0.000751301 -0.000284946 0.00116819
0 0 0
-0.000206842 0.000611065 8.41312e-05
-0.000304626 0.000872042 0.000192403
0 0 0
-0.000215593 0.000594279 0.000162414
-0.000161404 0.000435219 0.000181255
-0.000226508 0.000581578 0.00026738
-0.000996684 -0.00112439 -0.000195058
-0.00159314 -0.00148247 -0.000244288
-0.000564431 -0.000919553 -0.000143278
-0.000747303 0.000296322 -0.00116221
-0.000201953 0.000170659 -0.000605124
-0.000211192 9.07659e-05 -0.000613514
-0.000654254 0.000658415 0.00091115
-0.000205898 0.000263719 0.000593292
-0.000559943 0.000673623 0.000682781
-0.000190467 0.000394701 0.00041437
0 0 0
-0.000273866 0.000534806 0.000564863
-0.000327519 0.000825601 0.000384925
-0.000240484 0.000553812 0.000397432
-0.000190195 -0.000396373 0.000419286
-0.000220672 -0.000263614 0.000615892
-0.000274168 -0.000543379 0.000569083
-0.000545808 -0.000529802 0.00084809
-0.000949239 -0.00107968 0.000873985
-0.00476266 0.000571188 0.00026376
-0.005 0 0
-0.000464696 0.000513561 0.000157815
0 0 0
-0.000454522 0.000326165 0.000325562
-0.00433087 0.000656686 0.000915356
-0.00480277 0.000383042 0.000414224
-0.000854995 -0.000657184 -0.00115351
-0.00066715 -0.000658382 -0.00091863
-0.00121577 -0.00104366 -0.00106778
-0.000759189 -0.000854 -0.000908828
-0.0032546 -0.00134218 0.0011548
-0.00288675 -0.00121496 0.00140174
-0.00408029 -6.98743e-07 -0.000906777
-0.000211494 -0.000168705 0.000613676
-0.000156957 -8.59857e-05 0.000441041
0 0 0
-0.00467816 -8.24124e-05 -0.000892681
-0.005 0 0
-0.000993901 -0.000205163 -0.00113049
-0.000474825 -0.000162568 -0.000717435
-0.000154932 -8.77302e-05 -0.000443647
-0.00104006 0.00110843 -0.00062358
-0.00205829 0.00153032 -0.000530842
-0.0016082 -0.000481445 0.00147532
-0.000574811 -0.000305643 0.000928152
0 0 0
-0.000164469 -0.000440204 -0.000170004
-0.000227708 -0.000590867 -0.000262601
-0.000216044 -0.000602203 -0.000155881
-0.005 0 0
-0.005 0 0
-0.00468681 0.000873458 -0.000192579
-0.000752767 -0.00116116 0.000174619
-0.000202188 -0.000640549 4.42916e-06
-0.00174367 -0.00134889 0.00115497
-0.00207856 -0.00122131 0.00121693
-0.00210665 -0.00122358 0.00140864
-0.000225199 -0.000579988 0.000268891
0 0 0
-0.00165421 -0.00116919 0.00116727
-0.00167566 -0.000960151 0.00140593
-0.00102024 -0.000412387 0.00112984
-0.000994328 -0.000204065 0.00113432
-0.00204742 -0.000261054 0.00156237
-0.00105628 -0.000620452 0.00112512
-0.00158458 -0.000949759 0.00121115
-0.000565557 -0.000666748 0.000695273
-0.00449399 0.000714237 -0.00031886
-0.00466974 0.000825081 0.000383761
-0.005 0 0
-0.00475535 0.000549982 0.000395352
-0.00341231 -0.000941875 -0.00119818
-0.00336576 -0.000486897 -0.00146168
0 0 0
-0.00030562 -6.25793e-05 0.00088306
-0.000215671 7.98526e-07 0.000594054
-0.000207511 -7.52592e-05 0.000602502
-0.00210658 0.00122003 0.00141043
-0.00174108 0.00135301 0.00115547
0 0 0
-0.000206193 -0.000609189 8.71324e-05
-0.000303144 -0.000868554 0.000194718
-0.000214494 -0.000591393 0.000164782
-0.00288462 -0.00121465 -0.00140444
-0.00325246 -0.00134313 -0.0011564
-0.00333824 -0.00116361 -0.00116362
-0.00405131 0.000908667 -0.000420399
-0.00411216 0.000679212 -0.00042944
-0.00401003 0.00114036 5.9477e-07
-0.00293647 -0.00150379 -0.000520659
-0.000993434 -0.00112537 0.000202048
-0.000993997 -0.00113339 5.09818e-06
-0.000563742 -0.000919997 0.000151631
-0.00158604 -0.00148389 0.000245226
-0.00149852 -0.000474997 0.00126468
-0.00150016 -0.00096751 0.000982975
-0.00204797 -0.00125897 0.000998602
-0.00101469 -0.000849079 0.000873981
-0.00140203 -0.000503645 0.000753238
-0.00145609 -0.000730427 0.00100049
-0.00143595 -0.000493717 0.00100888
-0.000487416 -0.000165513 0.000709956
-0.00044924 -0.000332474 0.000331767
0 0 0
-0.00141633 -0.00102024 0.000237082
-0.000464039 -0.00051322 0.000160332
-0.00145893 -0.0012693 0.00024256
-0.000482864 -0.000503106 0.000517188
-0.000469451 -0.000512196 0.000330654
0 0 0
-0.000486791 -0.000708768 0.0003302
-0.00102827 -0.0010935 0.000625864
-0.0010086 -0.00112339 0.000412846
-0.000160797 -0.000432368 0.000185935
-0.00398663 0.000411428 0.00112515
-0.00294856 0.000260041 0.00155709
-0.00401188 0.000204093 0.00113447
-0.00350326 0.000479324 0.00125129
-0.005 0 0
-0.00477924 -6.03042e-07 0.000606483
-0.00478945 7.67881e-05 0.000608839
-0.00469715 6.71048e-05 0.000889818
-0.00414564 -0.000665189 0.00115364
-0.00423166 -0.000858439 0.000903942
-0.00445252 -0.00051568 0.000843008
-0.00404019 -0.00108682 0.000877471
-0.00333572 0.00117069 0.00116607
-0.00377975 0.00104744 0.00105936
-0.00331789 0.000955827 0.00139587
-0.00478969 0.000166483 0.000616193
-0.00425303 0.00028752 0.0011673
-0.00442995 0.000300559 0.00092756
-0.00478444 0.000259786 0.000617118
-0.00433107 -0.000662491 0.000909994
-0.00479071 -0.000256691 0.000586959
-0.00472013 -0.000536256 0.000565066
-0.005 0 0
-0.00466823 -0.000831678 0.000385931
-0.00475242 -0.000555782 0.000393175
-0.005 0 0
-0.00480415 -0.000387697 0.000405379
-0.00476723 -0.000579726 0.000261415
-0.00208031 0.00144502 0.00100877
-0.0020777 0.0012232 0.00121985
-0.0010408 0.000625941 0.00111427
-0.000165163 0.000172409 0.000432339
-0.000499017 0.000319686 0.000703962
-0.00145609 0.00073539 0.000995285
-0.00142619 0.000749169 0.000743338
-0.00140676 0.000497399 0.000760822
-0.0016093 0.000484124 0.0014746
-0.00100905 0.000412293 0.00112628
-0.000561359 0.000146341 0.000916834
-0.00203874 0.000264925 0.00156461
-0.000994368 0.000199286 0.00113035
-0.000978011 4.11763e-07 0.00113788
-0.00141869 0.000244424 0.00103159
-0.000452898 0.000157585 0.000518994
-0.00146065 0.000243748 0.00127643
-0.000449578 -4.5079e-06 0.000521353
-0.00047186 0.000509889 0.000327744
0 0 0
-0.000488939 0.000711476 0.000324233
-0.000483435 0.000500272 0.000509866
-0.00291474 0.0012139 0.00121837
-0.00249599 0.00122193 0.00122743
-0.00291431 0.00143111 0.00100743
-0.00168079 0.000961841 0.00140438
-0.00121269 0.0010507 0.00106048
-0.00158495 0.000953959 0.00120883
-0.00165306 0.00117464 0.00116668
-0.00121182 0.00104786 -0.00106248
-0.00167905 0.000945128 -0.00139807
-0.00165218 0.00116326 -0.00116916
-0.00294992 -0.000263311 0.00154457
-0.00296975 -0.000751377 0.00127645
-0.00250598 -0.000768207 0.0012927
-0.0033217 -0.000947411 0.00138893
-0.00377728 -0.00105282 0.00106742
-0.00333953 -0.00116216 0.00116283
-0.0034826 -0.000969246 0.00096953
-0.0029454 -0.00150375 0.000516494
-0.00299357 -0.000505963 0.00130873
-0.00301364 -0.00104461 0.000774744
-0.00249431 -0.00105868 0.000797785
-0.0020451 0.00126009 0.00100092
-0.00149753 0.000970428 0.000978162
-0.00102805 0.00110075 0.00062209
-0.00100985 0.000857031 0.00086362
-0.000564024 0.000924372 0.000148861
-0.000992952 0.00113543 2.95579e-06
-0.00158607 0.00148349 0.00024491
-0.00442726 0.000948531 -0.000142364
-0.00424086 0.00118074 -0.000164335
-0.00478717 0.000616151 -8.30604e-05
-0.0013812 0.000505355 0.000507379
-0.00352829 0.000998131 0.000721737
-0.00303066 0.00106855 0.000518005
-0.00340798 0.001478 0.000247093
-0.00394373 0.000623243 0.00111065
-0.00442471 0.000663796 0.000681819
-0.00340189 0.000950069 0.00119869
-0.00397044 0.000857153 0.000854863
-0.0029447 0.00124092 0.00100721
-0.00297485 0.000752317 0.0012854
-0.0024926 0.000767797 0.00128627
-0.00205652 -0.00153504 -0.000524967
-0.0010439 -0.00109908 -0.000624604
-0.00101057 -0.0011175 -0.000411386
-0.00404075 -0.00108426 -0.000876731
-0.00445183 -0.000517741 -0.000842662
-0.000751348 0.00116392 -0.000167445
-0.000201927 0.000640452 1.87632e-06
-0.000562144 0.000922045 -0.000144009
-0.000205968 0.000612015 -7.82661e-05
-0.00360111 -0.000495587 0.000760633
-0.00402283 3.18606e-06 0.00114438
-0.00303087 -0.000519229 0.00107302
-0.00449774 -0.000733568 0.000310745
-0.0034085 -0.00147907 0.000246253
-0.00405174 -0.000898539 0.000417174
-0.00410652 -0.000429332 0.000670702
-0.00352777 -0.000988501 0.000728619
-0.00449709 -0.000313586 0.00071224
-0.00442986 -0.000144267 0.000935031
-0.00447481 -0.000490505 0.000697218
-0.00483243 -0.000166425 0.000425186
-0.00442707 -0.000678023 0.000679475
-0.000994605 0.00112649 -0.000197362
-0.00100765 0.00112133 -0.000411576
-0.000162519 0.000441085 -0.000169753
-0.00423706 0.00117368 0.000170546
-0.00479163 0.000646265 4.33753e-07
-0.00441487 0.000936233 0.000148342
-0.00249446 0.00106416 0.000787744
-0.00295982 0.00150081 0.000523771
-0.00300984 0.0010519 0.000772942
-0.00297841 0.00102403 0.00102178
-0.00468795 0.000871662 0.000195934
-0.00477759 0.000577663 0.000157969
-0.005 0 0
-0.00478256 0.000607984 8.51848e-05
-0.00456335 0.000161293 0.000334072
-0.00362754 0.000500644 0.000504794
-0.00360005 0.000757279 0.000493622
-0.00478129 -8.38957e-05 -0.000610717
-0.0042359 -0.000289053 -0.0011818
-0.00360121 0.000764667 -0.000497925
-0.00457367 0.00016849 -0.000337266
-0.00453842 0.000527137 -2.5711e-06
-0.00377769 0.00105059 -0.0010681
-0.00414172 0.000661651 -0.00115402
-0.00432692 0.000663485 -0.000915553
-0.00423467 0.000859239 -0.000907554
-0.000854227 -0.000660523 0.00115839
-0.00121213 -0.00104496 0.00106602
-0.000664054 -0.000657525 0.000924552
-0.000756024 -0.000852834 0.000909383
-0.0014153 0.000234194 -0.00101629
-0.00475318 0.000553841 -0.00039192
-0.005 0 0
-0.00480494 0.000386589 -0.000409207
-0.00423348 -0.000856113 -0.000904439
-0.00377762 -0.00105414 -0.00106763
-0.00414582 -0.000664423 -0.0011562
-0.00341303 0.00148551 -0.000243623
-0.00454572 0.00015668 0.000520701
-0.00452668 0.000150625 0.00072387
-0.005 0 0
-0.00137671 0.000500515 -0.000504404
-0.00362774 0.000505714 -0.000505974
-0.00250168 0.000585002 1.06647e-07
-0.00442336 0.000302461 -0.000942333
-0.00424413 0.000294806 -0.00117819
-0.00478546 0.000258124 -0.000607419
-0.00478686 0.000165564 -0.000608969
-0.005 0 0
-0.00393724 0.0011264 -0.00062549
-0.00347241 0.000972854 -0.000970212
-0.003404 0.000945637 -0.00119623
-0.00344816 0.00123826 -0.000717433
-0.00362869 -0.000503285 0.000504431
-0.00250134 -7.55666e-07 0.000581086
-0.00137668 -0.000506474 0.000501681
-0.00423834 0.000851668 0.00090272
-0.00404457 0.00107912 0.000869425
-0.00472297 0.000541374 0.000567012
-0.00445334 0.000530043 0.00084688
-0.00478079 0.000581067 -0.000156057
-0.00476488 0.000568731 -0.000260844
-0.005 0 0
-0.00297344 0.00127779 -0.000761266
-0.00295382 0.00151071 -0.000527844
-0.00333694 0.00116714 -0.00116616
-0.00288175 0.00120424 -0.00140744
-0.00325498 0.00134647 -0.00116082
-0.000465576 -0.000519951 2.47684e-07
-0.00140133 -0.000754563 -0.000501982
-0.00483091 0.000407785 -0.000173526
-0.00484786 0.000274067 -0.000290194
-0.00442379 0.000677042 -0.000683172
-0.00447176 0.00069347 -0.00049289
-0.00457193 -0.000338869 0.000167216
-0.00407266 -0.00090653 0.000203944
-0.0048291 -0.000424097 0.000172388
-0.005 0 0
-0.00484478 -0.000277124 0.000285767
-0.00485339 -0.000296555 0.000179435
-0.00294377 0.00124327 -0.00099902
-0.00249412 0.00121816 -0.00122702
-0.0029137 0.00121034 -0.00121587
-0.00291196 0.00143419 -0.00101166
-0.00482777 0.000400823 0.000177243
-0.00403817 0.000640241 0.000873256
-0.00454048 0.000321499 0.000518185
-0.00407786 0.000662005 0.000640621
-0.00101484 0.000859885 -0.000859638
-0.000562828 0.000685286 -0.00067966
-0.00158308 0.00093827 -0.00120404
-0.00149874 0.00096926 -0.000974824
-0.0025012 0.00129309 -0.000770004
-0.00148882 0.00125592 -0.000479785
-0.00101764 -0.000413209 -0.00112478
-0.000572955 -0.000308802 -0.000924433
-0.00160374 -0.00047713 -0.00146995
-0.00160934 0.000473959 -0.00147016
-0.000561875 0.000149819 -0.000927884
-0.00140155 0.000748815 -0.000505714
-0.000456629 0.000522272 -5.84702e-07
-0.00145356 0.000989585 -0.000736295
-0.00143308 0.00100254 -0.000497229
-0.000488922 0.000709197 -0.00015834
-0.00045132 0.000329816 -0.00033456
-0.000465447 0.000155942 -0.000519352
0 0 0
-0.000485085 0.000512923 -0.00050345
-0.000470942 0.000325372 -0.000516443
0 0 0
-0.00101022 0.000408098 -0.00112566
-0.00103705 0.000622016 -0.00109875
-0.000490587 0.000326002 -0.000711711
-0.000164102 0.000184082 -0.000435224
0 0 0
-0.000440157 -0.000164943 -0.000337659
-0.000462779 -5.38625e-07 -0.000527379
-0.000455952 -0.000168498 -0.000520608
-0.00338344 0.000487246 -0.00146459
-0.00402208 0.000634939 -0.000880637
-0.00450321 0.000306348 -0.000732059
-0.00485753 0.000179688 -0.000295053
-0.00483591 8.52596e-05 -0.000430212
-0.005 0 0
-0.00486207 -0.000295958 -8.71995e-05
-0.0029141 -0.00142899 0.0010011
-0.00249952 -0.00122447 0.00122335
-0.00295538 -0.00123851 0.000998609
-0.00291843 -0.00121159 0.00121001
-0.000982825 1.62001e-06 -0.00114472
-0.00204411 0.000262191 -0.00155616
-0.00146182 0.000237411 -0.0012644
-0.000994637 0.000196456 -0.00113413
-0.00294221 0.000263733 -0.00155825
-0.00407712 0.000203155 -0.000907308
-0.00355605 0.000483831 -0.00101056
-0.00405962 0.000413084 -0.000900417
-0.00137342 -0.000502537 -0.000507945
-0.00249657 -1.34637e-06 -0.000579348
-0.00361877 -0.000507723 -0.000506715
-0.00250416 -0.000582565 -6.51059e-06
-0.00412596 -0.00043208 -0.000437747
-0.00407606 -0.000907098 8.17146e-07
-0.00105453 -0.000619588 -0.00111872
-0.00102462 -0.00085109 -0.000867965
-0.00158593 -0.000945311 -0.00120905
-0.000572224 -0.000672065 -0.000686753
-0.0024988 -0.00122732 -0.00123125
-0.00290849 -0.00143097 -0.00100508
-0.00291676 -0.00121378 -0.001213
-0.00485907 8.90588e-05 -0.000301745
-0.00487299 8.95128e-05 -0.000193523
-0.005 0 0
-0.005 0 0
-0.00479321 -0.000161932 -0.000601703
-0.00302901 0.0010744 -0.00052496
-0.00248749 0.000793764 -0.00106439
-0.00300592 0.000774367 -0.0010521
-0.00299175 0.00130958 -0.000512078
-0.005 0 0
-0.00345089 -0.00070888 -0.00123034
-0.00348235 -0.000970726 -0.000971373
-0.00295403 -0.00124257 -0.00100169
-0.00204768 0.00153446 0.00051595
-0.00101081 0.00112795 0.000411221
-0.00146336 0.00127002 0.000244484
-0.000995663 0.00112855 0.000201306
-0.00148882 -0.00125814 -0.000479158
-0.00141495 -0.000746667 -0.000752802
-0.00393253 -0.000618819 -0.00113279
-0.00442138 -0.000141109 -0.000944903
-0.005 0 0
-0.00468873 -0.000871829 -0.000193607
-0.00341207 -0.000940971 0.00119847
-0.00393521 -0.000622713 0.00112756
-0.00337041 -0.000486151 0.00146165
-0.0034545 -0.000708843 0.00123064
-0.005 0 0
-0.00476873 -0.000570518 -0.000260363
-0.00478314 -0.000584125 -0.00015693
-0.00450652 -0.000725594 -0.000152971
-0.00456323 -0.000326437 -0.000336594
-0.00487435 -0.00018829 -0.000178417
-0.00454371 -0.000326304 -0.000518739
-0.00449844 -0.000319301 -0.000712428
-0.00486019 1.79334e-06 -0.000308147
-0.00469029 -0.000878882 0.000191749
-0.005 0 0
-0.00478247 -0.000595316 0.000156324
-0.00145211 -0.00073039 -0.0010029
-0.00150445 -0.000971126 -0.000983959
-0.00149405 -0.000468493 -0.00125937
-0.00353263 -0.00100177 -0.000723603
-0.00355962 -0.00101391 -0.000480951
-0.00403102 -0.000889908 -0.000640143
-0.00339285 -0.00147756 -0.00024443
-0.00301606 -0.00105135 -0.000777428
-0.00250619 -0.00106734 -0.000793836
-0.0030214 -0.000521955 -0.00107844
-0.00298919 -0.000507857 -0.00130838
-0.00250345 -0.000770363 -0.00128155
-0.00297088 -0.000755048 -0.00127507
-0.00294627 -0.000262202 -0.00154379
-0.0048571 -0.00030493 8.74912e-05
-0.00485526 -0.000307839 9.22529e-07
-0.005 0 0
-0.00487319 -0.000195666 8.87849e-05
-0.00424152 -0.00118174 -0.000172168
-0.0047898 -0.000607316 -8.30763e-05
-0.00443586 -0.000948575 -0.000152187
-0.004789 -0.000618194 7.91011e-05
-0.00479894 -0.000639162 -3.08549e-06
-0.00443425 -0.0009559 0.000146115
-0.00424658 -0.001185 0.000170902
-0.00483293 -0.000168082 -0.000419906
-0.00447823 -0.000487083 -0.000701621
-0.005 0 0
-0.00477684 1.57983e-06 -0.000603941
-0.00468986 6.97214e-05 -0.000890496
-0.00478727 7.62118e-05 -0.000601258
-0.00485592 -0.00028549 -0.000174341
-0.00484813 -0.000282846 -0.000283548
-0.00483298 -0.000412577 -0.000170194
-0.005 0 0
-0.00433308 -0.000659628 -0.000913873
-0.00443006 -0.000671873 -0.000685154
-0.00478877 -0.000258511 -0.000586757
-0.00480635 -0.00038664 -0.000405352
-0.005 0 0
-0.00466808 -0.000827158 -0.000385177
-0.00472137 -0.000534708 -0.000564521
-0.0047533 -0.00055019 -0.00039329

CELL_DATA 236
TENSORS stress float
-1965.23 -200.092 204.556
-200.092 -335.611 34.3684
204.556 34.3684 -138.857

-1530.66 19.2757 -1.15977
19.2757 35.1528 47.4683
-1.15977 47.4683 87.1105

-2118.17 -541.908 520.709
-541.908 -893.159 -17.7617
520.709 -17.7617 -1044.43

-2000.04 45.7192 -84.3037
45.7192 -454.163 8.01623
-84.3037 8.01623 -434.867

-1861.29 -454.232 -413.533
-454.232 -952.38 -8.56443
-413.533 -8.56443 -1012.94

-1856.23 211.698 -487.34
211.698 -1140.94 10.2037
-487.34 10.2037 -953.085

-1911.74 -139.331 -220.169
-139.331 -928.649 -9.25849
-220.169 -9.25849 -888.126

-1699.76 54.8921 -36.356
54.8921 -106.26 6.70688
-36.356 6.70688 -136.962

-1938.52 61.9176 100.991
61.9176 -427.021 -28.8638
100.991 -28.8638 -394.118

-1854.61 -72.2793 -148.214
-72.2793 -912.357 -0.745188
-148.214 -0.745188 -862.179

-1464.68 -8.63068 -4.13495
-8.63068 31.111 34.6047
-4.13495 34.6047 30.2461

-1816.07 -150.61 -501.443
-150.61 -1149.06 4.10364
-501.443 4.10364 -969.727

-1763.62 119.321 -254.897
119.321 -634.031 15.3447
-254.897 15.3447 -361.491

-1959.65 -196.447 -199.882
-196.447 -334.391 -36.6776
-199.882 -36.6776 -139.879

-1743.67 -39.9135 -28.7036
-39.9135 -47.4635 -17.9397
-28.7036 -17.9397 -87.3916

-1577.52 17.1131 -11.0059
17.1131 43.2971 -49.4819
-11.0059 -49.4819 -4.18674

-1459.88 10.7245 -6.54325
10.7245 29.7342 -33.7334
-6.54325 -33.7334 31.9361

-1766.67 247.946 41.9858
247.946 -395.655 -2.11817
41.9858 -2.11817 -628.96

-1956.66 29.724 23.4182
29.724 -125.24 -37.6659
23.4182 -37.6659 -110.681

-1916.45 -243.285 -300.423
-243.285 -622.514 -42.4869
-300.423 -42.4869 -520.251

-1582.22 -24.996 1.32785
-24.996 42.1511 -45.4802
1.32785 -45.4802 -3.14687

-1873.14 226.918 -492.221
226.918 -1162.04 13.2242
-492.221 13.2242 -998.958

-1961.87 79.4436 -608.209
79.4436 -1186.93 -8.25951
-608.209 -8.25951 -848.375

-1650.34 105.73 -57.3435
105.73 -95.4236 27.1612
-57.3435 27.1612 7.16009

-1977.27 25.4201 48.3742
25.4201 -231.441 -19.0123
48.3742 -19.0123 -196.796

-2100.63 -542.586 -519.52
-542.586 -893.986 11.8656
-519.52 11.8656 -1040.2

-1534.81 -12.774 8.13642
-12.774 20.4942 46.661
8.13642 46.661 67.2654

-1884.99 237.764 -117.543
237.764 -696.284 14.2602
-117.543 14.2602 -807.143

-1928.9 -120.092 -85.9874
-120.092 -354.339 -20.96
-85.9874 -20.96 -371.577

-1850.58 -444.27 -422.612
-444.27 -915.651 -3.73588
-422.612 -3.73588 -998.606

-1887.76 -188.219 -97.0718
-188.219 -439.467 -21.2585
-97.0718 -21.2585 -528.613

-1749.12 -47.4114 -55.0999
-47.4114 -65.7509 -60.8481
-55.0999 -60.8481 -58.5907

-1949.55 84.3198 -599.09
84.3198 -1175.82 -9.94795
-599.09 -9.94795 -851.89

-1911.19 -99.4192 -62.9176
-99.4192 -224.305 -28.4598
-62.9176 -28.4598 -295.74

-1850.31 -447.917 420.399
-447.917 -948.866 9.6331
420.399 9.6331 -1018.15

-1591.37 -19.089 -1.43659
-19.089 33.8729 52.0774
-1.43659 52.0774 -15.656

-1925.83 -53.7017 -15.54
-53.7017 -146.734 -22.9518
-15.54 -22.9518 -195.064

-1720.81 -24.2638 28.7714
-24.2638 -86.1429 23.5257
28.7714 23.5257 -45.1386

-1662.58 -118.994 -55.1842
-118.994 -94.8855 -27.5895
-55.1842 -27.5895 5.93909

-1458.22 17.9335 -7.27857
17.9335 29.5767 -34.2844
-7.27857 -34.2844 31.7568

-1771.94 39.7222 -52.3934
39.7222 -88.4411 56.1958
-52.3934 56.1958 -83.304

-1798.21 -182.701 -252.719
-182.701 -599.54 -26.2841
-252.719 -26.2841 -386.747

-1651.29 112.044 54.7475
112.044 -90.6435 -25.6032
54.7475 -25.6032 8.96768

-1897.31 20.3434 -111.694
20.3434 -394.593 15.2279
-111.694 15.2279 -341.479

-1851.75 455.873 -412.776
455.873 -946.57 8.03245
-412.776 8.03245 -1005

-2096.84 -540.503 520.528
-540.503 -893.236 -12.5324
520.528 -12.5324 -1042.22

-1747.55 207.956 142.474
207.956 -1125.89 -6.05597
142.474 -6.05597 -1161.56

-1949.26 196.727 -198.666
196.727 -327.244 36.5956
-198.666 36.5956 -142.42

-2092.01 538.474 -518.973
538.474 -885.431 -8.01352
-518.973 -8.01352 -1034.75

-1885.05 216.501 490.531
216.501 -1172.25 -4.94189
490.531 -4.94189 -1006.95

-1787.87 87.3652 68.6211
87.3652 -155.192 -46.2299
68.6211 -46.2299 -153.095

-1881.52 237.78 -300.126
237.78 -617.515 36.6898
-300.126 36.6898 -507.274

-1846.33 446.511 417.161
446.511 -943.051 -10.1073
417.161 -10.1073 -1013.23

-1833.18 -153.881 -496.25
-153.881 -1160.99 -1.53094
-496.25 -1.53094 -991.048

-1949.35 -77.8704 -597.153
-77.8704 -1214.83 0.937206
-597.153 0.937206 -849.825

-1943.57 80.8545 591.174
80.8545 -1178.27 12.4703
591.174 12.4703 -841.722

-1528.44 16.3838 6.46212
16.3838 30.9664 -46.4646
6.46212 -46.4646 76.8051

-1951.99 196.977 195.575
196.977 -326.378 -34.7961
195.575 -34.7961 -145.892

-1721.34 -83.9512 -48.5635
-83.9512 -137.021 -17.7118
-48.5635 -17.7118 -111.885

-1886.5 481.992 -208.437
481.992 -1028.76 3.9019
-208.437 3.9019 -1174.53

-1930.9 609.708 -132.092
609.708 -816.8 -20.9015
-132.092 -20.9015 -1165.32

-1828.84 -49.717 -174.778
-49.717 -531.373 -6.62673
-174.778 -6.62673 -426.184

-1935.07 -609.978 -132.202
-609.978 -821.399 20.9903
-132.202 20.9903 -1165.84

-1906.2 115.397 12.5844
115.397 -357.855 -9.82925
12.5844 -9.82925 -395.243

-1760.48 125.582 237.824
125.582 -633.26 -7.43625
237.824 -7.43625 -373.031

-1772.35 -245.55 -42.3323
-245.55 -395.655 -0.704643
-42.3323 -0.704643 -632.816

-1797.61 -182.939 254.892
-182.939 -597.075 22.4491
254.892 22.4491 -386.747

-1855.47 170.008 127.456
170.008 -437.106 -35.5453
127.456 -35.5453 -519.4

-1923.93 608.63 138.732
608.63 -808.277 15.0624
138.732 15.0624 -1156.39

-1840.43 477.365 219.699
477.365 -985.458 -12.1839
219.699 -12.1839 -1131.77

-1703.61 -56.5162 -35.4883
-56.5162 -106.009 -5.66706
-35.4883 -5.66706 -138.07

-1762.24 127.345 -240.029
127.345 -632.392 16.9046
-240.029 16.9046 -378.424

-1874.19 238.622 297.408
238.622 -601.768 -29.7113
297.408 -29.7113 -502.825

-2093.77 534.297 517.81
534.297 -885.737 8.79272
517.81 8.79272 -1041.46

-1911.31 -243.36 297.211
-243.36 -618.173 36.2716
297.211 36.2716 -526.805

-1956.94 -196.666 198.817
-196.666 -335.072 36.2473
198.817 36.2473 -142.655

-1817.69 -45.213 -46.84
-45.213 -92.6667 -43.5689
-46.84 -43.5689 -110.971

-1813.94 -460.311 -211.75
-460.311 -907.139 -8.35966
-211.75 -8.35966 -1076.64

-1805.96 142.799 107.441
142.799 -816.323 -1.65741
107.441 -1.65741 -839.62

-1914.76 -240.709 -296.316
-240.709 -620.119 -35.1888
-296.316 -35.1888 -524.091

-1655.24 -113.265 -57.7039
-113.265 -91.865 -27.7733
-57.7039 -27.7733 2.54708

-1467.73 -10.0568 0.408745
-10.0568 24.0912 28.8105
0.408745 28.8105 33.6824

-1847.11 -48.1955 183.382
-48.1955 -524.556 21.0377
183.382 21.0377 -409.204

-1952.71 -62.8209 117.875
-62.8209 -664.934 6.81861
117.875 6.81861 -594.873

-1853.55 -151.511 495.837
-151.511 -1176.35 -1.22519
495.837 -1.22519 -1003.32

-1957.29 76.9985 600.798
76.9985 -1175.68 6.95093
600.798 6.95093 -827.53

-1855.96 -49.5606 -173.506
-49.5606 -538.544 -24.6465
-173.506 -24.6465 -438.487

-1710.29 23.884 -59.7654
23.884 -51.4828 15.4418
-59.7654 15.4418 -2.87747

-1717.58 -85.7475 53.8157
-85.7475 -130.485 15.5482
53.8157 15.5482 -110.816

-1911.21 -481.71 -208.307
-481.71 -1048.43 -5.0013
-208.307 -5.0013 -1195.79

-1854.86 478.728 -208.308
478.728 -966.725 12.9412
-208.308 12.9412 -1128.8

-1961.58 -609.717 136.265
-609.717 -806.146 -8.30026
136.265 -8.30026 -1183.19

-1854.84 -100.442 66.6334
-100.442 -204.208 47.2398
66.6334 47.2398 -251.118

-1768.35 -246.86 43.6383
-246.86 -395.864 4.54685
43.6383 4.54685 -628.134

-1464.39 13.1534 2.82064
13.1534 27.0938 33.4907
2.82064 33.4907 34.9108

-1838.33 -475.34 223.897
-475.34 -985.738 12.6152
223.897 12.6152 -1132.27

-1586.21 -27.9539 -5.80505
-27.9539 39.3983 48.7955
-5.80505 48.7955 -3.02766

-1716.53 -39.6107 29.3819
-39.6107 -19.9206 16.8607
29.3819 16.8607 -59.7179

-1775.24 -95.1346 69.0031
-95.1346 -156.267 47.5429
69.0031 47.5429 -158.22

-1853.97 -164.053 99.7412
-164.053 -286.851 33.6722
99.7412 33.6722 -383.385

-2111.01 -541.063 -518.208
-541.063 -893.552 14.5874
-518.208 14.5874 -1049.69

-1633.49 41.5957 -40.0258
41.5957 98.4074 -31.5736
-40.0258 -31.5736 41.0152

-1949.7 -74.512 594.708
-74.512 -1218.17 -5.75877
594.708 -5.75877 -846.312

-1462.81 -13.0139 2.77997
-13.0139 27.7673 -35.7772
2.77997 -35.7772 35.3211

-1920.7 -606.623 142.133
-606.623 -807.597 -14.3516
142.133 -14.3516 -1155.29

-1465.24 -12.6793 3.14578
-12.6793 25.8709 -29.736
3.14578 -29.736 37.519

-1927.71 -58.969 38.6746
-58.969 -159.15 43.9668
38.6746 43.9668 -194.771

-1934.34 -53.8533 20.4391
-53.8533 -146.792 18.5343
20.4391 18.5343 -189.122

-1751.76 -6.17476 18.5574
-6.17476 -15.1889 -49.5253
18.5574 -49.5253 75.129

-1699.38 -53.8582 37.5478
-53.8582 -106.157 8.4961
37.5478 8.4961 -149.462

-1776.15 -28.7804 15.8639
-28.7804 2.12342 47.2883
15.8639 47.2883 -26.6445

-1756.33 -40.8301 39.4121
-40.8301 -63.0921 62.6387
39.4121 62.6387 -61.7392

-1964.77 -25.8002 26.0546
-25.8002 -135.12 34.9217
26.0546 34.9217 -120.899

-1973.79 -40.4924 102.253
-40.4924 -447.333 17.145
102.253 17.145 -409.535

-1885.42 -80.5333 125.87
-80.5333 -360.542 32.8394
125.87 32.8394 -295.931

-1820.28 -143.164 111.383
-143.164 -836.454 0.227254
111.383 0.227254 -853.824

-1905.37 -116.569 20.2096
-116.569 -350.378 9.32574
20.2096 9.32574 -391.927

-1922.12 -218.644 180.023
-218.644 -899.444 9.99189
180.023 9.99189 -913.551

-1844.68 -169.256 124.901
-169.256 -429.02 40.3808
124.901 40.3808 -503.698

-1748.42 -34.5393 -26.6784
-34.5393 -49.3776 -17.9051
-26.6784 -17.9051 -81.1197

-1950.7 -78.0048 -606.418
-78.0048 -1219.95 5.11259
-606.418 5.11259 -843.509

-1662.24 117.245 -68.0669
117.245 -101.672 29.1067
-68.0669 29.1067 2.75849

-1958.84 202.558 -199.904
202.558 -325.103 34.4936
-199.904 34.4936 -142.175

-1589.74 -22.5639 -5.80764
-22.5639 34.3818 -46.4705
-5.80764 -46.4705 -1.08014

-1796.42 -183.423 -253.098
-183.423 -606.916 -19.9502
-253.098 -19.9502 -395.482

-1901.86 239.977 -300.107
239.977 -609.545 29.5079
-300.107 29.5079 -509.901

-2112.7 538.998 -518.021
538.998 -886.79 -11.749
-518.021 -11.749 -1042.31

-1836.28 444.005 -410.466
444.005 -906.727 5.05055
-410.466 5.05055 -986.537

-1527.05 -17.3185 -2.01609
-17.3185 31.6658 -48.602
-2.01609 -48.602 84.4546

-1843.86 120.794 178.1
120.794 -491.07 -22.2185
178.1 -22.2185 -412.149

-1868.11 92.7242 117.469
92.7242 -351.5 -38.0663
117.469 -38.0663 -314.209

-1897.18 9.40049 30.38
9.40049 -77.8404 -38.891
30.38 -38.891 -106.861

-1698.04 46.812 49.6177
46.812 -136.206 -13.2388
49.6177 -13.2388 -109.585

-1708.59 6.17484 24.9352
6.17484 -37.3595 -19.1737
24.9352 -19.1737 -65.7611

-1949.4 18.2252 116.638
18.2252 -428.754 -14.64
116.638 -14.64 -402.338

-1919.88 216.553 182.194
216.553 -884.475 -11.9537
182.194 -11.9537 -915.496

-1525.36 14.1766 5.34072
14.1766 35.2818 -41.5354
5.34072 -41.5354 69.6249

-1593.25 29.5699 -5.0759
29.5699 42.01 -50.3221
-5.0759 -50.3221 -3.35862

-1589.31 22.0769 2.34079
22.0769 49.9267 46.8339
2.34079 46.8339 -3.17699

-1731.95 5.20011 11.4981
5.20011 20.9385 54.3109
11.4981 54.3109 3.32849

-1695.47 0.751549 22.4076
0.751549 98.0267 37.4477
22.4076 37.4477 -44.7444

-1575.75 19.6306 11.6879
19.6306 42.2683 46.8892
11.6879 46.8892 -6.72977

-1741.04 2.07547 -17.4963
2.07547 12.2735 49.5541
-17.4963 49.5541 86.5275

-1830.19 5.28488 -10.3218
5.28488 36.9554 61.4562
-10.3218 61.4562 41.8991

-1752.23 37.3069 39.6839
37.3069 -56.892 -59.6794
39.6839 -59.6794 -64.5305

-1698.04 53.9679 36.149
53.9679 -107.421 -8.44348
36.149 -8.44348 -146.168

-1776.25 -266.599 33.3715
-266.599 -407.735 2.23131
33.3715 2.23131 -639.077

-2103.53 -1.93215 -1.49029
-1.93215 -193.073 -20.8086
-1.49029 -20.8086 -192.083

-1796.67 10.8309 -20.9703
10.8309 12.701 -30.5314
-20.9703 -30.5314 56.2524

-1784.37 -88.7836 -73.305
-88.7836 -161.668 -48.9032
-73.305 -48.9032 -148.951

-1703.72 1.89369 3.21613
1.89369 58.2199 -72.0108
3.21613 -72.0108 35.7662

-1718.34 -29.1103 -58.7745
-29.1103 -64.3557 -24.2299
-58.7745 -24.2299 -13.3469

-1959.6 202.638 200.297
202.638 -325.519 -33.5752
200.297 -33.5752 -140.233

-1766.9 246.542 -43.1222
246.542 -393.036 1.16348
-43.1222 1.16348 -633.531

-1919.44 12.9215 -56.5887
12.9215 -181.263 25.2215
-56.5887 25.2215 -131.548

-1808.54 65.1241 -73.1441
65.1241 -192.561 15.2814
-73.1441 15.2814 -210.387

-1931.81 68.693 -104.007
68.693 -308.14 37.3111
-104.007 37.3111 -270.906

-1886.76 93.3969 -159.404
93.3969 -427.203 28.8782
-159.404 28.8782 -335.908

-1866.25 201.41 -261.367
201.41 -700.077 25.4745
-261.367 25.4745 -650.581

-1872.25 183.342 -98.0885
183.342 -438.045 20.4623
-98.0885 20.4623 -524.608

-1784.93 -272.337 -33.5151
-272.337 -399.515 -9.58141
-33.5151 -9.58141 -646.121

-1738.79 5.03755 -1.41841
5.03755 22.5345 -50.3017
-1.41841 -50.3017 104.793

-1952.52 -606.664 -140.183
-606.664 -785.613 11.866
-140.183 11.866 -1168.78

-1926.67 -242.107 297.936
-242.107 -629.082 35.1905
297.936 35.1905 -529.914

-1999.36 -86.5003 -48.963
-86.5003 -435.906 -14.5277
-48.963 -14.5277 -455.201

-1757.63 123.224 255.499
123.224 -621.325 -13.4189
255.499 -13.4189 -347.076

-1851.21 -179.014 225.569
-179.014 -763.39 14.014
225.569 14.014 -663.918

-1996.62 -83.7713 51.0862
-83.7713 -424.29 8.13759
51.0862 8.13759 -446.165

-1650.7 -116.522 64.0979
-116.522 -85.0941 30.6827
64.0979 30.6827 12.6059

-1652.17 -115.852 54.0975
-115.852 -88.571 28.223
54.0975 28.223 2.68514

-1956.83 28.8772 -28.3815
28.8772 -122.784 36.2215
-28.3815 36.2215 -131.317

-1839.6 -441.738 415.644
-441.738 -905.445 -1.34009
415.644 -1.34009 -986.948

-1664.67 119.526 66.7545
119.526 -101.017 -31.5982
66.7545 -31.5982 3.19381

-1673.47 19.6834 14.8328
19.6834 5.63613 32.8506
14.8328 32.8506 110.953

-1911.5 -135.051 -220.734
-135.051 -948.719 -4.33944
-220.734 -4.33944 -886.022

-2105.89 0.1685 0.653298
0.1685 -196.682 18.8666
0.653298 18.8666 -194.763

-1786.4 -189.504 260.554
-189.504 -598.137 19.788
260.554 19.788 -383.337

-1819.46 -151.163 493.899
-151.163 -1142.54 -0.00654528
493.899 -0.00654528 -951.828

-1729.61 -6.31105 26.5507
-6.31105 24.0554 55.3316
26.5507 55.3316 18.3678

-2109.71 2.08834 1.22283
2.08834 -199.83 18.7609
1.22283 18.7609 -195.546

-1963.46 -198.338 -197.627
-198.338 -334.775 -34.4594
-197.627 -34.4594 -140.729

-1831.34 -463.774 208.54
-463.774 -934.506 12.1544
208.54 12.1544 -1100.44

-1662.81 12.8412 -1.93313
12.8412 -32.5901 38.7259
-1.93313 38.7259 100.289

-1460.52 16.5729 4.2285
16.5729 26.8209 35.0038
4.2285 35.0038 35.9024

-1998.2 -87.2002 -48.4706
-87.2002 -442.077 -12.2489
-48.4706 -12.2489 -452.061

-1865.72 -263.659 195.202
-263.659 -666.909 28.6316
195.202 28.6316 -697.852

-1911.19 112.685 -61.8867
112.685 -558.038 6.61732
-61.8867 6.61732 -625.604

-1799.79 287.314 -228.977
287.314 -1109.1 19.3733
-228.977 19.3733 -1156.81

-1521.26 15.4826 -2.28944
15.4826 33.8733 37.7045
-2.28944 37.7045 82.6049

-1898.16 -178.613 -135.259
-178.613 -500.723 -35.7528
-135.259 -35.7528 -516.802

-1795.32 78.7642 -74.2509
78.7642 -164.025 43.0355
-74.2509 43.0355 -153.062

-1776.29 22.7769 -24.5586
22.7769 -31.5276 48.8622
-24.5586 48.8622 7.16234

-1712.83 -81.8411 -53.3358
-81.8411 -128.71 -19.2304
-53.3358 -19.2304 -106.65

-1712.03 41.8754 -45.4072
41.8754 -154.489 16.7254
-45.4072 16.7254 -121.957

-1973.68 104.865 -43.1495
104.865 -414.333 20.4515
-43.1495 20.4515 -445.018

-1884.63 129.007 -81.4966
129.007 -306.94 36.3497
-81.4966 36.3497 -356.043

-1824.36 111.321 -143.136
111.321 -856.583 4.15137
-143.136 4.15137 -832.401

-1909.08 176.054 -217.673
176.054 -899.376 12.5622
-217.673 12.5622 -885.45

-1828.95 119.05 -171.225
119.05 -482.372 36.0553
-171.225 36.0553 -412.729

-1869.88 -75.1971 -152.2
-75.1971 -910.87 -0.0225947
-152.2 -0.0225947 -875.021

-1820.97 -87.1991 55.7124
-87.1991 -229.285 29.745
55.7124 29.745 -221.877

-1819.28 -159.05 291.58
-159.05 -1219.26 5.26712
291.58 5.26712 -1140.29

-1904.62 232.413 53.2497
232.413 -688.964 -15.3717
53.2497 -15.3717 -836.858

-1534.59 -12.5013 7.91774
-12.5013 25.9308 39.023
7.91774 39.023 63.6738

-1690.06 13.3104 -18.1556
13.3104 -25.5653 21.5462
-18.1556 21.5462 -26.8192

-1812.1 -41.9607 39.3317
-41.9607 -93.6719 24.5722
39.3317 24.5722 -122.705

-2102.54 -0.0367556 -0.930418
-0.0367556 -194.263 -16.9532
-0.930418 -16.9532 -195.553

-1975.89 77.0428 53.323
77.0428 -337.454 -16.2068
53.323 -16.2068 -361.821

-1778.3 -90.9413 -78.3019
-90.9413 -158.91 -49.0297
-78.3019 -49.0297 -155.279

-1533.22 -17.0306 1.79823
-17.0306 23.9092 -38.3354
1.79823 -38.3354 65.9695

-1747.38 -79.9609 210.733
-79.9609 -1173.9 3.36861
210.733 3.36861 -1113.64

-1834.18 212.459 483.519
212.459 -1114.53 -6.58489
483.519 -6.58489 -931.792

-1815.42 -8.27478 1.4585
-8.27478 57.8282 62.1058
1.4585 62.1058 56.3371

-1834.93 440.172 409.186
440.172 -912.896 -1.46351
409.186 -1.46351 -985.104

-1722.23 4.65901 -12.3379
4.65901 25.3468 -56.9716
-12.3379 -56.9716 5.11572

-1730.83 25.9806 31.6562
25.9806 -91.76 -23.5395
31.6562 -23.5395 -51.5636

-1863.85 -32.0641 -35.6392
-32.0641 -53.4005 -51.1857
-35.6392 -51.1857 -29.7029

-1876.61 101.986 154.646
101.986 -425.219 -38.1228
154.646 -38.1228 -320.7

-1927.01 604.461 138.144
604.461 -786.903 13.7511
138.144 13.7511 -1155.39

-1642.29 38.622 38.4798
38.622 84.2293 33.9794
38.4798 33.9794 34.7614

-1828.65 467.254 208.012
467.254 -944.626 -10.1509
208.012 -10.1509 -1110.89

-1939.78 123.499 107.68
123.499 -461.617 -23.1708
107.68 -23.1708 -490.697

-1938.75 96.7805 215.306
96.7805 -870.856 -16.5103
215.306 -16.5103 -808.262

-1933.15 614.643 -135.228
614.643 -800.699 -14.6615
-135.228 -14.6615 -1158.84

-1778.64 -27.1268 -12.8978
-27.1268 -0.499415 -49.238
-12.8978 -49.238 -41.431

-1797.36 7.24394 40.5296
7.24394 -32.3239 -29.635
40.5296 -29.635 9.83962

-1822.48 8.12677 4.85309
8.12677 33.3673 -66.5222
4.85309 -66.5222 23.2961

-1661.05 0.596217 -29.0659
0.596217 139.96 -38.5057
-29.0659 -38.5057 -4.62503

-1777.81 209.751 -81.5071
209.751 -1141.22 2.54864
-81.5071 2.54864 -1201.1

-1746.74 267.751 38.9257
267.751 -388.911 -10.1921
38.9257 -10.1921 -623.97

-1759.58 264.818 -40.2955
264.818 -411.597 -1.09181
-40.2955 -1.09181 -633.786

-1892.99 202.971 260.971
202.971 -735.528 -28.3961
260.971 -28.3961 -680.297

-1953.66 -78.3116 601.562
-78.3116 -1216.48 -3.60664
601.562 -3.60664 -832.084

-1826.4 282.923 225.304
282.923 -1139.7 -8.52051
225.304 -8.52051 -1183.74

-1902.34 240.86 302.713
240.86 -609.193 -28.472
302.713 -28.472 -510.545

-2114.22 537.076 518.16
537.076 -887.578 14.1336
518.16 14.1336 -1045.09

