# vtk DataFile Version 2.0
Unstructured Grid
ASCII
DATASET UNSTRUCTURED_GRID
POINTS 125 double
0.000000 0.000000 0.000000
0.000000 0.000000 0.050000
0.000000 0.000000 0.100000
0.000000 0.000000 0.150000
0.000000 0.000000 0.200000
0.000000 0.050000 0.000000
0.000000 0.050000 0.050000
0.000000 0.050000 0.100000
0.000000 0.050000 0.150000
0.000000 0.050000 0.200000
0.000000 0.100000 0.000000
0.000000 0.100000 0.050000
0.000000 0.100000 0.100000
0.000000 0.100000 0.150000
0.000000 0.100000 0.200000
0.000000 0.150000 0.000000
0.000000 0.150000 0.050000
0.000000 0.150000 0.100000
0.000000 0.150000 0.150000
0.000000 0.150000 0.200000
0.000000 0.200000 0.000000
0.000000 0.200000 0.050000
0.000000 0.200000 0.100000
0.000000 0.200000 0.150000
0.000000 0.200000 0.200000
0.041019 -0.008766 -0.015220
0.048795 -0.012349 0.043175
0.042919 -0.011465 0.100000
0.048795 -0.012349 0.156825
0.041019 -0.008766 0.215220
0.037517 0.045330 -0.012431
0.043709 0.043837 0.043760
0.037608 0.044125 0.100000
0.043709 0.043837 0.156240
0.037517 0.045330 0.212431
0.041653 0.100000 -0.014390
0.048923 0.100000 0.043446
0.043264 0.100000 0.100000
0.048923 0.100000 0.156554
0.041653 0.100000 0.214390
0.037517 0.154670 -0.012431
0.043709 0.156163 0.043760
0.037608 0.155875 0.100000
0.043709 0.156163 0.156240
0.037517 0.154670 0.212431
0.041019 0.208766 -0.015220
0.048795 0.212349 0.043175
0.042919 0.211465 0.100000
0.048795 0.212349 0.156825
0.041019 0.208766 0.215220
0.075000 -0.016430 -0.027948
0.075000 -0.021904 0.037785
0.075000 -0.022529 0.100000
0.075000 -0.021904 0.162215
0.075000 -0.016430 0.227948
0.075000 0.041248 -0.024761
0.075000 0.039079 0.037655
0.075000 0.038534 0.100000
0.075000 0.039079 0.162345
0.075000 0.041248 0.224761
0.075000 0.100000 -0.026647
0.075000 0.100000 0.038133
0.075000 0.100000 0.100000
0.075000 0.100000 0.161867
0.075000 0.100000 0.226647
0.075000 0.158752 -0.024761
0.075000 0.160921 0.037655
0.075000 0.161466 0.100000
0.075000 0.160921 0.162345
0.075000 0.158752 0.224761
0.075000 0.216430 -0.027948
0.075000 0.221904 0.037785
0.075000 0.222529 0.100000
0.075000 0.221904 0.162215
0.075000 0.216430 0.227948
0.108981 -0.008766 -0.015220
0.101205 -0.012349 0.043175
0.107081 -0.011465 0.100000
0.101205 -0.012349 0.156825
0.108981 -0.008766 0.215220
0.112483 0.045330 -0.012431
0.106291 0.043837 0.043760
0.112392 0.044125 0.100000
0.106291 0.043837 0.156240
0.112483 0.045330 0.212431
0.108347 0.100000 -0.014390
0.101077 0.100000 0.043446
0.106736 0.100000 0.100000
0.101077 0.100000 0.156554
0.108347 0.100000 0.214390
0.112483 0.154670 -0.012431
0.106291 0.156163 0.043760
0.112392 0.155875 0.100000
0.106291 0.156163 0.156240
0.112483 0.154670 0.212431
0.108981 0.208766 -0.015220
0.101205 0.212349 0.043175
0.107081 0.211465 0.100000
0.101205 0.212349 0.156825
0.108981 0.208766 0.215220
0.150000 0.000000 0.000000
0.150000 0.000000 0.050000
0.150000 0.000000 0.100000
0.150000 0.000000 0.150000
0.150000 0.000000 0.200000
0.150000 0.050000 0.000000
0.150000 0.050000 0.050000
0.150000 0.050000 0.100000
0.150000 0.050000 0.150000
0.150000 0.050000 0.200000
0.150000 0.100000 0.000000
0.150000 0.100000 0.050000
0.150000 0.100000 0.100000
0.150000 0.100000 0.150000
0.150000 0.100000 0.200000
0.150000 0.150000 0.000000
0.150000 0.150000 0.050000
0.150000 0.150000 0.100000
0.150000 0.150000 0.150000
0.150000 0.150000 0.200000
0.150000 0.200000 0.000000
0.150000 0.200000 0.050000
0.150000 0.200000 0.100000
0.150000 0.200000 0.150000
0.150000 0.200000 0.200000

CELLS 384 1920
4 5 6 26 31 
4 5 6 1 26 
4 0 5 1 26 
4 0 5 26 25 
4 25 5 26 30 
4 30 5 26 31 
4 26 25 55 50 
4 26 25 30 55 
4 31 26 30 55 
4 26 31 56 55 
4 26 56 51 55 
4 26 51 50 55 
4 55 56 76 81 
4 55 56 51 76 
4 50 55 51 76 
4 50 55 76 75 
4 75 55 76 80 
4 80 55 76 81 
4 76 75 105 100 
4 76 75 80 105 
4 81 76 80 105 
4 76 81 106 105 
4 76 106 101 105 
4 76 101 100 105 
4 10 5 35 36 
4 5 10 11 36 
4 6 5 11 36 
4 5 6 31 36 
4 5 31 30 36 
4 5 30 35 36 
4 36 31 55 56 
4 36 31 30 55 
4 35 36 30 55 
4 35 36 55 60 
4 60 36 55 61 
4 61 36 55 56 
4 60 55 85 86 
4 55 60 61 86 
4 56 55 61 86 
4 55 56 81 86 
4 55 81 80 86 
4 55 80 85 86 
4 86 81 105 106 
4 86 81 80 105 
4 85 86 80 105 
4 85 86 105 110 
4 110 86 105 111 
4 111 86 105 106 
4 15 16 36 41 
4 15 16 11 36 
4 10 15 11 36 
4 10 15 36 35 
4 35 15 36 40 
4 40 15 36 41 
4 36 35 65 60 
4 36 35 40 65 
4 41 36 40 65 
4 36 41 66 65 
4 36 66 61 65 
4 36 61 60 65 
4 65 66 86 91 
4 65 66 61 86 
4 60 65 61 86 
4 60 65 86 85 
4 85 65 86 90 
4 90 65 86 91 
4 86 85 115 110 
4 86 85 90 115 
4 91 86 90 115 
4 86 91 116 115 
4 86 116 111 115 
4 86 111 110 115 
4 20 15 45 46 
4 15 20 21 46 
4 16 15 21 46 
4 15 16 41 46 
4 15 41 40 46 
4 15 40 45 46 
4 46 41 65 66 
4 46 41 40 65 
4 45 46 40 65 
4 45 46 65 70 
4 70 46 65 71 
4 71 46 65 66 
4 70 65 95 96 
4 65 70 71 96 
4 66 65 71 96 
4 65 66 91 96 
4 65 91 90 96 
4 65 90 95 96 
4 96 91 115 116 
4 96 91 90 115 
4 95 96 90 115 
4 95 96 115 120 
4 120 96 115 121 
4 121 96 115 116 
4 7 2 26 27 
4 7 2 1 26 
4 6 7 1 26 
4 6 7 26 31 
4 31 7 26 32 
4 32 7 26 27 
4 31 26 56 57 
4 26 31 32 57 
4 27 26 32 57 
4 26 27 52 57 
4 26 52 51 57 
4 26 51 56 57 
4 57 52 76 77 
4 57 52 51 76 
4 56 57 51 76 
4 56 57 76 81 
4 81 57 76 82 
4 82 57 76 77 
4 81 76 106 107 
4 76 81 82 107 
4 77 76 82 107 
4 76 77 102 107 
4 76 102 101 107 
4 76 101 106 107 
4 7 6 36 31 
4 7 6 11 36 
4 12 7 11 36 
4 7 12 37 36 
4 7 37 32 36 
4 7 32 31 36 
4 36 37 57 62 
4 36 37 32 57 
4 31 36 32 57 
4 31 36 57 56 
4 56 36 57 61 
4 61 36 57 62 
4 57 56 86 81 
4 57 56 61 86 
4 62 57 61 86 
4 57 62 87 86 
4 57 87 82 86 
4 57 82 81 86 
4 86 87 107 112 
4 86 87 82 107 
4 81 86 82 107 
4 81 86 107 106 
4 106 86 107 111 
4 111 86 107 112 
4 17 12 36 37 
4 17 12 11 36 
4 16 17 11 36 
4 16 17 36 41 
4 41 17 36 42 
4 42 17 36 37 
4 41 36 66 67 
4 36 41 42 67 
4 37 36 42 67 
4 36 37 62 67 
4 36 62 61 67 
4 36 61 66 67 
4 67 62 86 87 
4 67 62 61 86 
4 66 67 61 86 
4 66 67 86 91 
4 91 67 86 92 
4 92 67 86 87 
4 91 86 116 117 
4 86 91 92 117 
4 87 86 92 117 
4 86 87 112 117 
4 86 112 111 117 
4 86 111 116 117 
4 17 16 46 41 
4 17 16 21 46 
4 22 17 21 46 
4 17 22 47 46 
4 17 47 42 46 
4 17 42 41 46 
4 46 47 67 72 
4 46 47 42 67 
4 41 46 42 67 
4 41 46 67 66 
4 66 46 67 71 
4 71 46 67 72 
4 67 66 96 91 
4 67 66 71 96 
4 72 67 71 96 
4 67 72 97 96 
4 67 97 92 96 
4 67 92 91 96 
4 96 97 117 122 
4 96 97 92 117 
4 91 96 92 117 
4 91 96 117 116 
4 116 96 117 121 
4 121 96 117 122 
4 7 8 28 33 
4 7 8 3 28 
4 2 7 3 28 
4 2 7 28 27 
4 27 7 28 32 
4 32 7 28 33 
4 28 27 57 52 
4 28 27 32 57 
4 33 28 32 57 
4 28 33 58 57 
4 28 58 53 57 
4 28 53 52 57 
4 57 58 78 83 
4 57 58 53 78 
4 52 57 53 78 
4 52 57 78 77 
4 77 57 78 82 
4 82 57 78 83 
4 78 77 107 102 
4 78 77 82 107 
4 83 78 82 107 
4 78 83 108 107 
4 78 108 103 107 
4 78 103 102 107 
4 12 7 37 38 
4 7 12 13 38 
4 8 7 13 38 
4 7 8 33 38 
4 7 33 32 38 
4 7 32 37 38 
4 38 33 57 58 
4 38 33 32 57 
4 37 38 32 57 
4 37 38 57 62 
4 62 38 57 63 
4 63 38 57 58 
4 62 57 87 88 
4 57 62 63 88 
4 58 57 63 88 
4 57 58 83 88 
4 57 83 82 88 
4 57 82 87 88 
4 88 83 107 108 
4 88 83 82 107 
4 87 88 82 107 
4 87 88 107 112 
4 112 88 107 113 
4 113 88 107 108 
4 17 18 38 43 
4 17 18 13 38 
4 12 17 13 38 
4 12 17 38 37 
4 37 17 38 42 
4 42 17 38 43 
4 38 37 67 62 
4 38 37 42 67 
4 43 38 42 67 
4 38 43 68 67 
4 38 68 63 67 
4 38 63 62 67 
4 67 68 88 93 
4 67 68 63 88 
4 62 67 63 88 
4 62 67 88 87 
4 87 67 88 92 
4 92 67 88 93 
4 88 87 117 112 
4 88 87 92 117 
4 93 88 92 117 
4 88 93 118 117 
4 88 118 113 117 
4 88 113 112 117 
4 22 17 47 48 
4 17 22 23 48 
4 18 17 23 48 
4 17 18 43 48 
4 17 43 42 48 
4 17 42 47 48 
4 48 43 67 68 
4 48 43 42 67 
4 47 48 42 67 
4 47 48 67 72 
4 72 48 67 73 
4 73 48 67 68 
4 72 67 97 98 
4 67 72 73 98 
4 68 67 73 98 
4 67 68 93 98 
4 67 93 92 98 
4 67 92 97 98 
4 98 93 117 118 
4 98 93 92 117 
4 97 98 92 117 
4 97 98 117 122 
4 122 98 117 123 
4 123 98 117 118 
4 9 4 28 29 
4 9 4 3 28 
4 8 9 3 28 
4 8 9 28 33 
4 33 9 28 34 
4 34 9 28 29 
4 33 28 58 59 
4 28 33 34 59 
4 29 28 34 59 
4 28 29 54 59 
4 28 54 53 59 
4 28 53 58 59 
4 59 54 78 79 
4 59 54 53 78 
4 58 59 53 78 
4 58 59 78 83 
4 83 59 78 84 
4 84 59 78 79 
4 83 78 108 109 
4 78 83 84 109 
4 79 78 84 109 
4 78 79 104 109 
4 78 104 103 109 
4 78 103 108 109 
4 9 8 38 33 
4 9 8 13 38 
4 14 9 13 38 
4 9 14 39 38 
4 9 39 34 38 
4 9 34 33 38 
4 38 39 59 64 
4 38 39 34 59 
4 33 38 34 59 
4 33 38 59 58 
4 58 38 59 63 
4 63 38 59 64 
4 59 58 88 83 
4 59 58 63 88 
4 64 59 63 88 
4 59 64 89 88 
4 59 89 84 88 
4 59 84 83 88 
4 88 89 109 114 
4 88 89 84 109 
4 83 88 84 109 
4 83 88 109 108 
4 108 88 109 113 
4 113 88 109 114 
4 19 14 38 39 
4 19 14 13 38 
4 18 19 13 38 
4 18 19 38 43 
4 43 19 38 44 
4 44 19 38 39 
4 43 38 68 69 
4 38 43 44 69 
4 39 38 44 69 
4 38 39 64 69 
4 38 64 63 69 
4 38 63 68 69 
4 69 64 88 89 
4 69 64 63 88 
4 68 69 63 88 
4 68 69 88 93 
4 93 69 88 94 
4 94 69 88 89 
4 93 88 118 119 
4 88 93 94 119 
4 89 88 94 119 
4 88 89 114 119 
4 88 114 113 119 
4 88 113 118 119 
4 19 18 48 43 
4 19 18 23 48 
4 24 19 23 48 
4 19 24 49 48 
4 19 49 44 48 
4 19 44 43 48 
4 48 49 69 74 
4 48 49 44 69 
4 43 48 44 69 
4 43 48 69 68 
4 68 48 69 73 
4 73 48 69 74 
4 69 68 98 93 
4 69 68 73 98 
4 74 69 73 98 
4 69 74 99 98 
4 69 99 94 98 
4 69 94 93 98 
4 98 99 119 124 
4 98 99 94 119 
4 93 98 94 119 
4 93 98 119 118 
4 118 98 119 123 
4 123 98 119 124 

CELL_TYPES 384
10
10
10
10
10
10
10
10
10
10
10
10
10
10
10
10
10
10
10
10
10
10
10
10
10
10
10
10
10
10
10
10
10
10
10
10
10
10
10
10
10
10
10
10
10
10
10
10
10
10
10
10
10
10
10
10
10
10
10
10
10
10
10
10
10
10
10
10
10
10
10
10
10
10
10
10
10
10
10
10
10
10
10
10
10
10
10
10
10
10
10
10
10
10
10
10
10
10
10
10
10
10
10
10
10
10
10
10
10
10
10
10
10
10
10
10
10
10
10
10
10
10
10
10
10
10
10
10
10
10
10
10
10
10
10
10
10
10
10
10
10
10
10
10
10
10
10
10
10
10
10
10
10
10
10
10
10
10
10
10
10
10
10
10
10
10
10
10
10
10
10
10
10
10
10
10
10
10
10
10
10
10
10
10
10
10
10
10
10
10
10
10
10
10
10
10
10
10
10
10
10
10
10
10
10
10
10
10
10
10
10
10
10
10
10
10
10
10
10
10
10
10
10
10
10
10
10
10
10
10
10
10
10
10
10
10
10
10
10
10
10
10
10
10
10
10
10
10
10
10
10
10
10
10
10
10
10
10
10
10
10
10
10
10
10
10
10
10
10
10
10
10
10
10
10
10
10
10
10
10
10
10
10
10
10
10
10
10
10
10
10
10
10
10
10
10
10
10
10
10
10
10
10
10
10
10
10
10
10
10
10
10
10
10
10
10
10
10
10
10
10
10
10
10
10
10
10
10
10
10
10
10
10
10
10
10
10
10
10
10
10
10
10
10
10
10
10
10
10
10
10
10
10
10
10
10
10
10
10
10
10
10
10
10
10
10
10
10
10
10
10
10
10
10
10
10
10
10
10
10
10
10
10
10

POINT_DATA 125
VECTORS displacement float
0.000000 0.000000 0.000000
0.000000 0.000000 0.000000
0.000000 0.000000 0.000000
0.000000 0.000000 0.000000
0.000000 0.000000 0.000000
0.000000 0.000000 0.000000
0.000000 0.000000 0.000000
0.000000 0.000000 0.000000
0.000000 0.000000 0.000000
0.000000 0.000000 0.000000
0.000000 0.000000 0.000000
0.000000 0.000000 0.000000
0.000000 0.000000 0.000000
0.000000 0.000000 0.000000
0.000000 0.000000 0.000000
0.000000 0.000000 0.000000
0.000000 0.000000 0.000000
0.000000 0.000000 0.000000
0.000000 0.000000 0.000000
0.000000 0.000000 0.000000
0.000000 0.000000 0.000000
0.000000 0.000000 0.000000
0.000000 0.000000 0.000000
0.000000 0.000000 0.000000
0.000000 0.000000 0.000000
-0.008981 -0.008766 -0.015220
-0.001205 -0.012349 -0.006825
-0.007081 -0.011465 -0.000000
-0.001205 -0.012349 0.006825
-0.008981 -0.008766 0.015220
-0.012483 -0.004670 -0.012431
-0.006291 -0.006163 -0.006240
-0.012392 -0.005875 -0.000000
-0.006291 -0.006163 0.006240
-0.012483 -0.004670 0.012431
-0.008347 0.000000 -0.014390
-0.001077 0.000000 -0.006554
-0.006736 -0.000000 -0.000000
-0.001077 -0.000000 0.006554
-0.008347 -0.000000 0.014390
-0.012483 0.004670 -0.012431
-0.006291 0.006163 -0.006240
-0.012392 0.005875 -0.000000
-0.006291 0.006163 0.006240
-0.012483 0.004670 0.012431
-0.008981 0.008766 -0.015220
-0.001205 0.012349 -0.006825
-0.007081 0.011465 0.000000
-0.001205 0.012349 0.006825
-0.008981 0.008766 0.015220
-0.025000 -0.016430 -0.027948
-0.025000 -0.021904 -0.012215
-0.025000 -0.022529 0.000000
-0.025000 -0.021904 0.012215
-0.025000 -0.016430 0.027948
-0.025000 -0.008752 -0.024761
-0.025000 -0.010921 -0.012345
-0.025000 -0.011466 0.000000
-0.025000 -0.010921 0.012345
-0.025000 -0.008752 0.024761
-0.025000 0.000000 -0.026647
-0.025000 0.000000 -0.011867
-0.025000 -0.000000 -0.000000
-0.025000 -0.000000 0.011867
-0.025000 -0.000000 0.026647
-0.025000 0.008752 -0.024761
-0.025000 0.010921 -0.012345
-0.025000 0.011466 0.000000
-0.025000 0.010921 0.012345
-0.025000 0.008752 0.024761
-0.025000 0.016430 -0.027948
-0.025000 0.021904 -0.012215
-0.025000 0.022529 0.000000
-0.025000 0.021904 0.012215
-0.025000 0.016430 0.027948
-0.041019 -0.008766 -0.015220
-0.048795 -0.012349 -0.006825
-0.042919 -0.011465 0.000000
-0.048795 -0.012349 0.006825
-0.041019 -0.008766 0.015220
-0.037517 -0.004670 -0.012431
-0.043709 -0.006163 -0.006240
-0.037608 -0.005875 0.000000
-0.043709 -0.006163 0.006240
-0.037517 -0.004670 0.012431
-0.041653 0.000000 -0.014390
-0.048923 0.000000 -0.006554
-0.043264 0.000000 0.000000
-0.048923 0.000000 0.006554
-0.041653 -0.000000 0.014390
-0.037517 0.004670 -0.012431
-0.043709 0.006163 -0.006240
-0.037608 0.005875 0.000000
-0.043709 0.006163 0.006240
-0.037517 0.004670 0.012431
-0.041019 0.008766 -0.015220
-0.048795 0.012349 -0.006825
-0.042919 0.011465 0.000000
-0.048795 0.012349 0.006825
-0.041019 0.008766 0.015220
-0.050000 0.000000 0.000000
-0.050000 0.000000 0.000000
-0.050000 0.000000 0.000000
-0.050000 0.000000 0.000000
-0.050000 0.000000 0.000000
-0.050000 0.000000 0.000000
-0.050000 0.000000 0.000000
-0.050000 0.000000 0.000000
-0.050000 0.000000 0.000000
-0.050000 0.000000 0.000000
-0.050000 0.000000 0.000000
-0.050000 0.000000 0.000000
-0.050000 0.000000 0.000000
-0.050000 0.000000 0.000000
-0.050000 0.000000 0.000000
-0.050000 0.000000 0.000000
-0.050000 0.000000 0.000000
-0.050000 0.000000 0.000000
-0.050000 0.000000 0.000000
-0.050000 0.000000 0.000000
-0.050000 0.000000 0.000000
-0.050000 0.000000 0.000000
-0.050000 0.000000 0.000000
-0.050000 0.000000 0.000000
-0.050000 0.000000 0.000000

FIELD FieldData 1
pressure 1 125 float
-28833.6 -47531 -21697 -47531 -28833.6 -11024.5 -15725.5 -7868.3 -15725.5 
-11024.5 -24438.1 -41277 -17153 -41277 -24438.1 -11024.5 -15725.5 
-7868.3 -15725.5 -11024.5 -28833.6 -47531 -21697 -47531 -28833.6 
3000.24 -7564.84 4519.66 -7564.84 3000.24 2271.3 3638.56 1724.9 
3638.56 2271.3 2887.99 -8216.51 3469.25 -8216.51 2887.99 2271.3 
3638.56 1724.9 3638.56 2271.3 3000.24 -7564.84 4519.66 -7564.84 
3000.24 -463.582 -14643.5 -4313.6 -14643.5 -463.582 -3814.86 -8227.95 
-8855.04 -8227.95 -3814.86 -2285.04 -19668 -10363.4 -19668 -2285.04 
-3814.86 -8227.95 -8855.04 -8227.95 -3814.86 -463.582 -14643.5 -4313.6 
-14643.5 -463.582 3000.24 -7564.84 4519.66 -7564.84 3000.24 2271.3 
3638.56 1724.9 3638.56 2271.3 2887.99 -8216.51 3469.25 -8216.51 
2887.99 2271.3 3638.56 1724.9 3638.56 2271.3 3000.24 -7564.84 
4519.66 -7564.84 3000.24 -28833.6 -47531 -21697 -47531 -28833.6 
-11024.5 -15725.5 -7868.3 -15725.5 -11024.5 -24438.1 -41277 -17153 
-41277 -24438.1 -11024.5 -15725.5 -7868.3 -15725.5 -11024.5 -28833.6 
-47531 -21697 -47531 -28833.6 
CELL_DATA 384
TENSORS stress float
-5542.43 -4982.53 -2764.01
-4982.53 5511.56 259.273
-2764.01 259.273 30.8681

-711.777 -5470.06 -3023.28
-5470.06 355.889 0
-3023.28 0 355.889

-711.777 -5470.06 -3023.28
-5470.06 355.889 0
-3023.28 0 355.889

-7783.17 -3882.74 -3297.49
-3882.74 173.088 -1587.32
-3297.49 -1587.32 7610.08

-11061.1 -3620.03 -2061.98
-3620.03 3626.18 -351.818
-2061.98 -351.818 7434.94

-11027.8 -4321.44 -2763.4
-4321.44 5511.97 -401.816
-2763.4 -401.816 5515.82

-14207.3 -3395 -2193.67
-3395 6786.18 -175.382
-2193.67 -175.382 7421.1

-11080.8 -3359.48 -2017.24
-3359.48 3636.02 -351.818
-2017.24 -351.818 7444.78

-11047.5 -4060.89 -2718.65
-4060.89 5521.81 -401.816
-2718.65 -401.816 5525.66

-16542.7 -4360.56 -2704.41
-4360.56 5512.32 -701.485
-2704.41 -701.485 11030.4

-20962.8 -4232.28 -2387.35
-4232.28 9846.9 -1018.55
-2387.35 -1018.55 11115.9

-20966.8 -4232.28 -2387.35
-4232.28 6915.3 -1012.66
-2387.35 -1012.66 14051.5

-16542.7 4360.56 2704.41
4360.56 5512.32 -701.485
2704.41 -701.485 11030.4

-20962.8 4232.28 2387.35
4232.28 9846.9 -1018.55
2387.35 -1018.55 11115.9

-20966.8 4232.28 2387.35
4232.28 6915.3 -1012.66
2387.35 -1012.66 14051.5

-14207.3 3395 2193.67
3395 6786.18 -175.382
2193.67 -175.382 7421.1

-11080.8 3359.48 2017.24
3359.48 3636.02 -351.818
2017.24 -351.818 7444.78

-11047.5 4060.89 2718.65
4060.89 5521.81 -401.816
2718.65 -401.816 5525.66

-7783.17 3882.74 3297.49
3882.74 173.088 -1587.32
3297.49 -1587.32 7610.08

-11061.1 3620.03 2061.98
3620.03 3626.18 -351.818
2061.98 -351.818 7434.94

-11027.8 4321.44 2763.4
4321.44 5511.97 -401.816
2763.4 -401.816 5515.82

-5542.43 4982.53 2764.01
4982.53 5511.56 259.273
2764.01 259.273 30.8681

-711.777 5470.06 3023.28
5470.06 355.889 0
3023.28 0 355.889

-711.777 5470.06 3023.28
5470.06 355.889 0
3023.28 0 355.889

-7244.23 3.0736e-11 -3153.89
3.0736e-11 150.728 -1.84416e-11
-3153.89 -1.84416e-11 7093.51

-636.12 1.22944e-11 -2902.9
1.22944e-11 318.06 0
-2902.9 0 318.06

-636.12 1.22944e-11 -2902.9
1.22944e-11 318.06 0
-2902.9 0 318.06

-5535.34 -420.156 -2764.01
-420.156 5497.38 -138.884
-2764.01 -138.884 37.9557

-11020.7 240.933 -2763.4
240.933 5497.79 -799.973
-2763.4 -799.973 5522.9

-11066 -236.576 -2285.89
-236.576 4130.26 -868.004
-2285.89 -868.004 6935.79

-16535.6 201.81 -2704.41
201.81 5498.14 -1099.64
-2704.41 -1099.64 11037.5

-11040.4 501.478 -2718.65
501.478 5507.64 -799.973
-2718.65 -799.973 5532.75

-11085.7 23.9693 -2241.14
23.9693 4140.1 -868.004
-2241.14 -868.004 6945.63

-14733.9 1.84416e-11 -2208.81
1.84416e-11 7772.24 -835.675
-2208.81 -835.675 6961.61

-21078.1 -1.84416e-11 -2353.58
-1.84416e-11 7868.76 -835.675
-2353.58 -835.675 13209.4

-21020.2 6.14721e-12 -2353.58
6.14721e-12 9848.18 -748.812
-2353.58 -748.812 11172

-14733.9 -4.91777e-11 2208.81
-4.91777e-11 7772.24 -835.675
2208.81 -835.675 6961.61

-21078.1 -1.47533e-11 2353.58
-1.47533e-11 7868.76 -835.675
2353.58 -835.675 13209.4

-21020.2 9.83553e-12 2353.58
9.83553e-12 9848.18 -748.812
2353.58 -748.812 11172

-16535.6 -201.81 2704.41
-201.81 5498.14 -1099.64
2704.41 -1099.64 11037.5

-11040.4 -501.478 2718.65
-501.478 5507.64 -799.973
2718.65 -799.973 5532.75

-11085.7 -23.9693 2241.14
-23.9693 4140.1 -868.004
2241.14 -868.004 6945.63

-5535.34 420.156 2764.01
420.156 5497.38 -138.884
2764.01 -138.884 37.9557

-11020.7 -240.933 2763.4
-240.933 5497.79 -799.973
2763.4 -799.973 5522.9

-11066 236.576 2285.89
236.576 4130.26 -868.004
2285.89 -868.004 6935.79

-7244.23 -4.91777e-11 3153.89
-4.91777e-11 150.728 -1.84416e-11
3153.89 -1.84416e-11 7093.51

-636.12 -3.0736e-11 2902.9
-3.0736e-11 318.06 0
2902.9 0 318.06

-636.12 -3.0736e-11 2902.9
-3.0736e-11 318.06 0
2902.9 0 318.06

-5535.34 420.156 -2764.01
420.156 5497.38 138.884
-2764.01 138.884 37.9557

-636.12 1.22944e-11 -2902.9
1.22944e-11 318.06 0
-2902.9 0 318.06

-636.12 1.22944e-11 -2902.9
1.22944e-11 318.06 0
-2902.9 0 318.06

-7244.23 3.0736e-11 -3153.89
3.0736e-11 150.728 -1.84416e-11
-3153.89 -1.84416e-11 7093.51

-11066 236.576 -2285.89
236.576 4130.26 868.004
-2285.89 868.004 6935.79

-11020.7 -240.933 -2763.4
-240.933 5497.79 799.973
-2763.4 799.973 5522.9

-14733.9 6.76193e-11 -2208.81
6.76193e-11 7772.24 835.675
-2208.81 835.675 6961.61

-11085.7 -23.9693 -2241.14
-23.9693 4140.1 868.004
-2241.14 868.004 6945.63

-11040.4 -501.478 -2718.65
-501.478 5507.64 799.973
-2718.65 799.973 5532.75

-16535.6 -201.81 -2704.41
-201.81 5498.14 1099.64
-2704.41 1099.64 11037.5

-21020.2 1.84416e-11 -2353.58
1.84416e-11 9848.18 748.812
-2353.58 748.812 11172

-21078.1 3.0736e-11 -2353.58
3.0736e-11 7868.76 835.675
-2353.58 835.675 13209.4

-16535.6 201.81 2704.41
201.81 5498.14 1099.64
2704.41 1099.64 11037.5

-21020.2 2.21299e-11 2353.58
2.21299e-11 9848.18 748.812
2353.58 748.812 11172

-21078.1 3.68832e-11 2353.58
3.68832e-11 7868.76 835.675
2353.58 835.675 13209.4

-14733.9 0 2208.81
0 7772.24 835.675
2208.81 835.675 6961.61

-11085.7 23.9693 2241.14
23.9693 4140.1 868.004
2241.14 868.004 6945.63

-11040.4 501.478 2718.65
501.478 5507.64 799.973
2718.65 799.973 5532.75

-7244.23 -4.91777e-11 3153.89
-4.91777e-11 150.728 -1.84416e-11
3153.89 -1.84416e-11 7093.51

-11066 -236.576 2285.89
-236.576 4130.26 868.004
2285.89 868.004 6935.79

-11020.7 240.933 2763.4
240.933 5497.79 799.973
2763.4 799.973 5522.9

-5535.34 -420.156 2764.01
-420.156 5497.38 138.884
2764.01 138.884 37.9557

-636.12 -3.0736e-11 2902.9
-3.0736e-11 318.06 0
2902.9 0 318.06

-636.12 -3.0736e-11 2902.9
-3.0736e-11 318.06 0
2902.9 0 318.06

-7783.17 3882.74 -3297.49
3882.74 173.088 1587.32
-3297.49 1587.32 7610.08

-711.777 5470.06 -3023.28
5470.06 355.889 0
-3023.28 0 355.889

-711.777 5470.06 -3023.28
5470.06 355.889 0
-3023.28 0 355.889

-5542.43 4982.53 -2764.01
4982.53 5511.56 -259.273
-2764.01 -259.273 30.8681

-11027.8 4321.44 -2763.4
4321.44 5511.97 401.816
-2763.4 401.816 5515.82

-11061.1 3620.03 -2061.98
3620.03 3626.18 351.818
-2061.98 351.818 7434.94

-16542.7 4360.56 -2704.41
4360.56 5512.32 701.485
-2704.41 701.485 11030.4

-11047.5 4060.89 -2718.65
4060.89 5521.81 401.816
-2718.65 401.816 5525.66

-11080.8 3359.48 -2017.24
3359.48 3636.02 351.818
-2017.24 351.818 7444.78

-14207.3 3395 -2193.67
3395 6786.18 175.382
-2193.67 175.382 7421.1

-20966.8 4232.28 -2387.35
4232.28 6915.3 1012.66
-2387.35 1012.66 14051.5

-20962.8 4232.28 -2387.35
4232.28 9846.9 1018.55
-2387.35 1018.55 11115.9

-14207.3 -3395 2193.67
-3395 6786.18 175.382
2193.67 175.382 7421.1

-20966.8 -4232.28 2387.35
-4232.28 6915.3 1012.66
2387.35 1012.66 14051.5

-20962.8 -4232.28 2387.35
-4232.28 9846.9 1018.55
2387.35 1018.55 11115.9

-16542.7 -4360.56 2704.41
-4360.56 5512.32 701.485
2704.41 701.485 11030.4

-11047.5 -4060.89 2718.65
-4060.89 5521.81 401.816
2718.65 401.816 5525.66

-11080.8 -3359.48 2017.24
-3359.48 3636.02 351.818
2017.24 351.818 7444.78

-5542.43 -4982.53 2764.01
-4982.53 5511.56 -259.273
2764.01 -259.273 30.8681

-11027.8 -4321.44 2763.4
-4321.44 5511.97 401.816
2763.4 401.816 5515.82

-11061.1 -3620.03 2061.98
-3620.03 3626.18 351.818
2061.98 351.818 7434.94

-7783.17 -3882.74 3297.49
-3882.74 173.088 1587.32
3297.49 1587.32 7610.08

-711.777 -5470.06 3023.28
-5470.06 355.889 0
3023.28 0 355.889

-711.777 -5470.06 3023.28
-5470.06 355.889 0
3023.28 0 355.889

-6197.42 -5078.65 -2602.59
-5078.65 75.4282 391.41
-2602.59 391.41 6122

-711.777 -5470.06 -3023.28
-5470.06 355.889 0
-3023.28 0 355.889

-711.777 -5470.06 -3023.28
-5470.06 355.889 0
-3023.28 0 355.889

-5542.43 -4982.53 -2764.01
-4982.53 5511.56 259.273
-2764.01 259.273 30.8681

-10988.3 -4855.34 -2702.38
-4855.34 5470.47 386.458
-2702.38 386.458 5517.8

-10985 -4955.13 -2602.59
-4955.13 4945.32 391.41
-2602.59 391.41 6039.65

-16522.1 -4360.56 -2704.41
-4360.56 5532.96 17.9053
-2704.41 17.9053 10989.1

-11116 -4729.11 -2702.38
-4729.11 5534.32 386.458
-2702.38 386.458 5581.65

-11112.7 -4828.9 -2602.59
-4828.9 5009.17 391.41
-2602.59 391.41 6103.5

-15865.7 -4900.67 -2602.59
-4900.67 9810.07 391.41
-2602.59 391.41 6055.65

-20927.4 -4232.28 -2387.35
-4232.28 9953.56 -276.984
-2387.35 -276.984 10973.8

-20942.2 -4232.28 -2387.35
-4232.28 9867.55 -299.156
-2387.35 -299.156 11074.6

-15865.7 4900.67 2602.59
4900.67 9810.07 391.41
2602.59 391.41 6055.65

-20927.4 4232.28 2387.35
4232.28 9953.56 -276.984
2387.35 -276.984 10973.8

-20942.2 4232.28 2387.35
4232.28 9867.55 -299.156
2387.35 -299.156 11074.6

-16522.1 4360.56 2704.41
4360.56 5532.96 17.9053
2704.41 17.9053 10989.1

-11116 4729.11 2702.38
4729.11 5534.32 386.458
2702.38 386.458 5581.65

-11112.7 4828.9 2602.59
4828.9 5009.17 391.41
2602.59 391.41 6103.5

-5542.43 4982.53 2764.01
4982.53 5511.56 259.273
2764.01 259.273 30.8681

-10988.3 4855.34 2702.38
4855.34 5470.47 386.458
2702.38 386.458 5517.8

-10985 4955.13 2602.59
4955.13 4945.32 391.41
2602.59 391.41 6039.65

-6197.42 5078.65 2602.59
5078.65 75.4282 391.41
2602.59 391.41 6122

-711.777 5470.06 3023.28
5470.06 355.889 0
3023.28 0 355.889

-711.777 5470.06 3023.28
5470.06 355.889 0
3023.28 0 355.889

-5535.34 -420.156 -2764.01
-420.156 5497.38 -138.884
-2764.01 -138.884 37.9557

-636.12 1.22944e-11 -2902.9
1.22944e-11 318.06 0
-2902.9 0 318.06

-636.12 1.22944e-11 -2902.9
1.22944e-11 318.06 0
-2902.9 0 318.06

-5913.77 -7.37665e-12 -2506.79
-7.37665e-12 53.9916 -1.96711e-11
-2506.79 -1.96711e-11 5859.78

-10989 -97.3871 -2506.79
-97.3871 5194.13 -1.35239e-11
-2506.79 -1.35239e-11 5794.86

-10981.2 -292.972 -2702.38
-292.972 5456.29 -11.6997
-2702.38 -11.6997 5524.89

-16107.7 -1.22944e-11 -2506.79
-1.22944e-11 10229.8 -4.30305e-11
-2506.79 -4.30305e-11 5877.94

-11116.7 28.8422 -2506.79
28.8422 5257.98 -8.60609e-12
-2506.79 -8.60609e-12 5858.71

-11108.9 -166.743 -2702.38
-166.743 5520.14 -11.6997
-2702.38 -11.6997 5588.74

-16515 201.81 -2704.41
201.81 5518.79 -380.252
-2704.41 -380.252 10996.2

-20999.6 4.91777e-12 -2353.58
4.91777e-12 9868.82 -29.4223
-2353.58 -29.4223 11130.7

-21019.2 6.14721e-12 -2353.58
6.14721e-12 10331.9 -6.14721e-11
-2353.58 -6.14721e-11 10687.2

-16515 -201.81 2704.41
-201.81 5518.79 -380.252
2704.41 -380.252 10996.2

-20999.6 1.47533e-11 2353.58
1.47533e-11 9868.82 -29.4223
2353.58 -29.4223 11130.7

-21019.2 1.22944e-11 2353.58
1.22944e-11 10331.9 -6.14721e-11
2353.58 -6.14721e-11 10687.2

-16107.7 3.44244e-11 2506.79
3.44244e-11 10229.8 -3.93421e-11
2506.79 -3.93421e-11 5877.94

-11116.7 -28.8422 2506.79
-28.8422 5257.98 -1.47533e-11
2506.79 -1.47533e-11 5858.71

-11108.9 166.743 2702.38
166.743 5520.14 -11.6997
2702.38 -11.6997 5588.74

-5913.77 -1.84416e-11 2506.79
-1.84416e-11 53.9916 -1.22944e-11
2506.79 -1.22944e-11 5859.78

-10989 97.3871 2506.79
97.3871 5194.13 -1.22944e-11
2506.79 -1.22944e-11 5794.86

-10981.2 292.972 2702.38
292.972 5456.29 -11.6997
2702.38 -11.6997 5524.89

-5535.34 420.156 2764.01
420.156 5497.38 -138.884
2764.01 -138.884 37.9557

-636.12 -3.19655e-11 2902.9
-3.19655e-11 318.06 0
2902.9 0 318.06

-636.12 -3.0736e-11 2902.9
-3.0736e-11 318.06 0
2902.9 0 318.06

-5913.77 -7.37665e-12 -2506.79
-7.37665e-12 53.9916 -1.96711e-11
-2506.79 -1.96711e-11 5859.78

-636.12 1.22944e-11 -2902.9
1.22944e-11 318.06 0
-2902.9 0 318.06

-636.12 1.22944e-11 -2902.9
1.22944e-11 318.06 0
-2902.9 0 318.06

-5535.34 420.156 -2764.01
420.156 5497.38 138.884
-2764.01 138.884 37.9557

-10981.2 292.972 -2702.38
292.972 5456.29 11.6997
-2702.38 11.6997 5524.89

-10989 97.3871 -2506.79
97.3871 5194.13 -1.35239e-11
-2506.79 -1.35239e-11 5794.86

-16515 -201.81 -2704.41
-201.81 5518.79 380.252
-2704.41 380.252 10996.2

-11108.9 166.743 -2702.38
166.743 5520.14 11.6997
-2702.38 11.6997 5588.74

-11116.7 -28.8422 -2506.79
-28.8422 5257.98 -1.22944e-11
-2506.79 -1.22944e-11 5858.71

-16107.7 -1.96711e-11 -2506.79
-1.96711e-11 10229.8 1.22944e-12
-2506.79 1.22944e-12 5877.94

-21019.2 -1.22944e-12 -2353.58
-1.22944e-12 10331.9 -1.72122e-11
-2353.58 -1.72122e-11 10687.2

-20999.6 1.84416e-11 -2353.58
1.84416e-11 9868.82 29.4223
-2353.58 29.4223 11130.7

-16107.7 2.82772e-11 2506.79
2.82772e-11 10229.8 3.68833e-12
2506.79 3.68833e-12 5877.94

-21019.2 8.60609e-12 2353.58
8.60609e-12 10331.9 -1.59827e-11
2353.58 -1.59827e-11 10687.2

-20999.6 2.21299e-11 2353.58
2.21299e-11 9868.82 29.4223
2353.58 29.4223 11130.7

-16515 201.81 2704.41
201.81 5518.79 380.252
2704.41 380.252 10996.2

-11108.9 -166.743 2702.38
-166.743 5520.14 11.6997
2702.38 11.6997 5588.74

-11116.7 28.8422 2506.79
28.8422 5257.98 -3.93421e-11
2506.79 -3.93421e-11 5858.71

-5535.34 -420.156 2764.01
-420.156 5497.38 138.884
2764.01 138.884 37.9557

-10981.2 -292.972 2702.38
-292.972 5456.29 11.6997
2702.38 11.6997 5524.89

-10989 -97.3871 2506.79
-97.3871 5194.13 -3.68832e-11
2506.79 -3.68832e-11 5794.86

-5913.77 -1.84416e-11 2506.79
-1.84416e-11 53.9916 -1.22944e-11
2506.79 -1.22944e-11 5859.78

-636.12 -3.0736e-11 2902.9
-3.0736e-11 318.06 0
2902.9 0 318.06

-636.12 -3.0736e-11 2902.9
-3.0736e-11 318.06 0
2902.9 0 318.06

-5542.43 4982.53 -2764.01
4982.53 5511.56 -259.273
-2764.01 -259.273 30.8681

-711.777 5470.06 -3023.28
5470.06 355.889 0
-3023.28 0 355.889

-711.777 5470.06 -3023.28
5470.06 355.889 0
-3023.28 0 355.889

-6197.42 5078.65 -2602.59
5078.65 75.4282 -391.41
-2602.59 -391.41 6122

-10985 4955.13 -2602.59
4955.13 4945.32 -391.41
-2602.59 -391.41 6039.65

-10988.3 4855.34 -2702.38
4855.34 5470.47 -386.458
-2702.38 -386.458 5517.8

-15865.7 4900.67 -2602.59
4900.67 9810.07 -391.41
-2602.59 -391.41 6055.65

-11112.7 4828.9 -2602.59
4828.9 5009.17 -391.41
-2602.59 -391.41 6103.5

-11116 4729.11 -2702.38
4729.11 5534.32 -386.458
-2702.38 -386.458 5581.65

-16522.1 4360.56 -2704.41
4360.56 5532.96 -17.9053
-2704.41 -17.9053 10989.1

-20942.2 4232.28 -2387.35
4232.28 9867.55 299.156
-2387.35 299.156 11074.6

-20927.4 4232.28 -2387.35
4232.28 9953.56 276.984
-2387.35 276.984 10973.8

-16522.1 -4360.56 2704.41
-4360.56 5532.96 -17.9053
2704.41 -17.9053 10989.1

-20942.2 -4232.28 2387.35
-4232.28 9867.55 299.156
2387.35 299.156 11074.6

-20927.4 -4232.28 2387.35
-4232.28 9953.56 276.984
2387.35 276.984 10973.8

-15865.7 -4900.67 2602.59
-4900.67 9810.07 -391.41
2602.59 -391.41 6055.65

-11112.7 -4828.9 2602.59
-4828.9 5009.17 -391.41
2602.59 -391.41 6103.5

-11116 -4729.11 2702.38
-4729.11 5534.32 -386.458
2702.38 -386.458 5581.65

-6197.42 -5078.65 2602.59
-5078.65 75.4282 -391.41
2602.59 -391.41 6122

-10985 -4955.13 2602.59
-4955.13 4945.32 -391.41
2602.59 -391.41 6039.65

-10988.3 -4855.34 2702.38
-4855.34 5470.47 -386.458
2702.38 -386.458 5517.8

-5542.43 -4982.53 2764.01
-4982.53 5511.56 -259.273
2764.01 -259.273 30.8681

-711.777 -5470.06 3023.28
-5470.06 355.889 0
3023.28 0 355.889

-711.777 -5470.06 3023.28
-5470.06 355.889 0
3023.28 0 355.889

-5542.43 -4982.53 2764.01
-4982.53 5511.56 -259.273
2764.01 -259.273 30.8681

-711.777 -5470.06 3023.28
-5470.06 355.889 0
3023.28 0 355.889

-711.777 -5470.06 3023.28
-5470.06 355.889 0
3023.28 0 355.889

-6197.42 -5078.65 2602.59
-5078.65 75.4282 -391.41
2602.59 -391.41 6122

-10985 -4955.13 2602.59
-4955.13 4945.32 -391.41
2602.59 -391.41 6039.65

-10988.3 -4855.34 2702.38
-4855.34 5470.47 -386.458
2702.38 -386.458 5517.8

-15865.7 -4900.67 2602.59
-4900.67 9810.07 -391.41
2602.59 -391.41 6055.65

-11112.7 -4828.9 2602.59
-4828.9 5009.17 -391.41
2602.59 -391.41 6103.5

-11116 -4729.11 2702.38
-4729.11 5534.32 -386.458
2702.38 -386.458 5581.65

-16522.1 -4360.56 2704.41
-4360.56 5532.96 -17.9053
2704.41 -17.9053 10989.1

-20942.2 -4232.28 2387.35
-4232.28 9867.55 299.156
2387.35 299.156 11074.6

-20927.4 -4232.28 2387.35
-4232.28 9953.56 276.984
2387.35 276.984 10973.8

-16522.1 4360.56 -2704.41
4360.56 5532.96 -17.9053
-2704.41 -17.9053 10989.1

-20942.2 4232.28 -2387.35
4232.28 9867.55 299.156
-2387.35 299.156 11074.6

-20927.4 4232.28 -2387.35
4232.28 9953.56 276.984
-2387.35 276.984 10973.8

-15865.7 4900.67 -2602.59
4900.67 9810.07 -391.41
-2602.59 -391.41 6055.65

-11112.7 4828.9 -2602.59
4828.9 5009.17 -391.41
-2602.59 -391.41 6103.5

-11116 4729.11 -2702.38
4729.11 5534.32 -386.458
-2702.38 -386.458 5581.65

-6197.42 5078.65 -2602.59
5078.65 75.4282 -391.41
-2602.59 -391.41 6122

-10985 4955.13 -2602.59
4955.13 4945.32 -391.41
-2602.59 -391.41 6039.65

-10988.3 4855.34 -2702.38
4855.34 5470.47 -386.458
-2702.38 -386.458 5517.8

-5542.43 4982.53 -2764.01
4982.53 5511.56 -259.273
-2764.01 -259.273 30.8681

-711.777 5470.06 -3023.28
5470.06 355.889 0
-3023.28 0 355.889

-711.777 5470.06 -3023.28
5470.06 355.889 0
-3023.28 0 355.889

-5913.77 -6.14721e-12 2506.79
-6.14721e-12 53.9916 0
2506.79 0 5859.78

-636.12 -7.37665e-12 2902.9
-7.37665e-12 318.06 0
2902.9 0 318.06

-636.12 -7.37665e-12 2902.9
-7.37665e-12 318.06 0
2902.9 0 318.06

-5535.34 -420.156 2764.01
-420.156 5497.38 138.884
2764.01 138.884 37.9557

-10981.2 -292.972 2702.38
-292.972 5456.29 11.6997
2702.38 11.6997 5524.89

-10989 -97.3871 2506.79
-97.3871 5194.13 6.14721e-12
2506.79 6.14721e-12 5794.86

-16515 201.81 2704.41
201.81 5518.79 380.252
2704.41 380.252 10996.2

-11108.9 -166.743 2702.38
-166.743 5520.14 11.6997
2702.38 11.6997 5588.74

-11116.7 28.8422 2506.79
28.8422 5257.98 6.14721e-12
2506.79 6.14721e-12 5858.71

-16107.7 -1.22944e-11 2506.79
-1.22944e-11 10229.8 -2.45888e-11
2506.79 -2.45888e-11 5877.94

-21019.2 -6.14721e-12 2353.58
-6.14721e-12 10331.9 -1.84416e-11
2353.58 -1.84416e-11 10687.2

-20999.6 -1.22944e-11 2353.58
-1.22944e-11 9868.82 29.4223
2353.58 29.4223 11130.7

-16107.7 3.68832e-11 -2506.79
3.68832e-11 10229.8 -4.30305e-11
-2506.79 -4.30305e-11 5877.94

-21019.2 1.47533e-11 -2353.58
1.47533e-11 10331.9 -1.96711e-11
-2353.58 -1.96711e-11 10687.2

-20999.6 8.60609e-12 -2353.58
8.60609e-12 9868.82 29.4223
-2353.58 29.4223 11130.7

-16515 -201.81 -2704.41
-201.81 5518.79 380.252
-2704.41 380.252 10996.2

-11108.9 166.743 -2702.38
166.743 5520.14 11.6997
-2702.38 11.6997 5588.74

-11116.7 -28.8422 -2506.79
-28.8422 5257.98 -1.47533e-11
-2506.79 -1.47533e-11 5858.71

-5535.34 420.156 -2764.01
420.156 5497.38 138.884
-2764.01 138.884 37.9557

-10981.2 292.972 -2702.38
292.972 5456.29 11.6997
-2702.38 11.6997 5524.89

-10989 97.3871 -2506.79
97.3871 5194.13 -1.84416e-11
-2506.79 -1.84416e-11 5794.86

-5913.77 -1.84416e-11 -2506.79
-1.84416e-11 53.9916 -1.84416e-11
-2506.79 -1.84416e-11 5859.78

-636.12 0 -2902.9
0 318.06 0
-2902.9 0 318.06

-636.12 0 -2902.9
0 318.06 0
-2902.9 0 318.06

-5535.34 420.156 2764.01
420.156 5497.38 -138.884
2764.01 -138.884 37.9557

-636.12 -7.37665e-12 2902.9
-7.37665e-12 318.06 0
2902.9 0 318.06

-636.12 -6.14721e-12 2902.9
-6.14721e-12 318.06 0
2902.9 0 318.06

-5913.77 -6.14721e-12 2506.79
-6.14721e-12 53.9916 0
2506.79 0 5859.78

-10989 97.3871 2506.79
97.3871 5194.13 6.14721e-12
2506.79 6.14721e-12 5794.86

-10981.2 292.972 2702.38
292.972 5456.29 -11.6997
2702.38 -11.6997 5524.89

-16107.7 -1.72122e-11 2506.79
-1.72122e-11 10229.8 1.47533e-11
2506.79 1.47533e-11 5877.94

-11116.7 -28.8422 2506.79
-28.8422 5257.98 9.83553e-12
2506.79 9.83553e-12 5858.71

-11108.9 166.743 2702.38
166.743 5520.14 -11.6997
2702.38 -11.6997 5588.74

-16515 -201.81 2704.41
-201.81 5518.79 -380.252
2704.41 -380.252 10996.2

-20999.6 -2.33594e-11 2353.58
-2.33594e-11 9868.82 -29.4223
2353.58 -29.4223 11130.7

-21019.2 -1.1065e-11 2353.58
-1.1065e-11 10331.9 2.09005e-11
2353.58 2.09005e-11 10687.2

-16515 201.81 -2704.41
201.81 5518.79 -380.252
-2704.41 -380.252 10996.2

-20999.6 -3.68833e-12 -2353.58
-3.68833e-12 9868.82 -29.4223
-2353.58 -29.4223 11130.7

-21019.2 6.14721e-12 -2353.58
6.14721e-12 10331.9 2.45888e-11
-2353.58 2.45888e-11 10687.2

-16107.7 3.0736e-11 -2506.79
3.0736e-11 10229.8 0
-2506.79 0 5877.94

-11116.7 28.8422 -2506.79
28.8422 5257.98 -4.30305e-11
-2506.79 -4.30305e-11 5858.71

-11108.9 -166.743 -2702.38
-166.743 5520.14 -11.6997
-2702.38 -11.6997 5588.74

-5913.77 -1.84416e-11 -2506.79
-1.84416e-11 53.9916 -1.84416e-11
-2506.79 -1.84416e-11 5859.78

-10989 -97.3871 -2506.79
-97.3871 5194.13 -4.30305e-11
-2506.79 -4.30305e-11 5794.86

-10981.2 -292.972 -2702.38
-292.972 5456.29 -11.6997
-2702.38 -11.6997 5524.89

-5535.34 -420.156 -2764.01
-420.156 5497.38 -138.884
-2764.01 -138.884 37.9557

-636.12 0 -2902.9
0 318.06 0
-2902.9 0 318.06

-636.12 0 -2902.9
0 318.06 0
-2902.9 0 318.06

-6197.42 5078.65 2602.59
5078.65 75.4282 391.41
2602.59 391.41 6122

-711.777 5470.06 3023.28
5470.06 355.889 0
3023.28 0 355.889

-711.777 5470.06 3023.28
5470.06 355.889 0
3023.28 0 355.889

-5542.43 4982.53 2764.01
4982.53 5511.56 259.273
2764.01 259.273 30.8681

-10988.3 4855.34 2702.38
4855.34 5470.47 386.458
2702.38 386.458 5517.8

-10985 4955.13 2602.59
4955.13 4945.32 391.41
2602.59 391.41 6039.65

-16522.1 4360.56 2704.41
4360.56 5532.96 17.9053
2704.41 17.9053 10989.1

-11116 4729.11 2702.38
4729.11 5534.32 386.458
2702.38 386.458 5581.65

-11112.7 4828.9 2602.59
4828.9 5009.17 391.41
2602.59 391.41 6103.5

-15865.7 4900.67 2602.59
4900.67 9810.07 391.41
2602.59 391.41 6055.65

-20927.4 4232.28 2387.35
4232.28 9953.56 -276.984
2387.35 -276.984 10973.8

-20942.2 4232.28 2387.35
4232.28 9867.55 -299.156
2387.35 -299.156 11074.6

-15865.7 -4900.67 -2602.59
-4900.67 9810.07 391.41
-2602.59 391.41 6055.65

-20927.4 -4232.28 -2387.35
-4232.28 9953.56 -276.984
-2387.35 -276.984 10973.8

-20942.2 -4232.28 -2387.35
-4232.28 9867.55 -299.156
-2387.35 -299.156 11074.6

-16522.1 -4360.56 -2704.41
-4360.56 5532.96 17.9053
-2704.41 17.9053 10989.1

-11116 -4729.11 -2702.38
-4729.11 5534.32 386.458
-2702.38 386.458 5581.65

-11112.7 -4828.9 -2602.59
-4828.9 5009.17 391.41
-2602.59 391.41 6103.5

-5542.43 -4982.53 -2764.01
-4982.53 5511.56 259.273
-2764.01 259.273 30.8681

-10988.3 -4855.34 -2702.38
-4855.34 5470.47 386.458
-2702.38 386.458 5517.8

-10985 -4955.13 -2602.59
-4955.13 4945.32 391.41
-2602.59 391.41 6039.65

-6197.42 -5078.65 -2602.59
-5078.65 75.4282 391.41
-2602.59 391.41 6122

-711.777 -5470.06 -3023.28
-5470.06 355.889 0
-3023.28 0 355.889

-711.777 -5470.06 -3023.28
-5470.06 355.889 0
-3023.28 0 355.889

-7783.17 -3882.74 3297.49
-3882.74 173.088 1587.32
3297.49 1587.32 7610.08

-711.777 -5470.06 3023.28
-5470.06 355.889 0
3023.28 0 355.889

-711.777 -5470.06 3023.28
-5470.06 355.889 0
3023.28 0 355.889

-5542.43 -4982.53 2764.01
-4982.53 5511.56 -259.273
2764.01 -259.273 30.8681

-11027.8 -4321.44 2763.4
-4321.44 5511.97 401.816
2763.4 401.816 5515.82

-11061.1 -3620.03 2061.98
-3620.03 3626.18 351.818
2061.98 351.818 7434.94

-16542.7 -4360.56 2704.41
-4360.56 5512.32 701.485
2704.41 701.485 11030.4

-11047.5 -4060.89 2718.65
-4060.89 5521.81 401.816
2718.65 401.816 5525.66

-11080.8 -3359.48 2017.24
-3359.48 3636.02 351.818
2017.24 351.818 7444.78

-14207.3 -3395 2193.67
-3395 6786.18 175.382
2193.67 175.382 7421.1

-20966.8 -4232.28 2387.35
-4232.28 6915.3 1012.66
2387.35 1012.66 14051.5

-20962.8 -4232.28 2387.35
-4232.28 9846.9 1018.55
2387.35 1018.55 11115.9

-14207.3 3395 -2193.67
3395 6786.18 175.382
-2193.67 175.382 7421.1

-20966.8 4232.28 -2387.35
4232.28 6915.3 1012.66
-2387.35 1012.66 14051.5

-20962.8 4232.28 -2387.35
4232.28 9846.9 1018.55
-2387.35 1018.55 11115.9

-16542.7 4360.56 -2704.41
4360.56 5512.32 701.485
-2704.41 701.485 11030.4

-11047.5 4060.89 -2718.65
4060.89 5521.81 401.816
-2718.65 401.816 5525.66

-11080.8 3359.48 -2017.24
3359.48 3636.02 351.818
-2017.24 351.818 7444.78

-5542.43 4982.53 -2764.01
4982.53 5511.56 -259.273
-2764.01 -259.273 30.8681

-11027.8 4321.44 -2763.4
4321.44 5511.97 401.816
-2763.4 401.816 5515.82

-11061.1 3620.03 -2061.98
3620.03 3626.18 351.818
-2061.98 351.818 7434.94

-7783.17 3882.74 -3297.49
3882.74 173.088 1587.32
-3297.49 1587.32 7610.08

-711.777 5470.06 -3023.28
5470.06 355.889 0
-3023.28 0 355.889

-711.777 5470.06 -3023.28
5470.06 355.889 0
-3023.28 0 355.889

-5535.34 -420.156 2764.01
-420.156 5497.38 138.884
2764.01 138.884 37.9557

-636.12 -7.37665e-12 2902.9
-7.37665e-12 318.06 0
2902.9 0 318.06

-636.12 -6.14721e-12 2902.9
-6.14721e-12 318.06 0
2902.9 0 318.06

-7244.23 -7.37665e-12 3153.89
-7.37665e-12 150.728 0
3153.89 0 7093.51

-11066 -236.576 2285.89
-236.576 4130.26 868.004
2285.89 868.004 6935.79

-11020.7 240.933 2763.4
240.933 5497.79 799.973
2763.4 799.973 5522.9

-14733.9 -7.37665e-12 2208.81
-7.37665e-12 7772.24 835.675
2208.81 835.675 6961.61

-11085.7 23.9693 2241.14
23.9693 4140.1 868.004
2241.14 868.004 6945.63

-11040.4 501.478 2718.65
501.478 5507.64 799.973
2718.65 799.973 5532.75

-16535.6 201.81 2704.41
201.81 5498.14 1099.64
2704.41 1099.64 11037.5

-21020.2 -1.1065e-11 2353.58
-1.1065e-11 9848.18 748.812
2353.58 748.812 11172

-21078.1 2.45888e-11 2353.58
2.45888e-11 7868.76 835.675
2353.58 835.675 13209.4

-16535.6 -201.81 -2704.41
-201.81 5498.14 1099.64
-2704.41 1099.64 11037.5

-21020.2 3.68832e-12 -2353.58
3.68832e-12 9848.18 748.812
-2353.58 748.812 11172

-21078.1 4.30305e-11 -2353.58
4.30305e-11 7868.76 835.675
-2353.58 835.675 13209.4

-14733.9 6.02426e-11 -2208.81
6.02426e-11 7772.24 835.675
-2208.81 835.675 6961.61

-11085.7 -23.9693 -2241.14
-23.9693 4140.1 868.004
-2241.14 868.004 6945.63

-11040.4 -501.478 -2718.65
-501.478 5507.64 799.973
-2718.65 799.973 5532.75

-7244.23 1.22944e-11 -3153.89
1.22944e-11 150.728 -1.22944e-11
-3153.89 -1.22944e-11 7093.51

-11066 236.576 -2285.89
236.576 4130.26 868.004
-2285.89 868.004 6935.79

-11020.7 -240.933 -2763.4
-240.933 5497.79 799.973
-2763.4 799.973 5522.9

-5535.34 420.156 -2764.01
420.156 5497.38 138.884
-2764.01 138.884 37.9557

-636.12 0 -2902.9
0 318.06 0
-2902.9 0 318.06

-636.12 0 -2902.9
0 318.06 0
-2902.9 0 318.06

-7244.23 -7.37665e-12 3153.89
-7.37665e-12 150.728 0
3153.89 0 7093.51

-636.12 -7.37665e-12 2902.9
-7.37665e-12 318.06 0
2902.9 0 318.06

-636.12 -7.37665e-12 2902.9
-7.37665e-12 318.06 0
2902.9 0 318.06

-5535.34 420.156 2764.01
420.156 5497.38 -138.884
2764.01 -138.884 37.9557

-11020.7 -240.933 2763.4
-240.933 5497.79 -799.973
2763.4 -799.973 5522.9

-11066 236.576 2285.89
236.576 4130.26 -868.004
2285.89 -868.004 6935.79

-16535.6 -201.81 2704.41
-201.81 5498.14 -1099.64
2704.41 -1099.64 11037.5

-11040.4 -501.478 2718.65
-501.478 5507.64 -799.973
2718.65 -799.973 5532.75

-11085.7 -23.9693 2241.14
-23.9693 4140.1 -868.004
2241.14 -868.004 6945.63

-14733.9 -4.91777e-11 2208.81
-4.91777e-11 7772.24 -835.675
2208.81 -835.675 6961.61

-21078.1 -1.84416e-11 2353.58
-1.84416e-11 7868.76 -835.675
2353.58 -835.675 13209.4

-21020.2 -2.33594e-11 2353.58
-2.33594e-11 9848.18 -748.812
2353.58 -748.812 11172

-14733.9 2.21299e-11 -2208.81
2.21299e-11 7772.24 -835.675
-2208.81 -835.675 6961.61

-21078.1 -2.45888e-12 -2353.58
-2.45888e-12 7868.76 -835.675
-2353.58 -835.675 13209.4

-21020.2 -8.60609e-12 -2353.58
-8.60609e-12 9848.18 -748.812
-2353.58 -748.812 11172

-16535.6 201.81 -2704.41
201.81 5498.14 -1099.64
-2704.41 -1099.64 11037.5

-11040.4 501.478 -2718.65
501.478 5507.64 -799.973
-2718.65 -799.973 5532.75

-11085.7 23.9693 -2241.14
23.9693 4140.1 -868.004
-2241.14 -868.004 6945.63

-5535.34 -420.156 -2764.01
-420.156 5497.38 -138.884
-2764.01 -138.884 37.9557

-11020.7 240.933 -2763.4
240.933 5497.79 -799.973
-2763.4 -799.973 5522.9

-11066 -236.576 -2285.89
-236.576 4130.26 -868.004
-2285.89 -868.004 6935.79

-7244.23 1.22944e-11 -3153.89
1.22944e-11 150.728 -1.22944e-11
-3153.89 -1.22944e-11 7093.51

-636.12 0 -2902.9
0 318.06 0
-2902.9 0 318.06

-636.12 0 -2902.9
0 318.06 0
-2902.9 0 318.06

-5542.43 4982.53 2764.01
4982.53 5511.56 259.273
2764.01 259.273 30.8681

-711.777 5470.06 3023.28
5470.06 355.889 0
3023.28 0 355.889

-711.777 5470.06 3023.28
5470.06 355.889 0
3023.28 0 355.889

-7783.17 3882.74 3297.49
3882.74 173.088 -1587.32
3297.49 -1587.32 7610.08

-11061.1 3620.03 2061.98
3620.03 3626.18 -351.818
2061.98 -351.818 7434.94

-11027.8 4321.44 2763.4
4321.44 5511.97 -401.816
2763.4 -401.816 5515.82

-14207.3 3395 2193.67
3395 6786.18 -175.382
2193.67 -175.382 7421.1

-11080.8 3359.48 2017.24
3359.48 3636.02 -351.818
2017.24 -351.818 7444.78

-11047.5 4060.89 2718.65
4060.89 5521.81 -401.816
2718.65 -401.816 5525.66

-16542.7 4360.56 2704.41
4360.56 5512.32 -701.485
2704.41 -701.485 11030.4

-20962.8 4232.28 2387.35
4232.28 9846.9 -1018.55
2387.35 -1018.55 11115.9

-20966.8 4232.28 2387.35
4232.28 6915.3 -1012.66
2387.35 -1012.66 14051.5

-16542.7 -4360.56 -2704.41
-4360.56 5512.32 -701.485
-2704.41 -701.485 11030.4

-20962.8 -4232.28 -2387.35
-4232.28 9846.9 -1018.55
-2387.35 -1018.55 11115.9

-20966.8 -4232.28 -2387.35
-4232.28 6915.3 -1012.66
-2387.35 -1012.66 14051.5

-14207.3 -3395 -2193.67
-3395 6786.18 -175.382
-2193.67 -175.382 7421.1

-11080.8 -3359.48 -2017.24
-3359.48 3636.02 -351.818
-2017.24 -351.818 7444.78

-11047.5 -4060.89 -2718.65
-4060.89 5521.81 -401.816
-2718.65 -401.816 5525.66

-7783.17 -3882.74 -3297.49
-3882.74 173.088 -1587.32
-3297.49 -1587.32 7610.08

-11061.1 -3620.03 -2061.98
-3620.03 3626.18 -351.818
-2061.98 -351.818 7434.94

-11027.8 -4321.44 -2763.4
-4321.44 5511.97 -401.816
-2763.4 -401.816 5515.82

-5542.43 -4982.53 -2764.01
-4982.53 5511.56 259.273
-2764.01 259.273 30.8681

-711.777 -5470.06 -3023.28
-5470.06 355.889 0
-3023.28 0 355.889

-711.777 -5470.06 -3023.28
-5470.06 355.889 0
-3023.28 0 355.889


