# vtk DataFile Version 2.0
Unstructured Grid
ASCII
DATASET UNSTRUCTURED_GRID
POINTS 125 double
0.000000 0.000000 0.000000
0.000000 0.000000 0.050000
0.000000 0.000000 0.100000
0.000000 0.000000 0.150000
0.000000 0.000000 0.200000
0.000000 0.050000 0.000000
0.000000 0.050000 0.050000
0.000000 0.050000 0.100000
0.000000 0.050000 0.150000
0.000000 0.050000 0.200000
0.000000 0.100000 0.000000
0.000000 0.100000 0.050000
0.000000 0.100000 0.100000
0.000000 0.100000 0.150000
0.000000 0.100000 0.200000
0.000000 0.150000 0.000000
0.000000 0.150000 0.050000
0.000000 0.150000 0.100000
0.000000 0.150000 0.150000
0.000000 0.150000 0.200000
0.000000 0.200000 0.000000
0.000000 0.200000 0.050000
0.000000 0.200000 0.100000
0.000000 0.200000 0.150000
0.000000 0.200000 0.200000
0.040709 -0.008791 -0.014981
0.047987 -0.012322 0.043251
0.042595 -0.011346 0.100000
0.047987 -0.012322 0.156749
0.040709 -0.008791 0.214981
0.037477 0.045349 -0.012204
0.043362 0.043857 0.043883
0.037607 0.044206 0.100000
0.043362 0.043857 0.156117
0.037477 0.045349 0.212204
0.041340 0.100000 -0.014209
0.048195 0.100000 0.043510
0.042964 0.100000 0.100000
0.048195 0.100000 0.156490
0.041340 0.100000 0.214209
0.037477 0.154651 -0.012204
0.043362 0.156143 0.043883
0.037607 0.155794 0.100000
0.043362 0.156143 0.156117
0.037477 0.154651 0.212204
0.040709 0.208791 -0.014981
0.047987 0.212322 0.043251
0.042595 0.211346 0.100000
0.047987 0.212322 0.156749
0.040709 0.208791 0.214981
0.075000 -0.015828 -0.026495
0.075000 -0.020768 0.038441
0.075000 -0.021535 0.100000
0.075000 -0.020768 0.161559
0.075000 -0.015828 0.226495
0.075000 0.041583 -0.023625
0.075000 0.039624 0.038246
0.075000 0.039058 0.100000
0.075000 0.039624 0.161754
0.075000 0.041583 0.223625
0.075000 0.100000 -0.025276
0.075000 0.100000 0.038775
0.075000 0.100000 0.100000
0.075000 0.100000 0.161225
0.075000 0.100000 0.225276
0.075000 0.158417 -0.023625
0.075000 0.160376 0.038246
0.075000 0.160942 0.100000
0.075000 0.160376 0.161754
0.075000 0.158417 0.223625
0.075000 0.215828 -0.026495
0.075000 0.220768 0.038441
0.075000 0.221535 0.100000
0.075000 0.220768 0.161559
0.075000 0.215828 0.226495
0.109291 -0.008791 -0.014981
0.102013 -0.012322 0.043251
0.107405 -0.011346 0.100000
0.102013 -0.012322 0.156749
0.109291 -0.008791 0.214981
0.112523 0.045349 -0.012204
0.106638 0.043857 0.043883
0.112393 0.044206 0.100000
0.106638 0.043857 0.156117
0.112523 0.045349 0.212204
0.108660 0.100000 -0.014209
0.101805 0.100000 0.043510
0.107036 0.100000 0.100000
0.101805 0.100000 0.156490
0.108660 0.100000 0.214209
0.112523 0.154651 -0.012204
0.106638 0.156143 0.043883
0.112393 0.155794 0.100000
0.106638 0.156143 0.156117
0.112523 0.154651 0.212204
0.109291 0.208791 -0.014981
0.102013 0.212322 0.043251
0.107405 0.211346 0.100000
0.102013 0.212322 0.156749
0.109291 0.208791 0.214981
0.150000 0.000000 0.000000
0.150000 0.000000 0.050000
0.150000 0.000000 0.100000
0.150000 0.000000 0.150000
0.150000 0.000000 0.200000
0.150000 0.050000 0.000000
0.150000 0.050000 0.050000
0.150000 0.050000 0.100000
0.150000 0.050000 0.150000
0.150000 0.050000 0.200000
0.150000 0.100000 0.000000
0.150000 0.100000 0.050000
0.150000 0.100000 0.100000
0.150000 0.100000 0.150000
0.150000 0.100000 0.200000
0.150000 0.150000 0.000000
0.150000 0.150000 0.050000
0.150000 0.150000 0.100000
0.150000 0.150000 0.150000
0.150000 0.150000 0.200000
0.150000 0.200000 0.000000
0.150000 0.200000 0.050000
0.150000 0.200000 0.100000
0.150000 0.200000 0.150000
0.150000 0.200000 0.200000

CELLS 384 1920
4 5 6 26 31
4 5 6 1 26
4 0 5 1 26
4 0 5 26 25
4 25 5 26 30
4 30 5 26 31
4 26 25 55 50
4 26 25 30 55
4 31 26 30 55
4 26 31 56 55
4 26 56 51 55
4 26 51 50 55
4 55 56 76 81
4 55 56 51 76
4 50 55 51 76
4 50 55 76 75
4 75 55 76 80
4 80 55 76 81
4 76 75 105 100
4 76 75 80 105
4 81 76 80 105
4 76 81 106 105
4 76 106 101 105
4 76 101 100 105
4 10 5 35 36
4 5 10 11 36
4 6 5 11 36
4 5 6 31 36
4 5 31 30 36
4 5 30 35 36
4 36 31 55 56
4 36 31 30 55
4 35 36 30 55
4 35 36 55 60
4 60 36 55 61
4 61 36 55 56
4 60 55 85 86
4 55 60 61 86
4 56 55 61 86
4 55 56 81 86
4 55 81 80 86
4 55 80 85 86
4 86 81 105 106
4 86 81 80 105
4 85 86 80 105
4 85 86 105 110
4 110 86 105 111
4 111 86 105 106
4 15 16 36 41
4 15 16 11 36
4 10 15 11 36
4 10 15 36 35
4 35 15 36 40
4 40 15 36 41
4 36 35 65 60
4 36 35 40 65
4 41 36 40 65
4 36 41 66 65
4 36 66 61 65
4 36 61 60 65
4 65 66 86 91
4 65 66 61 86
4 60 65 61 86
4 60 65 86 85
4 85 65 86 90
4 90 65 86 91
4 86 85 115 110
4 86 85 90 115
4 91 86 90 115
4 86 91 116 115
4 86 116 111 115
4 86 111 110 115
4 20 15 45 46
4 15 20 21 46
4 16 15 21 46
4 15 16 41 46
4 15 41 40 46
4 15 40 45 46
4 46 41 65 66
4 46 41 40 65
4 45 46 40 65
4 45 46 65 70
4 70 46 65 71
4 71 46 65 66
4 70 65 95 96
4 65 70 71 96
4 66 65 71 96
4 65 66 91 96
4 65 91 90 96
4 65 90 95 96
4 96 91 115 116
4 96 91 90 115
4 95 96 90 115
4 95 96 115 120
4 120 96 115 121
4 121 96 115 116
4 7 2 26 27
4 7 2 1 26
4 6 7 1 26
4 6 7 26 31
4 31 7 26 32
4 32 7 26 27
4 31 26 56 57
4 26 31 32 57
4 27 26 32 57
4 26 27 52 57
4 26 52 51 57
4 26 51 56 57
4 57 52 76 77
4 57 52 51 76
4 56 57 51 76
4 56 57 76 81
4 81 57 76 82
4 82 57 76 77
4 81 76 106 107
4 76 81 82 107
4 77 76 82 107
4 76 77 102 107
4 76 102 101 107
4 76 101 106 107
4 7 6 36 31
4 7 6 11 36
4 12 7 11 36
4 7 12 37 36
4 7 37 32 36
4 7 32 31 36
4 36 37 57 62
4 36 37 32 57
4 31 36 32 57
4 31 36 57 56
4 56 36 57 61
4 61 36 57 62
4 57 56 86 81
4 57 56 61 86
4 62 57 61 86
4 57 62 87 86
4 57 87 82 86
4 57 82 81 86
4 86 87 107 112
4 86 87 82 107
4 81 86 82 107
4 81 86 107 106
4 106 86 107 111
4 111 86 107 112
4 17 12 36 37
4 17 12 11 36
4 16 17 11 36
4 16 17 36 41
4 41 17 36 42
4 42 17 36 37
4 41 36 66 67
4 36 41 42 67
4 37 36 42 67
4 36 37 62 67
4 36 62 61 67
4 36 61 66 67
4 67 62 86 87
4 67 62 61 86
4 66 67 61 86
4 66 67 86 91
4 91 67 86 92
4 92 67 86 87
4 91 86 116 117
4 86 91 92 117
4 87 86 92 117
4 86 87 112 117
4 86 112 111 117
4 86 111 116 117
4 17 16 46 41
4 17 16 21 46
4 22 17 21 46
4 17 22 47 46
4 17 47 42 46
4 17 42 41 46
4 46 47 67 72
4 46 47 42 67
4 41 46 42 67
4 41 46 67 66
4 66 46 67 71
4 71 46 67 72
4 67 66 96 91
4 67 66 71 96
4 72 67 71 96
4 67 72 97 96
4 67 97 92 96
4 67 92 91 96
4 96 97 117 122
4 96 97 92 117
4 91 96 92 117
4 91 96 117 116
4 116 96 117 121
4 121 96 117 122
4 7 8 28 33
4 7 8 3 28
4 2 7 3 28
4 2 7 28 27
4 27 7 28 32
4 32 7 28 33
4 28 27 57 52
4 28 27 32 57
4 33 28 32 57
4 28 33 58 57
4 28 58 53 57
4 28 53 52 57
4 57 58 78 83
4 57 58 53 78
4 52 57 53 78
4 52 57 78 77
4 77 57 78 82
4 82 57 78 83
4 78 77 107 102
4 78 77 82 107
4 83 78 82 107
4 78 83 108 107
4 78 108 103 107
4 78 103 102 107
4 12 7 37 38
4 7 12 13 38
4 8 7 13 38
4 7 8 33 38
4 7 33 32 38
4 7 32 37 38
4 38 33 57 58
4 38 33 32 57
4 37 38 32 57
4 37 38 57 62
4 62 38 57 63
4 63 38 57 58
4 62 57 87 88
4 57 62 63 88
4 58 57 63 88
4 57 58 83 88
4 57 83 82 88
4 57 82 87 88
4 88 83 107 108
4 88 83 82 107
4 87 88 82 107
4 87 88 107 112
4 112 88 107 113
4 113 88 107 108
4 17 18 38 43
4 17 18 13 38
4 12 17 13 38
4 12 17 38 37
4 37 17 38 42
4 42 17 38 43
4 38 37 67 62
4 38 37 42 67
4 43 38 42 67
4 38 43 68 67
4 38 68 63 67
4 38 63 62 67
4 67 68 88 93
4 67 68 63 88
4 62 67 63 88
4 62 67 88 87
4 87 67 88 92
4 92 67 88 93
4 88 87 117 112
4 88 87 92 117
4 93 88 92 117
4 88 93 118 117
4 88 118 113 117
4 88 113 112 117
4 22 17 47 48
4 17 22 23 48
4 18 17 23 48
4 17 18 43 48
4 17 43 42 48
4 17 42 47 48
4 48 43 67 68
4 48 43 42 67
4 47 48 42 67
4 47 48 67 72
4 72 48 67 73
4 73 48 67 68
4 72 67 97 98
4 67 72 73 98
4 68 67 73 98
4 67 68 93 98
4 67 93 92 98
4 67 92 97 98
4 98 93 117 118
4 98 93 92 117
4 97 98 92 117
4 97 98 117 122
4 122 98 117 123
4 123 98 117 118
4 9 4 28 29
4 9 4 3 28
4 8 9 3 28
4 8 9 28 33
4 33 9 28 34
4 34 9 28 29
4 33 28 58 59
4 28 33 34 59
4 29 28 34 59
4 28 29 54 59
4 28 54 53 59
4 28 53 58 59
4 59 54 78 79
4 59 54 53 78
4 58 59 53 78
4 58 59 78 83
4 83 59 78 84
4 84 59 78 79
4 83 78 108 109
4 78 83 84 109
4 79 78 84 109
4 78 79 104 109
4 78 104 103 109
4 78 103 108 109
4 9 8 38 33
4 9 8 13 38
4 14 9 13 38
4 9 14 39 38
4 9 39 34 38
4 9 34 33 38
4 38 39 59 64
4 38 39 34 59
4 33 38 34 59
4 33 38 59 58
4 58 38 59 63
4 63 38 59 64
4 59 58 88 83
4 59 58 63 88
4 64 59 63 88
4 59 64 89 88
4 59 89 84 88
4 59 84 83 88
4 88 89 109 114
4 88 89 84 109
4 83 88 84 109
4 83 88 109 108
4 108 88 109 113
4 113 88 109 114
4 19 14 38 39
4 19 14 13 38
4 18 19 13 38
4 18 19 38 43
4 43 19 38 44
4 44 19 38 39
4 43 38 68 69
4 38 43 44 69
4 39 38 44 69
4 38 39 64 69
4 38 64 63 69
4 38 63 68 69
4 69 64 88 89
4 69 64 63 88
4 68 69 63 88
4 68 69 88 93
4 93 69 88 94
4 94 69 88 89
4 93 88 118 119
4 88 93 94 119
4 89 88 94 119
4 88 89 114 119
4 88 114 113 119
4 88 113 118 119
4 19 18 48 43
4 19 18 23 48
4 24 19 23 48
4 19 24 49 48
4 19 49 44 48
4 19 44 43 48
4 48 49 69 74
4 48 49 44 69
4 43 48 44 69
4 43 48 69 68
4 68 48 69 73
4 73 48 69 74
4 69 68 98 93
4 69 68 73 98
4 74 69 73 98
4 69 74 99 98
4 69 99 94 98
4 69 94 93 98
4 98 99 119 124
4 98 99 94 119
4 93 98 94 119
4 93 98 119 118
4 118 98 119 123
4 123 98 119 124

CELL_TYPES 384
10
10
10
10
10
10
10
10
10
10
10
10
10
10
10
10
10
10
10
10
10
10
10
10
10
10
10
10
10
10
10
10
10
10
10
10
10
10
10
10
10
10
10
10
10
10
10
10
10
10
10
10
10
10
10
10
10
10
10
10
10
10
10
10
10
10
10
10
10
10
10
10
10
10
10
10
10
10
10
10
10
10
10
10
10
10
10
10
10
10
10
10
10
10
10
10
10
10
10
10
10
10
10
10
10
10
10
10
10
10
10
10
10
10
10
10
10
10
10
10
10
10
10
10
10
10
10
10
10
10
10
10
10
10
10
10
10
10
10
10
10
10
10
10
10
10
10
10
10
10
10
10
10
10
10
10
10
10
10
10
10
10
10
10
10
10
10
10
10
10
10
10
10
10
10
10
10
10
10
10
10
10
10
10
10
10
10
10
10
10
10
10
10
10
10
10
10
10
10
10
10
10
10
10
10
10
10
10
10
10
10
10
10
10
10
10
10
10
10
10
10
10
10
10
10
10
10
10
10
10
10
10
10
10
10
10
10
10
10
10
10
10
10
10
10
10
10
10
10
10
10
10
10
10
10
10
10
10
10
10
10
10
10
10
10
10
10
10
10
10
10
10
10
10
10
10
10
10
10
10
10
10
10
10
10
10
10
10
10
10
10
10
10
10
10
10
10
10
10
10
10
10
10
10
10
10
10
10
10
10
10
10
10
10
10
10
10
10
10
10
10
10
10
10
10
10
10
10
10
10
10
10
10
10
10
10
10
10
10
10
10
10
10
10
10
10
10
10
10
10
10
10
10
10
10
10
10
10
10
10
10
10
10
10
10
10
10
10
10
10
10
10
10
10
10
10
10
10
10
10
10
10
10
10

POINT_DATA 125
VECTORS displacement float
0.000000 0.000000 0.000000
0.000000 0.000000 0.000000
0.000000 0.000000 0.000000
0.000000 0.000000 0.000000
0.000000 0.000000 0.000000
0.000000 0.000000 0.000000
0.000000 0.000000 0.000000
0.000000 0.000000 0.000000
0.000000 0.000000 0.000000
0.000000 0.000000 0.000000
0.000000 0.000000 0.000000
0.000000 0.000000 0.000000
0.000000 0.000000 0.000000
0.000000 0.000000 0.000000
0.000000 0.000000 0.000000
0.000000 0.000000 0.000000
0.000000 0.000000 0.000000
0.000000 0.000000 0.000000
0.000000 0.000000 0.000000
0.000000 0.000000 0.000000
0.000000 0.000000 0.000000
0.000000 0.000000 0.000000
0.000000 0.000000 0.000000
0.000000 0.000000 0.000000
0.000000 0.000000 0.000000
-0.009291 -0.008791 -0.014981
-0.002013 -0.012322 -0.006749
-0.007405 -0.011346 -0.000000
-0.002013 -0.012322 0.006749
-0.009291 -0.008791 0.014981
-0.012523 -0.004651 -0.012204
-0.006638 -0.006143 -0.006117
-0.012393 -0.005794 -0.000000
-0.006638 -0.006143 0.006117
-0.012523 -0.004651 0.012204
-0.008660 0.000000 -0.014209
-0.001805 0.000000 -0.006490
-0.007036 0.000000 -0.000000
-0.001805 -0.000000 0.006490
-0.008660 -0.000000 0.014209
-0.012523 0.004651 -0.012204
-0.006638 0.006143 -0.006117
-0.012393 0.005794 -0.000000
-0.006638 0.006143 0.006117
-0.012523 0.004651 0.012204
-0.009291 0.008791 -0.014981
-0.002013 0.012322 -0.006749
-0.007405 0.011346 -0.000000
-0.002013 0.012322 0.006749
-0.009291 0.008791 0.014981
-0.025000 -0.015828 -0.026495
-0.025000 -0.020768 -0.011559
-0.025000 -0.021535 -0.000000
-0.025000 -0.020768 0.011559
-0.025000 -0.015828 0.026495
-0.025000 -0.008417 -0.023625
-0.025000 -0.010376 -0.011754
-0.025000 -0.010942 -0.000000
-0.025000 -0.010376 0.011754
-0.025000 -0.008417 0.023625
-0.025000 0.000000 -0.025276
-0.025000 0.000000 -0.011225
-0.025000 0.000000 -0.000000
-0.025000 -0.000000 0.011225
-0.025000 -0.000000 0.025276
-0.025000 0.008417 -0.023625
-0.025000 0.010376 -0.011754
-0.025000 0.010942 -0.000000
-0.025000 0.010376 0.011754
-0.025000 0.008417 0.023625
-0.025000 0.015828 -0.026495
-0.025000 0.020768 -0.011559
-0.025000 0.021535 -0.000000
-0.025000 0.020768 0.011559
-0.025000 0.015828 0.026495
-0.040709 -0.008791 -0.014981
-0.047987 -0.012322 -0.006749
-0.042595 -0.011346 0.000000
-0.047987 -0.012322 0.006749
-0.040709 -0.008791 0.014981
-0.037477 -0.004651 -0.012204
-0.043362 -0.006143 -0.006117
-0.037607 -0.005794 0.000000
-0.043362 -0.006143 0.006117
-0.037477 -0.004651 0.012204
-0.041340 0.000000 -0.014209
-0.048195 0.000000 -0.006490
-0.042964 0.000000 -0.000000
-0.048195 -0.000000 0.006490
-0.041340 -0.000000 0.014209
-0.037477 0.004651 -0.012204
-0.043362 0.006143 -0.006117
-0.037607 0.005794 -0.000000
-0.043362 0.006143 0.006117
-0.037477 0.004651 0.012204
-0.040709 0.008791 -0.014981
-0.047987 0.012322 -0.006749
-0.042595 0.011346 -0.000000
-0.047987 0.012322 0.006749
-0.040709 0.008791 0.014981
-0.050000 0.000000 0.000000
-0.050000 0.000000 0.000000
-0.050000 0.000000 0.000000
-0.050000 0.000000 0.000000
-0.050000 0.000000 0.000000
-0.050000 0.000000 0.000000
-0.050000 0.000000 0.000000
-0.050000 0.000000 0.000000
-0.050000 0.000000 0.000000
-0.050000 0.000000 0.000000
-0.050000 0.000000 0.000000
-0.050000 0.000000 0.000000
-0.050000 0.000000 0.000000
-0.050000 0.000000 0.000000
-0.050000 0.000000 0.000000
-0.050000 0.000000 0.000000
-0.050000 0.000000 0.000000
-0.050000 0.000000 0.000000
-0.050000 0.000000 0.000000
-0.050000 0.000000 0.000000
-0.050000 0.000000 0.000000
-0.050000 0.000000 0.000000
-0.050000 0.000000 0.000000
-0.050000 0.000000 0.000000
-0.050000 0.000000 0.000000

FIELD FieldData 1
pressure 1 125 float
-1.51582e-13 0 -1.51582e-13 0 0 1.10529e-13 -4.73695e-14 -1.29477e-13 -1.23161e-13 
-1.42109e-13 1.51582e-13 0 1.51582e-13 0 -1.51582e-13 1.05002e-13 1.18424e-14 
1.93426e-14 -1.23161e-13 -1.16845e-13 1.51582e-13 0 1.51582e-13 0 1.51582e-13 
-2.46321e-13 1.13687e-13 -2.08426e-13 -3.78956e-14 -1.7053e-13 -6.00014e-14 2.96059e-14 -6.27646e-14 
-3.78956e-14 1.57898e-14 1.89478e-13 5.68434e-14 6.63173e-14 7.57912e-14 1.89478e-13 2.13163e-14 
-9.4739e-15 3.35534e-14 1.89478e-14 1.26319e-14 0 0 -7.57912e-14 0 
-1.51582e-13 7.57912e-14 1.20003e-13 3.78956e-14 -7.42122e-14 0 3.41061e-13 -4.26326e-14 
-9.4739e-14 -1.37372e-13 -2.27374e-13 2.27374e-13 1.93426e-14 -3.78956e-14 -1.94215e-13 -1.89478e-13 
3.78956e-14 5.92119e-15 5.68434e-14 -1.37372e-13 -7.57912e-14 0 -4.42115e-14 2.27374e-13 
7.73702e-14 1.51582e-13 3.03165e-13 3.78956e-13 1.89478e-13 -7.57912e-14 -1.51582e-13 1.51582e-13 
-3.78956e-14 3.15797e-14 1.26218e-29 -1.64214e-13 3.78956e-14 -2.65269e-13 -7.57912e-14 1.89327e-29 
7.57912e-14 -1.01055e-13 -3.03165e-13 -6.31594e-15 -2.65269e-13 -8.84231e-14 2.27374e-13 -2.27374e-13 
-7.57912e-14 -1.51582e-13 -1.51582e-13 -2.27374e-13 1.77636e-14 -2.27374e-13 -1.05792e-13 0 
-7.57912e-14 -1.03621e-13 -7.57912e-14 -4.26326e-14 3.78956e-14 1.89478e-13 -7.6186e-14 -3.78956e-14 
1.25529e-13 2.27374e-13 3.78956e-14 -9.4739e-15 2.08426e-13 -1.89478e-14 -7.57912e-14 1.51582e-13 
3.39482e-14 7.57912e-14 -9.15811e-14 -7.57912e-14 
CELL_DATA 384
TENSORS stress float
-5745.33 -4769.86 -2709.64
-4769.86 5609.88 280.044
-2709.64 280.044 135.454

-1188.61 -5458.14 -2989.69
-5458.14 594.305 0
-2989.69 0 594.305

-1188.61 -5458.14 -2989.69
-5458.14 594.305 0
-2989.69 0 594.305

-7918.24 -3894.17 -3411.47
-3894.17 313.115 -1563.97
-3411.47 -1563.97 7605.13

-11049.6 -3491.85 -2181.77
-3491.85 3712.69 -334.27
-2181.77 -334.27 7336.91

-11018.7 -4109.21 -2799.14
-4109.21 5550.21 -380.605
-2799.14 -380.605 5468.5

-13896.8 -3116.99 -1875.99
-3116.99 6585.27 -292.921
-1875.99 -292.921 7311.52

-11022 -3099.57 -1834.64
-3099.57 3698.9 -334.27
-1834.64 -334.27 7323.13

-10991.1 -3716.94 -2452
-3716.94 5536.43 -380.605
-2452 -380.605 5454.72

-16175 -3923.88 -2496.74
-3923.88 5566.25 -587.543
-2496.74 -587.543 10608.8

-20151.1 -3741.18 -2130.35
-3741.18 9420.53 -953.926
-2130.35 -953.926 10730.6

-20175.7 -3741.18 -2130.35
-3741.18 6754.85 -917.113
-2130.35 -917.113 13420.8

-16175 3923.88 2496.74
3923.88 5566.25 -587.543
2496.74 -587.543 10608.8

-20151.1 3741.18 2130.35
3741.18 9420.53 -953.926
2130.35 -953.926 10730.6

-20175.7 3741.18 2130.35
3741.18 6754.85 -917.113
2130.35 -917.113 13420.8

-13896.8 3116.99 1875.99
3116.99 6585.27 -292.921
1875.99 -292.921 7311.52

-11022 3099.57 1834.64
3099.57 3698.9 -334.27
1834.64 -334.27 7323.13

-10991.1 3716.94 2452
3716.94 5536.43 -380.605
2452 -380.605 5454.72

-7918.24 3894.17 3411.47
3894.17 313.115 -1563.97
3411.47 -1563.97 7605.13

-11049.6 3491.85 2181.77
3491.85 3712.69 -334.27
2181.77 -334.27 7336.91

-11018.7 4109.21 2799.14
4109.21 5550.21 -380.605
2799.14 -380.605 5468.5

-5745.33 4769.86 2709.64
4769.86 5609.88 280.044
2709.64 280.044 135.454

-1188.61 5458.14 2989.69
5458.14 594.305 0
2989.69 0 594.305

-1188.61 5458.14 2989.69
5458.14 594.305 0
2989.69 0 594.305

-7394.2 1.84416e-11 -3257.28
1.84416e-11 278.108 -6.14721e-12
-3257.28 -6.14721e-12 7116.09

-1066.04 1.22944e-11 -2874.91
1.22944e-11 533.02 0
-2874.91 0 533.02

-1066.04 1.22944e-11 -2874.91
1.22944e-11 533.02 0
-2874.91 0 533.02

-5734.47 -580.065 -2709.64
-580.065 5588.16 -165.266
-2709.64 -165.266 146.31

-11007.9 80.5841 -2799.14
80.5841 5528.5 -825.915
-2799.14 -825.915 5479.35

-11049.2 -349.184 -2369.37
-349.184 4165.87 -887.906
-2369.37 -887.906 6883.3

-16164.2 265.922 -2496.74
265.922 5544.54 -1032.85
-2496.74 -1032.85 10619.6

-10980.3 472.86 -2452
472.86 5514.72 -825.915
-2452 -825.915 5465.57

-11021.6 43.0913 -2022.24
43.0913 4152.09 -887.906
-2022.24 -887.906 6869.52

-14415.1 2.45888e-11 -1865.65
2.45888e-11 7516.82 -731.325
-1865.65 -731.325 6898.25

-20333.9 2.45888e-11 -2097.22
2.45888e-11 7671.2 -731.325
-2097.22 -731.325 12662.7

-20268.6 4.91777e-11 -2097.22
4.91777e-11 9471.7 -633.341
-2097.22 -633.341 10796.9

-14415.1 1.84416e-11 1865.65
1.84416e-11 7516.82 -731.325
1865.65 -731.325 6898.25

-20333.9 2.21299e-11 2097.22
2.21299e-11 7671.2 -731.325
2097.22 -731.325 12662.7

-20268.6 5.16365e-11 2097.22
5.16365e-11 9471.7 -633.341
2097.22 -633.341 10796.9

-16164.2 -265.922 2496.74
-265.922 5544.54 -1032.85
2496.74 -1032.85 10619.6

-10980.3 -472.86 2452
-472.86 5514.72 -825.915
2452 -825.915 5465.57

-11021.6 -43.0913 2022.24
-43.0913 4152.09 -887.906
2022.24 -887.906 6869.52

-5734.47 580.065 2709.64
580.065 5588.16 -165.266
2709.64 -165.266 146.31

-11007.9 -80.5841 2799.14
-80.5841 5528.5 -825.915
2799.14 -825.915 5479.35

-11049.2 349.184 2369.37
349.184 4165.87 -887.906
2369.37 -887.906 6883.3

-7394.2 -3.68832e-11 3257.28
-3.68832e-11 278.108 0
3257.28 0 7116.09

-1066.04 -3.68832e-11 2874.91
-3.68832e-11 533.02 0
2874.91 0 533.02

-1066.04 -3.68832e-11 2874.91
-3.68832e-11 533.02 0
2874.91 0 533.02

-5734.47 580.065 -2709.64
580.065 5588.16 165.266
-2709.64 165.266 146.31

-1066.04 1.22944e-11 -2874.91
1.22944e-11 533.02 0
-2874.91 0 533.02

-1066.04 1.22944e-11 -2874.91
1.22944e-11 533.02 0
-2874.91 0 533.02

-7394.2 1.84416e-11 -3257.28
1.84416e-11 278.108 -6.14721e-12
-3257.28 -6.14721e-12 7116.09

-11049.2 349.184 -2369.37
349.184 4165.87 887.906
-2369.37 887.906 6883.3

-11007.9 -80.5841 -2799.14
-80.5841 5528.5 825.915
-2799.14 825.915 5479.35

-14415.1 3.68832e-11 -1865.65
3.68832e-11 7516.82 731.325
-1865.65 731.325 6898.25

-11021.6 -43.0913 -2022.24
-43.0913 4152.09 887.906
-2022.24 887.906 6869.52

-10980.3 -472.86 -2452
-472.86 5514.72 825.915
-2452 825.915 5465.57

-16164.2 -265.922 -2496.74
-265.922 5544.54 1032.85
-2496.74 1032.85 10619.6

-20268.6 2.45888e-11 -2097.22
2.45888e-11 9471.7 633.341
-2097.22 633.341 10796.9

-20333.9 3.68832e-11 -2097.22
3.68832e-11 7671.2 731.325
-2097.22 731.325 12662.7

-16164.2 265.922 2496.74
265.922 5544.54 1032.85
2496.74 1032.85 10619.6

-20268.6 2.70477e-11 2097.22
2.70477e-11 9471.7 633.341
2097.22 633.341 10796.9

-20333.9 3.68832e-11 2097.22
3.68832e-11 7671.2 731.325
2097.22 731.325 12662.7

-14415.1 3.0736e-11 1865.65
3.0736e-11 7516.82 731.325
1865.65 731.325 6898.25

-11021.6 43.0913 2022.24
43.0913 4152.09 887.906
2022.24 887.906 6869.52

-10980.3 472.86 2452
472.86 5514.72 825.915
2452 825.915 5465.57

-7394.2 -3.68832e-11 3257.28
-3.68832e-11 278.108 0
3257.28 0 7116.09

-11049.2 -349.184 2369.37
-349.184 4165.87 887.906
2369.37 887.906 6883.3

-11007.9 80.5841 2799.14
80.5841 5528.5 825.915
2799.14 825.915 5479.35

-5734.47 -580.065 2709.64
-580.065 5588.16 165.266
2709.64 165.266 146.31

-1066.04 -3.68832e-11 2874.91
-3.68832e-11 533.02 0
2874.91 0 533.02

-1066.04 -3.68832e-11 2874.91
-3.68832e-11 533.02 0
2874.91 0 533.02

-7918.24 3894.17 -3411.47
3894.17 313.115 1563.97
-3411.47 1563.97 7605.13

-1188.61 5458.14 -2989.69
5458.14 594.305 0
-2989.69 0 594.305

-1188.61 5458.14 -2989.69
5458.14 594.305 0
-2989.69 0 594.305

-5745.33 4769.86 -2709.64
4769.86 5609.88 -280.044
-2709.64 -280.044 135.454

-11018.7 4109.21 -2799.14
4109.21 5550.21 380.605
-2799.14 380.605 5468.5

-11049.6 3491.85 -2181.77
3491.85 3712.69 334.27
-2181.77 334.27 7336.91

-16175 3923.88 -2496.74
3923.88 5566.25 587.543
-2496.74 587.543 10608.8

-10991.1 3716.94 -2452
3716.94 5536.43 380.605
-2452 380.605 5454.72

-11022 3099.57 -1834.64
3099.57 3698.9 334.27
-1834.64 334.27 7323.13

-13896.8 3116.99 -1875.99
3116.99 6585.27 292.921
-1875.99 292.921 7311.52

-20175.7 3741.18 -2130.35
3741.18 6754.85 917.113
-2130.35 917.113 13420.8

-20151.1 3741.18 -2130.35
3741.18 9420.53 953.926
-2130.35 953.926 10730.6

-13896.8 -3116.99 1875.99
-3116.99 6585.27 292.921
1875.99 292.921 7311.52

-20175.7 -3741.18 2130.35
-3741.18 6754.85 917.113
2130.35 917.113 13420.8

-20151.1 -3741.18 2130.35
-3741.18 9420.53 953.926
2130.35 953.926 10730.6

-16175 -3923.88 2496.74
-3923.88 5566.25 587.543
2496.74 587.543 10608.8

-10991.1 -3716.94 2452
-3716.94 5536.43 380.605
2452 380.605 5454.72

-11022 -3099.57 1834.64
-3099.57 3698.9 334.27
1834.64 334.27 7323.13

-5745.33 -4769.86 2709.64
-4769.86 5609.88 -280.044
2709.64 -280.044 135.454

-11018.7 -4109.21 2799.14
-4109.21 5550.21 380.605
2799.14 380.605 5468.5

-11049.6 -3491.85 2181.77
-3491.85 3712.69 334.27
2181.77 334.27 7336.91

-7918.24 -3894.17 3411.47
-3894.17 313.115 1563.97
3411.47 1563.97 7605.13

-1188.61 -5458.14 2989.69
-5458.14 594.305 0
2989.69 0 594.305

-1188.61 -5458.14 2989.69
-5458.14 594.305 0
2989.69 0 594.305

-6366.44 -5025.87 -2388.53
-5025.87 193.534 432.269
-2388.53 432.269 6172.91

-1188.61 -5458.14 -2989.69
-5458.14 594.305 0
-2989.69 0 594.305

-1188.61 -5458.14 -2989.69
-5458.14 594.305 0
-2989.69 0 594.305

-5745.33 -4769.86 -2709.64
-4769.86 5609.88 280.044
-2709.64 280.044 135.454

-10950.5 -4615.54 -2549.07
-4615.54 5502.83 434.363
-2549.07 434.363 5447.69

-10951.9 -4776.08 -2388.53
-4776.08 4945.53 432.269
-2388.53 432.269 6006.38

-16140.3 -3923.88 -2496.74
-3923.88 5600.98 29.0859
-2496.74 29.0859 10539.3

-11077.1 -4329.15 -2549.07
-4329.15 5566.1 434.363
-2549.07 434.363 5510.96

-11078.5 -4489.69 -2388.53
-4489.69 5008.8 432.269
-2388.53 432.269 6069.65

-15513 -4513.16 -2388.53
-4513.16 9459.04 432.269
-2388.53 432.269 6054.01

-20118 -3741.18 -2130.35
-3741.18 9631.16 -339.709
-2130.35 -339.709 10486.8

-20116.4 -3741.18 -2130.35
-3741.18 9455.26 -337.298
-2130.35 -337.298 10661.1

-15513 4513.16 2388.53
4513.16 9459.04 432.269
2388.53 432.269 6054.01

-20118 3741.18 2130.35
3741.18 9631.16 -339.709
2130.35 -339.709 10486.8

-20116.4 3741.18 2130.35
3741.18 9455.26 -337.298
2130.35 -337.298 10661.1

-16140.3 3923.88 2496.74
3923.88 5600.98 29.0859
2496.74 29.0859 10539.3

-11077.1 4329.15 2549.07
4329.15 5566.1 434.363
2549.07 434.363 5510.96

-11078.5 4489.69 2388.53
4489.69 5008.8 432.269
2388.53 432.269 6069.65

-5745.33 4769.86 2709.64
4769.86 5609.88 280.044
2709.64 280.044 135.454

-10950.5 4615.54 2549.07
4615.54 5502.83 434.363
2549.07 434.363 5447.69

-10951.9 4776.08 2388.53
4776.08 4945.53 432.269
2388.53 432.269 6006.38

-6366.44 5025.87 2388.53
5025.87 193.534 432.269
2388.53 432.269 6172.91

-1188.61 5458.14 2989.69
5458.14 594.305 0
2989.69 0 594.305

-1188.61 5458.14 2989.69
5458.14 594.305 0
2989.69 0 594.305

-5734.47 -580.065 -2709.64
-580.065 5588.16 -165.266
-2709.64 -165.266 146.31

-1066.04 1.22944e-11 -2874.91
1.22944e-11 533.02 0
-2874.91 0 533.02

-1066.04 1.22944e-11 -2874.91
1.22944e-11 533.02 0
-2874.91 0 533.02

-6072.17 7.37665e-12 -2317.14
7.37665e-12 161.177 -4.91777e-12
-2317.14 -4.91777e-12 5910.99

-10947 -193.823 -2317.14
-193.823 5165.18 -1.1065e-11
-2317.14 -1.1065e-11 5781.78

-10939.7 -425.747 -2549.07
-425.747 5481.11 -10.9478
-2549.07 -10.9478 5458.55

-15757.4 7.37665e-12 -2317.14
7.37665e-12 9850.6 -2.58183e-11
-2317.14 -2.58183e-11 5906.76

-11073.5 92.568 -2317.14
92.568 5228.45 -1.1065e-11
-2317.14 -1.1065e-11 5845.05

-11066.2 -139.355 -2549.07
-139.355 5544.38 -10.9478
-2549.07 -10.9478 5521.82

-16129.4 265.922 -2496.74
265.922 5579.27 -416.225
-2496.74 -416.225 10550.2

-20233.9 4.67188e-11 -2097.22
4.67188e-11 9506.43 -16.7124
-2097.22 -16.7124 10727.5

-20245 1.84416e-11 -2097.22
1.84416e-11 9997.21 -3.81127e-11
-2097.22 -3.81127e-11 10247.8

-16129.4 -265.922 2496.74
-265.922 5579.27 -416.225
2496.74 -416.225 10550.2

-20233.9 5.16365e-11 2097.22
5.16365e-11 9506.43 -16.7124
2097.22 -16.7124 10727.5

-20245 1.84416e-11 2097.22
1.84416e-11 9997.21 -3.68832e-11
2097.22 -3.68832e-11 10247.8

-15757.4 6.14721e-12 2317.14
6.14721e-12 9850.6 -5.2866e-11
2317.14 -5.2866e-11 5906.76

-11073.5 -92.568 2317.14
-92.568 5228.45 -5.2866e-11
2317.14 -5.2866e-11 5845.05

-11066.2 139.355 2549.07
139.355 5544.38 -10.9478
2549.07 -10.9478 5521.82

-6072.17 -6.14721e-12 2317.14
-6.14721e-12 161.177 -3.0736e-11
2317.14 -3.0736e-11 5910.99

-10947 193.823 2317.14
193.823 5165.18 -5.04071e-11
2317.14 -5.04071e-11 5781.78

-10939.7 425.747 2549.07
425.747 5481.11 -10.9478
2549.07 -10.9478 5458.55

-5734.47 580.065 2709.64
580.065 5588.16 -165.266
2709.64 -165.266 146.31

-1066.04 -3.68832e-11 2874.91
-3.68832e-11 533.02 0
2874.91 0 533.02

-1066.04 -3.68832e-11 2874.91
-3.68832e-11 533.02 0
2874.91 0 533.02

-6072.17 7.37665e-12 -2317.14
7.37665e-12 161.177 -4.91777e-12
-2317.14 -4.91777e-12 5910.99

-1066.04 1.22944e-11 -2874.91
1.22944e-11 533.02 0
-2874.91 0 533.02

-1066.04 1.22944e-11 -2874.91
1.22944e-11 533.02 0
-2874.91 0 533.02

-5734.47 580.065 -2709.64
580.065 5588.16 165.266
-2709.64 165.266 146.31

-10939.7 425.747 -2549.07
425.747 5481.11 10.9478
-2549.07 10.9478 5458.55

-10947 193.823 -2317.14
193.823 5165.18 -4.91777e-12
-2317.14 -4.91777e-12 5781.78

-16129.4 -265.922 -2496.74
-265.922 5579.27 416.225
-2496.74 416.225 10550.2

-11066.2 139.355 -2549.07
139.355 5544.38 10.9478
-2549.07 10.9478 5521.82

-11073.5 -92.568 -2317.14
-92.568 5228.45 -6.14721e-12
-2317.14 -6.14721e-12 5845.05

-15757.4 -7.37665e-12 -2317.14
-7.37665e-12 9850.6 -2.58183e-11
-2317.14 -2.58183e-11 5906.76

-20245 4.91777e-12 -2097.22
4.91777e-12 9997.21 -3.81127e-11
-2097.22 -3.81127e-11 10247.8

-20233.9 2.45888e-11 -2097.22
2.45888e-11 9506.43 16.7124
-2097.22 16.7124 10727.5

-15757.4 -6.14721e-12 2317.14
-6.14721e-12 9850.6 -4.79482e-11
2317.14 -4.79482e-11 5906.76

-20245 3.68832e-12 2097.22
3.68832e-12 9997.21 -3.81127e-11
2097.22 -3.81127e-11 10247.8

-20233.9 2.21299e-11 2097.22
2.21299e-11 9506.43 16.7124
2097.22 16.7124 10727.5

-16129.4 265.922 2496.74
265.922 5579.27 416.225
2496.74 416.225 10550.2

-11066.2 -139.355 2549.07
-139.355 5544.38 10.9478
2549.07 10.9478 5521.82

-11073.5 92.568 2317.14
92.568 5228.45 -6.63898e-11
2317.14 -6.63898e-11 5845.05

-5734.47 -580.065 2709.64
-580.065 5588.16 165.266
2709.64 165.266 146.31

-10939.7 -425.747 2549.07
-425.747 5481.11 10.9478
2549.07 10.9478 5458.55

-10947 -193.823 2317.14
-193.823 5165.18 -6.76193e-11
2317.14 -6.76193e-11 5781.78

-6072.17 -6.14721e-12 2317.14
-6.14721e-12 161.177 -3.0736e-11
2317.14 -3.0736e-11 5910.99

-1066.04 -3.68832e-11 2874.91
-3.68832e-11 533.02 0
2874.91 0 533.02

-1066.04 -3.68832e-11 2874.91
-3.68832e-11 533.02 0
2874.91 0 533.02

-5745.33 4769.86 -2709.64
4769.86 5609.88 -280.044
-2709.64 -280.044 135.454

-1188.61 5458.14 -2989.69
5458.14 594.305 0
-2989.69 0 594.305

-1188.61 5458.14 -2989.69
5458.14 594.305 0
-2989.69 0 594.305

-6366.44 5025.87 -2388.53
5025.87 193.534 -432.269
-2388.53 -432.269 6172.91

-10951.9 4776.08 -2388.53
4776.08 4945.53 -432.269
-2388.53 -432.269 6006.38

-10950.5 4615.54 -2549.07
4615.54 5502.83 -434.363
-2549.07 -434.363 5447.69

-15513 4513.16 -2388.53
4513.16 9459.04 -432.269
-2388.53 -432.269 6054.01

-11078.5 4489.69 -2388.53
4489.69 5008.8 -432.269
-2388.53 -432.269 6069.65

-11077.1 4329.15 -2549.07
4329.15 5566.1 -434.363
-2549.07 -434.363 5510.96

-16140.3 3923.88 -2496.74
3923.88 5600.98 -29.0859
-2496.74 -29.0859 10539.3

-20116.4 3741.18 -2130.35
3741.18 9455.26 337.298
-2130.35 337.298 10661.1

-20118 3741.18 -2130.35
3741.18 9631.16 339.709
-2130.35 339.709 10486.8

-16140.3 -3923.88 2496.74
-3923.88 5600.98 -29.0859
2496.74 -29.0859 10539.3

-20116.4 -3741.18 2130.35
-3741.18 9455.26 337.298
2130.35 337.298 10661.1

-20118 -3741.18 2130.35
-3741.18 9631.16 339.709
2130.35 339.709 10486.8

-15513 -4513.16 2388.53
-4513.16 9459.04 -432.269
2388.53 -432.269 6054.01

-11078.5 -4489.69 2388.53
-4489.69 5008.8 -432.269
2388.53 -432.269 6069.65

-11077.1 -4329.15 2549.07
-4329.15 5566.1 -434.363
2549.07 -434.363 5510.96

-6366.44 -5025.87 2388.53
-5025.87 193.534 -432.269
2388.53 -432.269 6172.91

-10951.9 -4776.08 2388.53
-4776.08 4945.53 -432.269
2388.53 -432.269 6006.38

-10950.5 -4615.54 2549.07
-4615.54 5502.83 -434.363
2549.07 -434.363 5447.69

-5745.33 -4769.86 2709.64
-4769.86 5609.88 -280.044
2709.64 -280.044 135.454

-1188.61 -5458.14 2989.69
-5458.14 594.305 0
2989.69 0 594.305

-1188.61 -5458.14 2989.69
-5458.14 594.305 0
2989.69 0 594.305

-5745.33 -4769.86 2709.64
-4769.86 5609.88 -280.044
2709.64 -280.044 135.454

-1188.61 -5458.14 2989.69
-5458.14 594.305 0
2989.69 0 594.305

-1188.61 -5458.14 2989.69
-5458.14 594.305 0
2989.69 0 594.305

-6366.44 -5025.87 2388.53
-5025.87 193.534 -432.269
2388.53 -432.269 6172.91

-10951.9 -4776.08 2388.53
-4776.08 4945.53 -432.269
2388.53 -432.269 6006.38

-10950.5 -4615.54 2549.07
-4615.54 5502.83 -434.363
2549.07 -434.363 5447.69

-15513 -4513.16 2388.53
-4513.16 9459.04 -432.269
2388.53 -432.269 6054.01

-11078.5 -4489.69 2388.53
-4489.69 5008.8 -432.269
2388.53 -432.269 6069.65

-11077.1 -4329.15 2549.07
-4329.15 5566.1 -434.363
2549.07 -434.363 5510.96

-16140.3 -3923.88 2496.74
-3923.88 5600.98 -29.0859
2496.74 -29.0859 10539.3

-20116.4 -3741.18 2130.35
-3741.18 9455.26 337.298
2130.35 337.298 10661.1

-20118 -3741.18 2130.35
-3741.18 9631.16 339.709
2130.35 339.709 10486.8

-16140.3 3923.88 -2496.74
3923.88 5600.98 -29.0859
-2496.74 -29.0859 10539.3

-20116.4 3741.18 -2130.35
3741.18 9455.26 337.298
-2130.35 337.298 10661.1

-20118 3741.18 -2130.35
3741.18 9631.16 339.709
-2130.35 339.709 10486.8

-15513 4513.16 -2388.53
4513.16 9459.04 -432.269
-2388.53 -432.269 6054.01

-11078.5 4489.69 -2388.53
4489.69 5008.8 -432.269
-2388.53 -432.269 6069.65

-11077.1 4329.15 -2549.07
4329.15 5566.1 -434.363
-2549.07 -434.363 5510.96

-6366.44 5025.87 -2388.53
5025.87 193.534 -432.269
-2388.53 -432.269 6172.91

-10951.9 4776.08 -2388.53
4776.08 4945.53 -432.269
-2388.53 -432.269 6006.38

-10950.5 4615.54 -2549.07
4615.54 5502.83 -434.363
-2549.07 -434.363 5447.69

-5745.33 4769.86 -2709.64
4769.86 5609.88 -280.044
-2709.64 -280.044 135.454

-1188.61 5458.14 -2989.69
5458.14 594.305 0
-2989.69 0 594.305

-1188.61 5458.14 -2989.69
5458.14 594.305 0
-2989.69 0 594.305

-6072.17 6.14721e-12 2317.14
6.14721e-12 161.177 -1.84416e-11
2317.14 -1.84416e-11 5910.99

-1066.04 -1.22944e-11 2874.91
-1.22944e-11 533.02 0
2874.91 0 533.02

-1066.04 -1.22944e-11 2874.91
-1.22944e-11 533.02 0
2874.91 0 533.02

-5734.47 -580.065 2709.64
-580.065 5588.16 165.266
2709.64 165.266 146.31

-10939.7 -425.747 2549.07
-425.747 5481.11 10.9478
2549.07 10.9478 5458.55

-10947 -193.823 2317.14
-193.823 5165.18 -2.58183e-11
2317.14 -2.58183e-11 5781.78

-16129.4 265.922 2496.74
265.922 5579.27 416.225
2496.74 416.225 10550.2

-11066.2 -139.355 2549.07
-139.355 5544.38 10.9478
2549.07 10.9478 5521.82

-11073.5 92.568 2317.14
92.568 5228.45 -2.45888e-11
2317.14 -2.45888e-11 5845.05

-15757.4 4.91777e-12 2317.14
4.91777e-12 9850.6 -3.68832e-11
2317.14 -3.68832e-11 5906.76

-20245 -6.14721e-12 2097.22
-6.14721e-12 9997.21 -4.91777e-11
2097.22 -4.91777e-11 10247.8

-20233.9 -3.68832e-11 2097.22
-3.68832e-11 9506.43 16.7124
2097.22 16.7124 10727.5

-15757.4 6.14721e-12 -2317.14
6.14721e-12 9850.6 -3.0736e-11
-2317.14 -3.0736e-11 5906.76

-20245 2.58183e-11 -2097.22
2.58183e-11 9997.21 -4.79482e-11
-2097.22 -4.79482e-11 10247.8

-20233.9 -4.91777e-12 -2097.22
-4.91777e-12 9506.43 16.7124
-2097.22 16.7124 10727.5

-16129.4 -265.922 -2496.74
-265.922 5579.27 416.225
-2496.74 416.225 10550.2

-11066.2 139.355 -2549.07
139.355 5544.38 10.9478
-2549.07 10.9478 5521.82

-11073.5 -92.568 -2317.14
-92.568 5228.45 -2.82772e-11
-2317.14 -2.82772e-11 5845.05

-5734.47 580.065 -2709.64
580.065 5588.16 165.266
-2709.64 165.266 146.31

-10939.7 425.747 -2549.07
425.747 5481.11 10.9478
-2549.07 10.9478 5458.55

-10947 193.823 -2317.14
193.823 5165.18 -3.0736e-11
-2317.14 -3.0736e-11 5781.78

-6072.17 -6.14721e-12 -2317.14
-6.14721e-12 161.177 -1.22944e-11
-2317.14 -1.22944e-11 5910.99

-1066.04 6.14721e-12 -2874.91
6.14721e-12 533.02 0
-2874.91 0 533.02

-1066.04 6.14721e-12 -2874.91
6.14721e-12 533.02 0
-2874.91 0 533.02

-5734.47 580.065 2709.64
580.065 5588.16 -165.266
2709.64 -165.266 146.31

-1066.04 -1.22944e-11 2874.91
-1.22944e-11 533.02 0
2874.91 0 533.02

-1066.04 -1.22944e-11 2874.91
-1.22944e-11 533.02 0
2874.91 0 533.02

-6072.17 6.14721e-12 2317.14
6.14721e-12 161.177 -1.84416e-11
2317.14 -1.84416e-11 5910.99

-10947 193.823 2317.14
193.823 5165.18 -1.84416e-11
2317.14 -1.84416e-11 5781.78

-10939.7 425.747 2549.07
425.747 5481.11 -10.9478
2549.07 -10.9478 5458.55

-15757.4 -7.37665e-12 2317.14
-7.37665e-12 9850.6 -3.31949e-11
2317.14 -3.31949e-11 5906.76

-11073.5 -92.568 2317.14
-92.568 5228.45 -1.84416e-11
2317.14 -1.84416e-11 5845.05

-11066.2 139.355 2549.07
139.355 5544.38 -10.9478
2549.07 -10.9478 5521.82

-16129.4 -265.922 2496.74
-265.922 5579.27 -416.225
2496.74 -416.225 10550.2

-20233.9 -4.91777e-12 2097.22
-4.91777e-12 9506.43 -16.7124
2097.22 -16.7124 10727.5

-20245 -1.96711e-11 2097.22
-1.96711e-11 9997.21 -4.54893e-11
2097.22 -4.54893e-11 10247.8

-16129.4 265.922 -2496.74
265.922 5579.27 -416.225
-2496.74 -416.225 10550.2

-20233.9 2.09005e-11 -2097.22
2.09005e-11 9506.43 -16.7124
-2097.22 -16.7124 10727.5

-20245 1.22944e-11 -2097.22
1.22944e-11 9997.21 -4.91777e-11
-2097.22 -4.91777e-11 10247.8

-15757.4 -6.14721e-12 -2317.14
-6.14721e-12 9850.6 -3.0736e-11
-2317.14 -3.0736e-11 5906.76

-11073.5 92.568 -2317.14
92.568 5228.45 -4.91777e-11
-2317.14 -4.91777e-11 5845.05

-11066.2 -139.355 -2549.07
-139.355 5544.38 -10.9478
-2549.07 -10.9478 5521.82

-6072.17 -6.14721e-12 -2317.14
-6.14721e-12 161.177 -1.22944e-11
-2317.14 -1.22944e-11 5910.99

-10947 -193.823 -2317.14
-193.823 5165.18 -5.16365e-11
-2317.14 -5.16365e-11 5781.78

-10939.7 -425.747 -2549.07
-425.747 5481.11 -10.9478
-2549.07 -10.9478 5458.55

-5734.47 -580.065 -2709.64
-580.065 5588.16 -165.266
-2709.64 -165.266 146.31

-1066.04 6.14721e-12 -2874.91
6.14721e-12 533.02 0
-2874.91 0 533.02

-1066.04 6.14721e-12 -2874.91
6.14721e-12 533.02 0
-2874.91 0 533.02

-6366.44 5025.87 2388.53
5025.87 193.534 432.269
2388.53 432.269 6172.91

-1188.61 5458.14 2989.69
5458.14 594.305 0
2989.69 0 594.305

-1188.61 5458.14 2989.69
5458.14 594.305 0
2989.69 0 594.305

-5745.33 4769.86 2709.64
4769.86 5609.88 280.044
2709.64 280.044 135.454

-10950.5 4615.54 2549.07
4615.54 5502.83 434.363
2549.07 434.363 5447.69

-10951.9 4776.08 2388.53
4776.08 4945.53 432.269
2388.53 432.269 6006.38

-16140.3 3923.88 2496.74
3923.88 5600.98 29.0859
2496.74 29.0859 10539.3

-11077.1 4329.15 2549.07
4329.15 5566.1 434.363
2549.07 434.363 5510.96

-11078.5 4489.69 2388.53
4489.69 5008.8 432.269
2388.53 432.269 6069.65

-15513 4513.16 2388.53
4513.16 9459.04 432.269
2388.53 432.269 6054.01

-20118 3741.18 2130.35
3741.18 9631.16 -339.709
2130.35 -339.709 10486.8

-20116.4 3741.18 2130.35
3741.18 9455.26 -337.298
2130.35 -337.298 10661.1

-15513 -4513.16 -2388.53
-4513.16 9459.04 432.269
-2388.53 432.269 6054.01

-20118 -3741.18 -2130.35
-3741.18 9631.16 -339.709
-2130.35 -339.709 10486.8

-20116.4 -3741.18 -2130.35
-3741.18 9455.26 -337.298
-2130.35 -337.298 10661.1

-16140.3 -3923.88 -2496.74
-3923.88 5600.98 29.0859
-2496.74 29.0859 10539.3

-11077.1 -4329.15 -2549.07
-4329.15 5566.1 434.363
-2549.07 434.363 5510.96

-11078.5 -4489.69 -2388.53
-4489.69 5008.8 432.269
-2388.53 432.269 6069.65

-5745.33 -4769.86 -2709.64
-4769.86 5609.88 280.044
-2709.64 280.044 135.454

-10950.5 -4615.54 -2549.07
-4615.54 5502.83 434.363
-2549.07 434.363 5447.69

-10951.9 -4776.08 -2388.53
-4776.08 4945.53 432.269
-2388.53 432.269 6006.38

-6366.44 -5025.87 -2388.53
-5025.87 193.534 432.269
-2388.53 432.269 6172.91

-1188.61 -5458.14 -2989.69
-5458.14 594.305 0
-2989.69 0 594.305

-1188.61 -5458.14 -2989.69
-5458.14 594.305 0
-2989.69 0 594.305

-7918.24 -3894.17 3411.47
-3894.17 313.115 1563.97
3411.47 1563.97 7605.13

-1188.61 -5458.14 2989.69
-5458.14 594.305 0
2989.69 0 594.305

-1188.61 -5458.14 2989.69
-5458.14 594.305 0
2989.69 0 594.305

-5745.33 -4769.86 2709.64
-4769.86 5609.88 -280.044
2709.64 -280.044 135.454

-11018.7 -4109.21 2799.14
-4109.21 5550.21 380.605
2799.14 380.605 5468.5

-11049.6 -3491.85 2181.77
-3491.85 3712.69 334.27
2181.77 334.27 7336.91

-16175 -3923.88 2496.74
-3923.88 5566.25 587.543
2496.74 587.543 10608.8

-10991.1 -3716.94 2452
-3716.94 5536.43 380.605
2452 380.605 5454.72

-11022 -3099.57 1834.64
-3099.57 3698.9 334.27
1834.64 334.27 7323.13

-13896.8 -3116.99 1875.99
-3116.99 6585.27 292.921
1875.99 292.921 7311.52

-20175.7 -3741.18 2130.35
-3741.18 6754.85 917.113
2130.35 917.113 13420.8

-20151.1 -3741.18 2130.35
-3741.18 9420.53 953.926
2130.35 953.926 10730.6

-13896.8 3116.99 -1875.99
3116.99 6585.27 292.921
-1875.99 292.921 7311.52

-20175.7 3741.18 -2130.35
3741.18 6754.85 917.113
-2130.35 917.113 13420.8

-20151.1 3741.18 -2130.35
3741.18 9420.53 953.926
-2130.35 953.926 10730.6

-16175 3923.88 -2496.74
3923.88 5566.25 587.543
-2496.74 587.543 10608.8

-10991.1 3716.94 -2452
3716.94 5536.43 380.605
-2452 380.605 5454.72

-11022 3099.57 -1834.64
3099.57 3698.9 334.27
-1834.64 334.27 7323.13

-5745.33 4769.86 -2709.64
4769.86 5609.88 -280.044
-2709.64 -280.044 135.454

-11018.7 4109.21 -2799.14
4109.21 5550.21 380.605
-2799.14 380.605 5468.5

-11049.6 3491.85 -2181.77
3491.85 3712.69 334.27
-2181.77 334.27 7336.91

-7918.24 3894.17 -3411.47
3894.17 313.115 1563.97
-3411.47 1563.97 7605.13

-1188.61 5458.14 -2989.69
5458.14 594.305 0
-2989.69 0 594.305

-1188.61 5458.14 -2989.69
5458.14 594.305 0
-2989.69 0 594.305

-5734.47 -580.065 2709.64
-580.065 5588.16 165.266
2709.64 165.266 146.31

-1066.04 -1.22944e-11 2874.91
-1.22944e-11 533.02 0
2874.91 0 533.02

-1066.04 -1.22944e-11 2874.91
-1.22944e-11 533.02 0
2874.91 0 533.02

-7394.2 -7.37665e-12 3257.28
-7.37665e-12 278.108 4.91777e-12
3257.28 4.91777e-12 7116.09

-11049.2 -349.184 2369.37
-349.184 4165.87 887.906
2369.37 887.906 6883.3

-11007.9 80.5841 2799.14
80.5841 5528.5 825.915
2799.14 825.915 5479.35

-14415.1 -3.0736e-11 1865.65
-3.0736e-11 7516.82 731.325
1865.65 731.325 6898.25

-11021.6 43.0913 2022.24
43.0913 4152.09 887.906
2022.24 887.906 6869.52

-10980.3 472.86 2452
472.86 5514.72 825.915
2452 825.915 5465.57

-16164.2 265.922 2496.74
265.922 5544.54 1032.85
2496.74 1032.85 10619.6

-20268.6 -3.93421e-11 2097.22
-3.93421e-11 9471.7 633.341
2097.22 633.341 10796.9

-20333.9 -1.22944e-11 2097.22
-1.22944e-11 7671.2 731.325
2097.22 731.325 12662.7

-16164.2 -265.922 -2496.74
-265.922 5544.54 1032.85
-2496.74 1032.85 10619.6

-20268.6 -4.91777e-12 -2097.22
-4.91777e-12 9471.7 633.341
-2097.22 633.341 10796.9

-20333.9 1.84416e-11 -2097.22
1.84416e-11 7671.2 731.325
-2097.22 731.325 12662.7

-14415.1 1.96711e-11 -1865.65
1.96711e-11 7516.82 731.325
-1865.65 731.325 6898.25

-11021.6 -43.0913 -2022.24
-43.0913 4152.09 887.906
-2022.24 887.906 6869.52

-10980.3 -472.86 -2452
-472.86 5514.72 825.915
-2452 825.915 5465.57

-7394.2 1.84416e-11 -3257.28
1.84416e-11 278.108 -1.22944e-11
-3257.28 -1.22944e-11 7116.09

-11049.2 349.184 -2369.37
349.184 4165.87 887.906
-2369.37 887.906 6883.3

-11007.9 -80.5841 -2799.14
-80.5841 5528.5 825.915
-2799.14 825.915 5479.35

-5734.47 580.065 -2709.64
580.065 5588.16 165.266
-2709.64 165.266 146.31

-1066.04 7.37665e-12 -2874.91
7.37665e-12 533.02 0
-2874.91 0 533.02

-1066.04 6.14721e-12 -2874.91
6.14721e-12 533.02 0
-2874.91 0 533.02

-7394.2 -7.37665e-12 3257.28
-7.37665e-12 278.108 4.91777e-12
3257.28 4.91777e-12 7116.09

-1066.04 -1.22944e-11 2874.91
-1.22944e-11 533.02 0
2874.91 0 533.02

-1066.04 -1.22944e-11 2874.91
-1.22944e-11 533.02 0
2874.91 0 533.02

-5734.47 580.065 2709.64
580.065 5588.16 -165.266
2709.64 -165.266 146.31

-11007.9 -80.5841 2799.14
-80.5841 5528.5 -825.915
2799.14 -825.915 5479.35

-11049.2 349.184 2369.37
349.184 4165.87 -887.906
2369.37 -887.906 6883.3

-16164.2 -265.922 2496.74
-265.922 5544.54 -1032.85
2496.74 -1032.85 10619.6

-10980.3 -472.86 2452
-472.86 5514.72 -825.915
2452 -825.915 5465.57

-11021.6 -43.0913 2022.24
-43.0913 4152.09 -887.906
2022.24 -887.906 6869.52

-14415.1 -1.35239e-11 1865.65
-1.35239e-11 7516.82 -731.325
1865.65 -731.325 6898.25

-20333.9 4.91777e-12 2097.22
4.91777e-12 7671.2 -731.325
2097.22 -731.325 12662.7

-20268.6 -4.91777e-12 2097.22
-4.91777e-12 9471.7 -633.341
2097.22 -633.341 10796.9

-14415.1 3.31949e-11 -1865.65
3.31949e-11 7516.82 -731.325
-1865.65 -731.325 6898.25

-20333.9 3.81127e-11 -2097.22
3.81127e-11 7671.2 -731.325
-2097.22 -731.325 12662.7

-20268.6 2.09005e-11 -2097.22
2.09005e-11 9471.7 -633.341
-2097.22 -633.341 10796.9

-16164.2 265.922 -2496.74
265.922 5544.54 -1032.85
-2496.74 -1032.85 10619.6

-10980.3 472.86 -2452
472.86 5514.72 -825.915
-2452 -825.915 5465.57

-11021.6 43.0913 -2022.24
43.0913 4152.09 -887.906
-2022.24 -887.906 6869.52

-5734.47 -580.065 -2709.64
-580.065 5588.16 -165.266
-2709.64 -165.266 146.31

-11007.9 80.5841 -2799.14
80.5841 5528.5 -825.915
-2799.14 -825.915 5479.35

-11049.2 -349.184 -2369.37
-349.184 4165.87 -887.906
-2369.37 -887.906 6883.3

-7394.2 1.84416e-11 -3257.28
1.84416e-11 278.108 -1.22944e-11
-3257.28 -1.22944e-11 7116.09

-1066.04 6.14721e-12 -2874.91
6.14721e-12 533.02 0
-2874.91 0 533.02

-1066.04 6.14721e-12 -2874.91
6.14721e-12 533.02 0
-2874.91 0 533.02

-5745.33 4769.86 2709.64
4769.86 5609.88 280.044
2709.64 280.044 135.454

-1188.61 5458.14 2989.69
5458.14 594.305 0
2989.69 0 594.305

-1188.61 5458.14 2989.69
5458.14 594.305 0
2989.69 0 594.305

-7918.24 3894.17 3411.47
3894.17 313.115 -1563.97
3411.47 -1563.97 7605.13

-11049.6 3491.85 2181.77
3491.85 3712.69 -334.27
2181.77 -334.27 7336.91

-11018.7 4109.21 2799.14
4109.21 5550.21 -380.605
2799.14 -380.605 5468.5

-13896.8 3116.99 1875.99
3116.99 6585.27 -292.921
1875.99 -292.921 7311.52

-11022 3099.57 1834.64
3099.57 3698.9 -334.27
1834.64 -334.27 7323.13

-10991.1 3716.94 2452
3716.94 5536.43 -380.605
2452 -380.605 5454.72

-16175 3923.88 2496.74
3923.88 5566.25 -587.543
2496.74 -587.543 10608.8

-20151.1 3741.18 2130.35
3741.18 9420.53 -953.926
2130.35 -953.926 10730.6

-20175.7 3741.18 2130.35
3741.18 6754.85 -917.113
2130.35 -917.113 13420.8

-16175 -3923.88 -2496.74
-3923.88 5566.25 -587.543
-2496.74 -587.543 10608.8

-20151.1 -3741.18 -2130.35
-3741.18 9420.53 -953.926
-2130.35 -953.926 10730.6

-20175.7 -3741.18 -2130.35
-3741.18 6754.85 -917.113
-2130.35 -917.113 13420.8

-13896.8 -3116.99 -1875.99
-3116.99 6585.27 -292.921
-1875.99 -292.921 7311.52

-11022 -3099.57 -1834.64
-3099.57 3698.9 -334.27
-1834.64 -334.27 7323.13

-10991.1 -3716.94 -2452
-3716.94 5536.43 -380.605
-2452 -380.605 5454.72

-7918.24 -3894.17 -3411.47
-3894.17 313.115 -1563.97
-3411.47 -1563.97 7605.13

-11049.6 -3491.85 -2181.77
-3491.85 3712.69 -334.27
-2181.77 -334.27 7336.91

-11018.7 -4109.21 -2799.14
-4109.21 5550.21 -380.605
-2799.14 -380.605 5468.5

-5745.33 -4769.86 -2709.64
-4769.86 5609.88 280.044
-2709.64 280.044 135.454

-1188.61 -5458.14 -2989.69
-5458.14 594.305 0
-2989.69 0 594.305

-1188.61 -5458.14 -2989.69
-5458.14 594.305 0
-2989.69 0 594.305


