# vtk DataFile Version 3.0
vtk output at time 0.7
ASCII
DATASET UNSTRUCTURED_GRID
POINTS 1331 float
0 0 0 0 0 0.05 0 0 0.1 
0 0 0.15 0 0 0.2 0 0.05 0 
0 0.05 0.05 0 0.05 0.1 0 0.05 0.15 
0 0.05 0.2 0 0.1 0 0 0.1 0.05 
0 0.1 0.1 0 0.1 0.15 0 0.1 0.2 
0 0.15 0 0 0.15 0.05 0 0.15 0.1 
0 0.15 0.15 0 0.15 0.2 0 0.2 0 
0 0.2 0.05 0 0.2 0.1 0 0.2 0.15 
0 0.2 0.2 0.0388457 -0.00726982 -0.00717536 0.0410963 -0.00708097 0.0464073 
0.0425963 -0.00741961 0.100078 0.0415481 -0.0073463 0.153637 0.0386431 -0.00734893 0.207279 
0.0416439 0.0466232 -0.007482 0.0417173 0.0465421 0.207481 0.0422679 0.100265 -0.00731355 
0.0420054 0.10005 0.207218 0.0423582 0.153758 -0.00739645 0.0422182 0.15357 0.207561 
0.0386894 0.207533 -0.00700995 0.0411403 0.207134 0.0465773 0.0427287 0.207377 0.10015 
0.0416955 0.207338 0.153628 0.0385805 0.207456 0.207269 0.0824281 -0.00926106 -0.00888265 
0.0827987 -0.0101748 0.0448461 0.0832193 -0.0103874 0.0998182 0.0815848 -0.0102488 0.154916 
0.0822978 -0.00935266 0.209148 0.0822214 0.0446843 -0.00973886 0.0821221 0.0448108 0.210241 
0.0829023 0.0999087 -0.010428 0.0834447 0.0999712 0.210586 0.0821022 0.155493 -0.0106107 
0.0824178 0.155189 0.210584 0.082507 0.209816 -0.00887471 0.0824099 0.210464 0.0451442 
0.0836493 0.210486 0.100143 0.0818148 0.210178 0.155083 0.0824677 0.209463 0.209316 
0.126318 -0.00806924 -0.00758955 0.123777 -0.00806842 0.0462866 0.122267 -0.00772941 0.100247 
0.123457 -0.00781378 0.153725 0.126146 -0.0081147 0.207439 0.123609 0.0462753 -0.00856319 
0.123689 0.0461476 0.208548 0.122161 0.100163 -0.0081943 0.12272 0.10002 0.208155 
0.122438 0.153789 -0.00797781 0.123173 0.153602 0.207783 0.126101 0.207595 -0.00742729 
0.124385 0.207659 0.046437 0.122955 0.207819 0.100105 0.123935 0.207954 0.153619 
0.126207 0.207585 0.207382 0.165 0 0 0.165 0 0.05 
0.165 0 0.1 0.165 0 0.15 0.165 0 0.2 
0.165 0.05 0 0.165 0.05 0.05 0.165 0.05 0.1 
0.165 0.05 0.15 0.165 0.05 0.2 0.165 0.1 0 
0.165 0.1 0.05 0.165 0.1 0.1 0.165 0.1 0.15 
0.165 0.1 0.2 0.165 0.15 0 0.165 0.15 0.05 
0.165 0.15 0.1 0.165 0.15 0.15 0.165 0.15 0.2 
0.165 0.2 0 0.165 0.2 0.05 0.165 0.2 0.1 
0.165 0.2 0.15 0.165 0.2 0.2 0 0 0.025 
0 0.025 0 0.0185362 -0.00444055 -0.00621557 0.0212261 -0.00555088 0.0213527 
0 0 0.075 0 0.025 0.025 0 0.025 0.05 
0 0.025 0.075 0.0219395 -0.0056539 0.0475709 0 0 0.125 
0 0.025 0.1 0.0217495 -0.00580163 0.0736402 0.0220021 -0.00552331 0.100131 
0.0218873 -0.00562647 0.126568 0 0 0.175 0 0.025 0.125 
0 0.025 0.15 0 0.025 0.175 0.0220843 -0.00556077 0.152478 
0 0.025 0.2 0.0213241 -0.0055231 0.178587 0.01844 -0.00445009 0.206192 
0 0.05 0.025 0 0.075 0 0 0.075 0.025 
0.0198338 0.0217671 -0.00566103 0.0221271 0.0210303 0.0213782 0.0211249 0.047926 -0.00527971 
0.0221345 0.0747944 -0.00572179 0 0.05 0.075 0 0.075 0.05 
0.0223377 0.0211551 0.0478862 0.0222234 0.047911 0.021269 0.0229497 0.0744279 0.0208946 
0.0428603 0.0196886 0.0463558 0.0436791 0.0193639 0.07316 0.0430057 0.0464842 0.0195339 
0.044181 0.0733112 0.0190381 0 0.05 0.125 0 0.075 0.075 
0 0.075 0.1 0 0.075 0.125 0.022595 0.0209636 0.0739492 
0.0228544 0.0210645 0.100118 0.0228748 0.0211375 0.126242 0.0439559 0.0192277 0.0998682 
0.044482 0.019037 0.127082 0.0448664 0.073272 0.0456957 0 0.05 0.175 
0 0.075 0.15 0.0227087 0.0212168 0.152273 0.0223804 0.0478153 0.178694 
0.0228102 0.0742206 0.179081 0.0439592 0.0193168 0.153839 0.043282 0.0463923 0.180534 
0.0438455 0.0731583 0.18081 0 0.075 0.175 0 0.075 0.2 
0.0222569 0.0210303 0.178615 0.0198123 0.0217649 0.205644 0.0212451 0.0478472 0.205288 
0.0220685 0.074611 0.205767 0 0.1 0.025 0 0.125 0 
0.0221848 0.100407 -0.00551826 0 0.1 0.075 0 0.125 0.025 
0 0.125 0.05 0 0.125 0.075 0.0229425 0.100359 0.0212395 
0.0230801 0.126286 0.0211695 0.0448243 0.10004 0.0189563 0.0447359 0.12722 0.0191008 
0 0.1 0.125 0 0.125 0.1 0.0442136 0.0457314 0.0999223 
0.0448092 0.0457399 0.127037 0.0448383 0.100056 0.045647 0.0440922 0.100013 0.154462 
0.0450397 0.127149 0.0458062 0.044457 0.126998 0.154267 0.0442773 0.154306 0.100073 
0.0446939 0.15418 0.127169 0.0826625 0.100005 0.10004 0 0.1 0.175 
0 0.125 0.125 0 0.125 0.15 0 0.125 0.175 
0.0227567 0.100202 0.178974 0.0229037 0.126182 0.179049 0.0445419 0.0458799 0.153886 
0.0440218 0.0999479 0.18096 0.044053 0.126984 0.180869 0.0447108 0.15419 0.153978 
0 0.125 0.2 0.0220489 0.100247 0.205737 0 0.15 0.025 
0 0.175 0 0 0.175 0.025 0.0219342 0.12607 -0.00555184 
0.0218698 0.15234 -0.0051118 0.0200143 0.178171 -0.00547557 0.0221772 0.178855 0.0214582 
0 0.15 0.075 0 0.175 0.05 0.0227869 0.152231 0.0213798 
0.0223846 0.178778 0.0479596 0.0441438 0.153935 0.0194406 0.0433233 0.180528 0.0464761 
0.043884 0.180692 0.0732642 0 0.15 0.125 0 0.175 0.075 
0 0.175 0.1 0 0.175 0.125 0.0226566 0.178984 0.0739931 
0.0229008 0.178882 0.100139 0.0228925 0.178893 0.126262 0.0446826 0.153925 0.0459587 
0.0441588 0.180785 0.100035 0.0445399 0.180987 0.127175 0 0.15 0.175 
0 0.175 0.15 0.0226926 0.152147 0.178891 0.022737 0.178694 0.152281 
0.0438405 0.153744 0.180827 0.0442133 0.180797 0.153925 0 0.175 0.175 
0 0.175 0.2 0.0217716 0.125959 0.205834 0.0217507 0.152237 0.205374 
0.0223035 0.178809 0.178644 0.0199001 0.178108 0.205605 0 0.2 0.025 
0.0185631 0.204398 -0.00608097 0.0212504 0.205489 0.021486 0 0.2 0.075 
0.0219653 0.205602 0.0476355 0 0.2 0.125 0.0217954 0.205725 0.0737169 
0.0220506 0.205463 0.100165 0.0219069 0.205617 0.126593 0 0.2 0.175 
0.0221469 0.205436 0.152517 0.0213846 0.205382 0.178563 0.0184519 0.204338 0.20617 
0.0401771 -0.00725157 0.0193538 0.0408057 0.0196777 -0.00757341 0.0605787 -0.00852372 -0.00803704 
0.0615826 0.0182114 -0.0084003 0.0419521 -0.00732289 0.0732584 0.0423093 0.019705 0.019333 
0.0613271 -0.00838378 0.0185357 0.0620916 -0.00858891 0.0453602 0.0625378 -0.0087647 0.0724125 
0.0625964 0.0183172 0.018402 0.0421275 -0.00735231 0.126845 0.0631287 -0.00892126 0.0998539 
0.0402057 -0.00735981 0.180734 0.0424516 0.0195944 0.180729 0.0627985 -0.00906472 0.127231 
0.061829 -0.00889799 0.154573 0.0612617 -0.00855435 0.181733 0.0625834 0.0182275 0.18185 
0.0407492 0.0196003 0.207668 0.0604084 -0.00861167 0.208322 0.0614721 0.0181743 0.208648 
0.0420542 0.0732629 -0.00744357 0.0620457 0.0453929 -0.00869097 0.0420331 0.0731749 0.20743 
0.0620431 0.045433 0.208886 0.042412 0.126892 -0.00740989 0.0628314 0.0725413 -0.00899557 
0.063006 0.100059 -0.00910821 0.0629818 0.12742 -0.00916816 0.0422445 0.126721 0.207526 
0.0628406 0.0726234 0.209042 0.0630002 0.0999302 0.208965 0.063003 0.127243 0.209105 
0.0411062 0.18072 -0.00743422 0.0426975 0.180604 0.0195063 0.0624433 0.155006 -0.00893466 
0.042691 0.180499 0.180776 0.0409235 0.180529 0.207727 0.0624672 0.154682 0.209049 
0.0401288 0.207412 0.0195569 0.0617497 0.182391 -0.00838211 0.0605208 0.209143 -0.00782646 
0.0420545 0.207297 0.0734087 0.0629254 0.182127 0.0184122 0.0613706 0.208872 0.018718 
0.0620177 0.20887 0.0456378 0.0627055 0.20884 0.0727307 0.042242 0.207382 0.126873 
0.0633944 0.208952 0.100073 0.04022 0.207388 0.180731 0.0627751 0.181903 0.182006 
0.0630019 0.209104 0.127362 0.0620459 0.208917 0.15469 0.0613579 0.208668 0.181833 
0.0616024 0.182002 0.208809 0.0604715 0.208782 0.208394 0.0827479 -0.00925072 0.0176761 
0.0824742 0.0174453 -0.00931294 0.104386 -0.00856582 -0.00847537 0.104009 -0.00851662 0.018159 
0.0830629 -0.0102675 0.0721947 0.0828604 0.017409 0.0175362 0.0829953 0.0448534 0.0174161 
0.103323 -0.00868584 0.0452189 0.102371 0.0453286 0.0179445 0.0828935 -0.010514 0.127414 
0.0830083 0.0448508 0.0450708 0.082994 0.0449528 0.155032 0.102921 -0.00885662 0.0724953 
0.102392 -0.0088679 0.100054 0.102757 -0.00927417 0.1275 0.101853 0.045342 0.0452331 
0.101462 0.0452689 0.15509 0.120869 0.0457552 0.100182 0.120824 0.0458484 0.127178 
0.0822583 -0.00934194 0.182391 0.0823076 0.0174126 0.18272 0.0827398 0.0449903 0.182824 
0.102322 -0.00862798 0.154822 0.101937 0.0452091 0.182366 0.0823294 0.0174107 0.209668 
0.10356 -0.00854918 0.181729 0.104199 -0.00871902 0.208335 0.0828388 0.0721804 -0.0101266 
0.103554 0.0181716 -0.00872063 0.10305 0.0182409 0.0180551 0.103141 0.0452015 -0.00890809 
0.102586 0.072421 -0.00908553 0.0830101 0.0722851 0.210425 0.102563 0.0181468 0.182014 
0.103326 0.018029 0.208698 0.103147 0.0450447 0.209079 0.1028 0.0723246 0.20947 
0.0825975 0.127753 -0.010444 0.0830574 0.155241 0.0452736 0.102223 0.0998592 -0.00915948 
0.101562 0.15495 0.0454756 0.120981 0.100134 0.0455093 0.121035 0.12698 0.0456718 
0.08317 0.127699 0.210549 0.082962 0.155063 0.15493 0.0830162 0.155163 0.182784 
0.102588 0.0997364 0.209643 0.101437 0.154957 0.15463 0.101954 0.154939 0.182184 
0.12068 0.100002 0.154568 0.120776 0.0997745 0.181296 0.120506 0.126805 0.154605 
0.120999 0.126642 0.181356 0.0824982 0.183033 -0.00952868 0.0826794 0.183126 0.0174946 
0.082941 0.183022 0.0450768 0.102306 0.127626 -0.00887863 0.102087 0.154952 -0.00878977 
0.103263 0.182269 -0.00845316 0.102539 0.182171 0.0183231 0.101997 0.182305 0.0454994 
0.121339 0.153953 0.0460364 0.0821974 0.182552 0.18285 0.0824647 0.182656 0.209885 
0.102684 0.127333 0.209519 0.10269 0.154745 0.209175 0.102452 0.18213 0.181984 
0.10334 0.182027 0.208752 0.121657 0.1537 0.18103 0.0826245 0.209862 0.017818 
0.104459 0.209107 -0.00799743 0.103994 0.208869 0.0185696 0.0831622 0.210462 0.0725247 
0.10314 0.20907 0.0453798 0.083059 0.21046 0.127652 0.103128 0.209304 0.0726793 
0.102964 0.209528 0.100134 0.102786 0.209118 0.127632 0.121496 0.154304 0.100041 
0.121982 0.180966 0.100064 0.0822662 0.20944 0.182535 0.102345 0.208665 0.1549 
0.103576 0.208623 0.18175 0.104372 0.208818 0.208315 0.125037 -0.00802345 0.0189586 
0.124485 0.0190279 -0.00830119 0.146793 -0.00473593 -0.00668872 0.145423 0.0213695 -0.0062709 
0.122917 -0.00796847 0.0732599 0.123107 0.0190219 0.0186695 0.122293 0.0459961 0.0187352 
0.14391 -0.00580806 0.0209763 0.143057 -0.00580527 0.0472317 0.14335 -0.00608283 0.0733796 
0.143045 0.0206785 0.0207253 0.142595 0.0208393 0.0471715 0.142468 0.0205336 0.0736386 
0.142384 0.0473748 0.0472243 0.142127 0.0471769 0.0736861 0.122813 -0.0079137 0.127111 
0.121569 0.0460014 0.0459004 0.14317 -0.00588902 0.100068 0.142296 0.0204719 0.100024 
0.141931 0.0467869 0.100001 0.141965 0.0466129 0.126139 0.124787 -0.0079664 0.180928 
0.122868 0.0190044 0.181301 0.122073 0.0458847 0.181257 0.143386 -0.00620805 0.126679 
0.142952 -0.00574144 0.152733 0.143825 -0.00580112 0.178895 0.14241 0.0204301 0.126354 
0.142471 0.0208773 0.152751 0.142963 0.0206757 0.179153 0.142194 0.047395 0.152661 
0.124362 0.0188999 0.208209 0.146672 -0.00477895 0.206518 0.145331 0.0213155 0.206114 
0.122861 0.0732705 -0.00841405 0.143685 0.0475047 -0.00589898 0.142641 0.0475192 0.020537 
0.142418 0.0738327 0.020619 0.123123 0.0731409 0.208409 0.142544 0.0474614 0.179247 
0.143649 0.0474147 0.205694 0.142316 0.0737844 0.179084 0.12236 0.127229 -0.00803752 
0.143333 0.0740878 -0.00630018 0.142824 0.0998701 -0.00612904 0.142212 0.0999278 0.0202253 
0.142072 0.100169 0.0466157 0.142869 0.125636 -0.00631378 0.142274 0.126119 0.0199606 
0.142018 0.126207 0.0461932 0.123073 0.126992 0.207972 0.143291 0.0741162 0.205952 
0.142308 0.100066 0.1791 0.142892 0.0997687 0.205822 0.142118 0.125823 0.1794 
0.142953 0.125353 0.206021 0.12398 0.180692 -0.00784531 0.122751 0.180679 0.0190023 
0.12208 0.180833 0.0461239 0.143653 0.15244 -0.00590803 0.142721 0.152562 0.0204168 
0.142405 0.152586 0.0468056 0.122665 0.180685 0.181026 0.12417 0.180588 0.207921 
0.142573 0.152175 0.179061 0.143751 0.152102 0.205603 0.125146 0.207563 0.0192113 
0.145189 0.178555 -0.00626714 0.1466 0.204597 -0.0067469 0.12349 0.207814 0.073328 
0.143086 0.179225 0.0206677 0.142655 0.179142 0.0470421 0.142483 0.179037 0.0734026 
0.144027 0.205774 0.020813 0.143285 0.205981 0.047199 0.143394 0.205878 0.0733038 
0.123355 0.208138 0.126719 0.142905 0.178764 0.100014 0.143389 0.20555 0.100047 
0.124963 0.207557 0.18085 0.142446 0.178682 0.126516 0.142626 0.178758 0.152952 
0.142902 0.178997 0.179171 0.143256 0.205579 0.126797 0.143038 0.205592 0.152741 
0.143829 0.20554 0.179048 0.145182 0.178268 0.206116 0.146605 0.204401 0.206631 
0.165 0 0.025 0.165 0.025 0 0.165 0 0.075 
0.165 0.025 0.025 0.165 0.025 0.05 0.165 0.025 0.075 
0.165 0 0.125 0.165 0.025 0.1 0.165 0 0.175 
0.165 0.025 0.125 0.165 0.025 0.15 0.165 0.025 0.175 
0.165 0.025 0.2 0.165 0.05 0.025 0.165 0.075 0 
0.165 0.075 0.025 0.165 0.05 0.075 0.165 0.075 0.05 
0.165 0.05 0.125 0.165 0.075 0.075 0.165 0.075 0.1 
0.165 0.075 0.125 0.165 0.05 0.175 0.165 0.075 0.15 
0.165 0.075 0.175 0.165 0.075 0.2 0.165 0.1 0.025 
0.165 0.125 0 0.165 0.1 0.075 0.165 0.125 0.025 
0.165 0.125 0.05 0.165 0.125 0.075 0.165 0.1 0.125 
0.165 0.125 0.1 0.165 0.1 0.175 0.165 0.125 0.125 
0.165 0.125 0.15 0.165 0.125 0.175 0.165 0.125 0.2 
0.165 0.15 0.025 0.165 0.175 0 0.165 0.175 0.025 
0.165 0.15 0.075 0.165 0.175 0.05 0.165 0.15 0.125 
0.165 0.175 0.075 0.165 0.175 0.1 0.165 0.175 0.125 
0.165 0.15 0.175 0.165 0.175 0.15 0.165 0.175 0.175 
0.165 0.175 0.2 0.165 0.2 0.025 0.165 0.2 0.075 
0.165 0.2 0.125 0.165 0.2 0.175 0.138331 0.20643 0.0104898 
0.152716 0.186013 -0.00529947 0.0682665 -0.00904484 0.172964 0.150722 0.204944 0.0308748 
0.165 0.183333 0.0166667 0.150401 0.186867 0.0130645 0 0.0333333 0.0333333 
0.165 0.0666667 0.166667 0 0.0666667 0.0666667 0.0562373 0.208376 0.0820226 
0.165 0.116667 0.116667 0.134539 0.0997694 0.153605 0.0539815 0.208499 0.01014 
0.0683979 0.191734 -0.00852093 0.165 0.133333 0.166667 0.136666 0.0648272 0.206912 
0.149703 0.0656223 0.186803 0.0268759 -0.00614789 0.0110189 0.0124791 0.0141059 -0.00485018 
0.0697433 0.0815194 -0.00952655 0.110218 0.0274381 -0.00860247 0.0682971 0.00891821 -0.0085293 
0.0539887 -0.0080313 0.0099213 0.0288592 0.206454 0.117773 0.0153059 0.0308337 0.0310512 
0.0550194 0.027666 -0.00817622 0.0549976 0.0097436 0.00979336 0 0.133333 0.0333333 
0.149666 0.0827393 0.186958 0.165 0.0833333 0.183333 0.150347 0.0825911 0.204899 
0.0276963 0.170325 -0.00626983 0 0.0166667 0.0166667 0.0147699 0.013297 0.0135263 
0.0144819 -0.00468965 0.031281 0.0150968 0.0131567 0.0310642 0.0685404 0.209292 0.0273714 
0.0689472 0.191485 0.00919268 0.0307848 0.0649712 0.0466923 0.165 0.166667 0.166667 
0.0298399 0.0294277 0.0824954 0 0.116667 0.0166667 0.0147726 0.117511 -0.00463815 
0 0.0333333 0.166667 0.109572 0.17274 -0.00829005 0.121146 0.153856 0.136191 
0.0692982 -0.00952914 0.136381 0.137674 0.170277 0.206868 0.111011 0.20829 0.190331 
0.0966429 0.191319 0.208884 0.0694594 0.191483 0.027197 0.0285064 0.065185 -0.00656228 
0.0148823 0.0484956 0.0135552 0.0275447 0.17023 0.20645 0 0.166667 0.0333333 
0.0145673 -0.00460369 0.168695 0 0.0166667 0.183333 0.0151843 0.0132167 0.168899 
0.165 0.0833333 0.0833333 0.0280805 0.188151 0.0113498 0.0268342 0.206143 0.011187 
0.0125994 0.185811 -0.00472616 0.0148112 0.1866 0.0136205 0.0145361 0.204574 0.0313587 
0.0151455 0.186697 0.0311422 0 0.183333 0.0166667 0 0.133333 0.166667 
0.0153404 0.151639 0.0136571 0.0153598 0.16901 0.0310934 0.0290879 0.170561 0.0117237 
0 0.166667 0.166667 0 0.0666667 0.0333333 0.0153503 0.0660482 0.0132151 
0 0.0833333 0.0166667 0.0154154 0.0832601 0.0131679 0.0154285 0.100306 0.0133171 
0.0147975 0.0831272 -0.00469352 0 0.116667 0.183333 0.014628 0.117453 0.204926 
0.0686095 -0.0088386 0.027155 0.0693792 0.00892292 0.0271038 0.0688406 0.00903107 0.0091988 
0.0125353 0.185764 0.204747 0.0281096 0.188101 0.1888 0.0268372 0.206064 0.188941 
0.109333 0.136397 0.208924 0 0.166667 0.0666667 0.0152499 0.186668 0.0484257 
0 0.183333 0.0833333 0.0151927 0.18708 0.0656853 0.0145524 0.204876 0.0653036 
0.14945 0.117044 0.16953 0 0.0166667 0.0833333 0.0145102 -0.00494888 0.0652415 
0.0579633 0.172804 0.118179 0.0287813 0.135102 0.206684 0.0153455 0.134319 0.186804 
0.01531 0.117294 0.186995 0.0287712 -0.00659974 0.0824941 0.0152866 0.0130507 0.0828517 
0.0285508 0.0650302 0.206608 0 0.183333 0.116667 0.0153867 0.186727 0.117393 
0.0146887 0.204628 0.134906 0 0.166667 0.133333 0.0153318 0.186832 0.134515 
0.015567 0.16922 0.13435 0.0153686 0.186483 0.151694 0.0435765 0.0104038 0.0821663 
0.0560676 -0.00835381 0.0817828 0.0296969 0.011375 0.0824577 0.0288699 0.135256 -0.00639477 
0.015431 0.134372 0.0134531 0.0154119 0.117354 0.0132617 0.0290697 0.170479 0.188456 
0.0152847 0.151593 0.186546 0.0297472 0.170425 0.170712 0.0154179 0.168974 0.168975 
0 0.183333 0.183333 0.0148789 0.186516 0.186372 0.0146402 0.204439 0.168691 
0.0152371 0.186604 0.168896 0.0153782 0.0308392 0.168931 0.0149792 0.0484179 0.186413 
0.0148362 0.0133433 0.186393 0.0124699 0.014118 0.204785 0.0268423 -0.00616097 0.188964 
0.149782 0.186584 0.152011 0.165 0.166667 0.133333 0.0308206 0.153519 0.117862 
0 0.116667 0.116667 0.0309 0.135871 0.135694 0.136199 0.17053 0.188939 
0.149782 0.169131 0.169514 0.0272653 0.0298429 -0.00645451 0.0287493 0.0295751 0.0115417 
0.0414857 0.0107746 0.0102309 0.0279541 0.0118606 0.0111739 0.110883 -0.0083143 0.190371 
0.0965716 0.00882128 0.208782 0.121154 0.100116 0.0277196 0.0153128 0.0658856 0.18684 
0.0155192 0.0830426 0.169325 0 0.0666667 0.166667 0.150387 0.082612 -0.00514618 
0.165 0.0833333 0.0166667 0.0439306 0.0823845 0.0100529 0.0307952 0.0826088 0.0289079 
0.0156244 0.0831778 0.0307298 0.0429187 0.189376 0.0465008 0.0694466 0.209444 0.0634868 
0.055896 0.0636951 0.208498 0.0295876 0.0650233 0.188671 0 0.0333333 0.0666667 
0.0154172 0.0306357 0.0658928 0.0152219 0.0132604 0.0483761 0.0151714 0.0128709 0.0656515 
0.165 0.0333333 0.133333 0.165 0.183333 0.0833333 0.150566 0.204949 0.0649293 
0.0288308 -0.00647113 0.117756 0.0153621 0.0133443 0.100126 0.0539062 -0.00816256 0.190321 
0.0687072 0.00895239 0.19114 0.0681621 0.00884256 0.208854 0.0153309 0.0134175 0.151677 
0 0.0333333 0.133333 0.054959 0.00963225 0.190438 0.0549373 0.0276403 0.208378 
0.0433173 0.0642786 0.189653 0.043643 0.0822144 0.189756 0.0697768 0.0816326 0.209567 
0.0429928 0.0464061 0.189463 0.0558747 0.0276654 0.190502 0.0295416 0.0295327 0.170652 
0.135376 0.170721 0.064295 0.150541 0.204676 0.169007 0.165 0.183333 0.183333 
0.149951 0.186847 0.169307 0.109748 0.0274766 0.00924489 0.109526 0.0635665 -0.00882841 
0 0.0833333 0.183333 0.0147036 0.082941 0.204847 0.0153326 0.100204 0.186918 
0.0153499 0.083122 0.186951 0.0682702 0.191328 0.209034 0.0539571 0.208302 0.190391 
0 0.0166667 0.116667 0.0153739 0.0132795 0.117381 0.0146693 -0.00464666 0.134879 
0.0153227 0.0131849 0.134493 0.0967951 0.00895535 -0.00879427 0.111212 -0.00827853 0.00945604 
0.110385 0.00946818 0.00938133 0.121715 0.171841 0.0640478 0.121496 0.153934 0.0639832 
0.122189 0.189887 0.100074 0.0962853 -0.00920946 0.0631996 0.0438183 0.0103768 0.117963 
0.0437228 0.010381 0.100058 0.0298632 0.0114814 0.117766 0.0561877 -0.00847126 0.11802 
0.0570296 0.0637753 0.190739 0.0567796 0.0275729 0.172519 0.0691158 0.00883925 0.173086 
0.043168 0.0284772 0.171636 0.0579034 0.0637552 0.154714 0.0572999 0.0457224 0.172706 
0.0577828 0.063719 0.172804 0.0300729 0.0823428 0.170688 0.0308994 0.0642076 0.135583 
0 0.0833333 0.116667 0.0579436 0.0271865 0.118013 0.0308242 0.0465032 0.117721 
0.0575123 0.00927313 0.117964 0.0304765 0.0468945 0.152994 0.0309083 0.0465385 0.135316 
0 0.0666667 0.133333 0.0306178 0.0290909 0.135505 0.0433638 0.0104234 0.153744 
0.0438532 0.0102289 0.135917 0.0155678 0.0308065 0.13435 0.121664 0.135763 0.190061 
0.0961554 0.118304 0.20995 0.121297 0.117681 0.190384 0.108218 0.136318 0.191058 
0.165 0.116667 0.183333 0.149636 0.0998347 0.186948 0.149665 0.116927 0.187157 
0.15033 0.117029 0.205005 0.137909 0.0292456 0.207022 0.137096 0.0112645 0.189291 
0.152695 0.013856 0.205099 0.138275 -0.00661168 0.189301 0.109998 0.190602 0.190534 
0.123525 0.189514 0.190085 0.109913 0.172601 0.208566 0.14968 0.134092 0.186983 
0.136524 0.134977 0.206918 0.135367 0.135028 0.188995 0.150012 0.151528 0.186681 
0.136366 0.0289922 0.189019 0.149908 0.0481538 0.186782 0.150304 0.0130764 0.186706 
0.165 0.0166667 0.183333 0.150541 -0.00479243 0.168894 0.149919 0.0130277 0.169194 
0.165 0.0333333 0.166667 0.149771 0.0306833 0.169423 0.149735 0.0132088 0.151919 
0.0683784 0.209124 0.173068 0.0688181 0.191186 0.19133 0.0434342 0.153644 0.189701 
0.0155651 0.134259 0.169279 0.0301838 0.135364 0.170733 0.057794 0.154442 0.172862 
0.0579537 0.154382 0.154729 0.0578022 0.136228 0.15469 0.0560842 0.13616 0.208535 
0.0437847 0.13582 0.18979 0.0297834 0.117708 0.188679 0.0698014 0.11826 0.209518 
0.0436698 0.117883 0.18965 0.0437555 0.100018 0.189724 0.0578942 0.118109 0.172964 
0.0302861 0.117898 0.153358 0.057511 0.118113 0.190779 0.029913 0.100018 0.153489 
0.0309132 0.153547 0.13546 0 0.133333 0.133333 0.0306282 0.170962 0.13556 
0.0306113 0.153207 0.153134 0.0960899 0.191184 0.191182 0.082367 0.191621 0.191756 
0.0961715 0.208897 0.173111 0.0551592 0.172515 0.208527 0.0416488 0.189385 0.189874 
0.0561793 0.172505 0.190654 0.0550876 0.190538 0.190567 0.0417059 0.189506 0.0104276 
0.0553126 0.17285 -0.00820524 0.0551881 0.190749 0.00990466 0.0962014 0.0813499 0.209871 
0.0956129 0.0450359 0.19163 0.0828123 0.0449606 0.192059 0.110093 0.0272612 0.208608 
0.123635 0.0100742 0.190326 0.110052 0.00939784 0.190556 0.108607 0.0273238 0.172903 
0.0959236 -0.00931663 0.13674 0.0956606 0.0633146 0.191717 0.0953259 0.0267541 0.155232 
0.082845 0.0265252 0.155081 0.0692056 0.191211 0.173237 0.0572408 0.172484 0.172768 
0.0435544 0.189623 0.153801 0.0435486 0.171628 0.171773 0.0299069 0.188535 0.117782 
0.0438941 0.189607 0.100158 0.0563734 0.20852 0.118141 0.135712 0.188623 0.0822154 
0.136572 0.206662 0.0823055 0.149783 0.186896 0.0825192 0.0575162 0.136319 0.136406 
0.10834 0.172842 0.154473 0.095324 0.173348 0.13652 0.109616 0.208913 0.118272 
0.121957 0.153702 0.189861 0.135609 0.170565 0.171213 0.109069 0.172575 0.190779 
0.122018 0.171761 0.172093 0.0954484 0.191159 0.173288 0.0954638 0.15515 0.191613 
0.0828765 0.155169 0.192035 0.0693357 -0.0092486 0.0631891 0.0426624 0.0107542 0.0463547 
0.043109 0.0104907 0.0642499 0.138408 -0.00661106 0.0105297 0.15279 0.0139056 -0.005218 
0.0288243 0.206504 0.0825751 0.0153905 0.186606 0.100144 0.0297971 0.188551 0.0825221 
0.0153249 0.186861 0.0828891 0.107713 0.0636095 0.154884 0.121283 0.0998375 0.190189 
0.0954087 0.0634022 0.173481 0.135169 0.0287454 0.135446 0.109189 -0.00868793 0.118329 
0.121297 0.0280287 0.136041 0.121102 0.0639067 0.154195 0.108396 0.027299 0.154849 
0.135078 0.0644941 0.171044 0.135402 0.0824157 0.188925 0.135334 0.0468155 0.171087 
0.149543 0.0654513 0.169344 0.135597 0.0290591 0.171224 0.0437943 0.189593 0.0822976 
0.0432865 0.189572 0.0643607 0.0154521 0.169333 0.0659248 0.136519 0.206603 0.117797 
0.149952 0.186671 0.100016 0.135704 0.188536 0.117782 0.0829874 0.173512 0.155109 
0.0958201 0.209436 0.136828 0.0955462 0.173383 0.154956 0.0956045 0.173315 0.17328 
0.150385 0.204533 0.135163 0.149678 0.186606 0.134722 0.165 0.183333 0.116667 
0.149723 0.186631 0.117518 0.134208 0.11771 0.136159 0.107649 0.136496 0.136372 
0.107799 0.154658 0.136361 0.149722 0.0827297 0.0126933 0.136646 0.0649092 -0.00717715 
0.108037 0.154703 0.0637773 0.134662 0.117766 0.0639025 0.135622 0.153329 0.100036 
0.12356 0.189591 0.0099836 0.137553 0.170547 -0.00702054 0.136195 0.170813 0.010855 
0.137198 0.188468 0.0105573 0.0272939 0.0297835 0.206454 0.0415098 0.01069 0.189842 
0.0288536 0.0295181 0.188443 0.0280152 0.0118213 0.188818 0.0582927 0.118246 0.0271397 
0.150083 0.187097 0.0306282 0.165 0.166667 0.0333333 0.149869 0.169392 0.0304013 
0.137227 0.0112851 0.0105591 0.12385 0.0101114 0.00958279 0.13798 0.0293232 -0.00717469 
0.109772 0.208937 0.0819631 0.134156 0.117308 0.154 0.134451 0.117259 0.171416 
0.165 0.133333 0.133333 0.0577556 0.13651 0.0637219 0.107902 0.136523 0.0636997 
0.082695 0.136146 0.100029 0.135455 0.135456 0.0105169 0.136181 0.135298 -0.00724597 
0.150141 0.151807 0.0129188 0.149766 0.134296 0.0125298 0.165 0.133333 0.0333333 
0.12263 0.189761 0.0461493 0.108461 0.172797 0.0276087 0.109011 0.172711 0.0096165 
0.109156 0.190883 0.0457254 0.107596 0.0636426 0.136705 0.0825758 0.100023 0.136208 
0.0575279 0.0637202 0.13639 0.13707 0.188263 0.189278 0.138241 0.206229 0.189415 
0.150274 0.186649 0.186805 0.152621 0.185813 0.205166 0.14985 0.187076 0.0652703 
0.149898 0.186904 0.0479571 0.165 0.166667 0.0666667 0.0958281 0.191642 0.0452608 
0.0963294 0.209645 0.0633727 0.110082 0.190717 0.00977794 0.0966916 0.191631 -0.00855248 
0.111251 0.208477 0.00991932 0.0299707 0.0467384 0.0998575 0.0579503 0.0454112 0.0636675 
0.149651 0.169413 0.0651318 0.149775 0.151923 0.0474565 0.135647 0.170886 0.0286569 
0.135486 0.170831 0.0465272 0.134711 0.0642667 0.117927 0.120959 0.0278892 0.11805 
0.149597 0.030217 0.134669 0.165 0.0666667 0.133333 0.149506 0.0479659 0.152036 
0.149444 0.0476304 0.13467 0.0959692 0.191565 0.0271311 0.0825972 0.192099 0.00862431 
0.096304 0.191444 0.0091629 0.0967258 0.209324 0.0272152 0.149622 0.168897 0.134857 
0.121547 0.153863 0.172103 0.134313 0.135087 0.153783 0.120927 0.153994 0.154262 
0.0432978 0.171687 0.0285355 0.0296228 0.170471 0.0294853 0.0562837 0.17273 0.00969081 
0.0569692 0.172656 0.027639 0.0830426 0.192258 0.0450738 0.0570625 0.190649 0.0638601 
0.0433496 0.0643544 0.0103136 0.0296017 0.0651767 0.0113117 0.0558877 0.0636744 -0.00846968 
0.0562174 0.13641 -0.00855387 0.0300017 0.117863 0.0115021 0.0580886 0.154814 0.0637853 
0.0300774 0.153356 0.100012 0.0574574 0.172773 0.0457501 0.05789 0.172817 0.0637765 
0.0300508 0.170613 0.082526 0.0309708 0.135536 0.0642443 0.030985 0.117814 0.0465768 
0 0.116667 0.0833333 0.0305428 0.152989 0.04702 0.0309882 0.135353 0.0466103 
0 0.133333 0.0666667 0.0441729 0.135985 0.0102494 0.0436663 0.153818 0.0105225 
0.0307585 0.135524 0.0291497 0.0156601 0.134347 0.0308947 0 0.0833333 0.0833333 
0.0309651 0.082415 0.0640249 0.0309156 0.100211 0.0464116 0.0310053 0.0827171 0.0463041 
0.108867 0.136607 -0.00855433 0.121406 0.153986 0.0281067 0.135077 0.135516 0.028355 
0.149457 0.134559 0.0470885 0.14954 0.117105 0.0297238 0.165 0.133333 0.0666667 
0.149414 0.0477264 0.082634 0.0961858 -0.00888527 0.17305 0.0823387 0.00842338 0.19161 
0.0955661 0.00882777 0.173196 0.0961417 0.00897013 0.191084 0.0442154 0.100202 0.0102199 
0.0696696 0.118364 -0.00961161 0.0577611 0.118184 0.00916124 0.0440492 0.118084 0.0103607 
0.0957022 0.11844 -0.00937896 0.121089 0.117981 0.0275377 0.107825 0.136525 0.0273515 
0.121128 0.136065 0.0278418 0.0579583 0.0635396 0.063694 0.0827968 0.100025 0.0638903 
0.107955 0.0636902 0.0635516 0.0827825 0.0638798 0.100069 0.121108 0.0639946 0.0638259 
0.121033 0.0280441 0.10015 0.0428203 0.0465033 0.0105468 0.0427369 0.0286227 0.0284708 
0.0558075 0.0277387 0.00970325 0.0292881 0.0296004 0.0293765 0.0827162 0.0084958 0.00863227 
0.0969045 -0.00889727 0.0269473 0.0965461 0.0090551 0.00891931 0.149448 0.117214 0.0470399 
0.149338 0.117382 0.0644312 0.165 0.116667 0.0833333 0.165 0.0666667 0.0333333 
0.149761 0.065689 0.0129502 0.0955235 0.173448 0.063693 0.0829019 0.155385 0.0267433 
0.0950663 0.155195 0.0269807 0.0957798 0.191677 0.0635682 0.165 0.0333333 0.0333333 
0.109235 0.0455175 0.00915114 0.109162 0.0274429 0.0272479 0.0963452 0.0089197 0.0268677 
0.0695154 0.209565 0.136559 0.0439596 0.189817 0.135971 0.0576753 0.190794 0.118168 
0.0439233 0.189675 0.118042 0.0568195 0.0094699 0.0636465 0.057557 0.0454396 0.0456208 
0.122544 0.0460781 0.00957536 0.135363 0.0823946 0.0106983 0.165 0.0166667 0.0833333 
0.15052 -0.00496491 0.0649182 0.109456 0.0273697 0.190817 0.122409 0.0459434 0.190409 
0.109712 0.0634021 0.209009 0.108994 0.0453808 0.191024 0.165 0.0333333 0.0666667 
0.149782 0.013197 0.0480515 0.149795 0.0128273 0.0653477 0.135158 0.0287701 0.0823248 
0.134778 0.0642633 0.0644696 0.149356 0.0653241 0.0652549 0.134967 0.0645118 0.0466117 
0.135235 0.064607 0.028754 0.149435 0.0999465 0.0473637 0.150526 -0.00506062 0.135082 
0.165 0.0166667 0.116667 0.149796 0.0127039 0.134642 0.0568782 0.0456265 0.0275615 
0.0564526 0.0276391 0.0276813 0.0569317 0.0637649 0.00936374 0.108845 0.027379 0.0453828 
0.10839 0.0274366 0.0635369 0.122098 0.0279915 0.0459237 0.109357 -0.008581 0.0819175 
0.0957513 0.026892 0.0450184 0.0829985 0.0264459 0.0449289 0.0954051 0.0633533 0.0268809 
0.0958098 0.0633385 0.00868281 0.0828816 0.0448441 0.00830944 0.0959228 0.0451137 0.00870153 
0.0959052 0.0814554 -0.00941115 0.149452 0.0473345 0.117153 0.149384 0.0474395 0.0998702 
0.165 0.0833333 0.116667 0.149296 0.0646053 0.117217 0.13632 -0.00700755 0.0823673 
0.149796 0.0128062 0.0826046 0.13554 0.0108124 0.0823501 0.149789 0.0127103 0.117422 
0.149835 0.0129566 0.100038 0.135426 0.0107531 0.11776 0.136351 -0.00708008 0.117805 
0.149615 0.0654808 0.0304445 0.135505 0.0468915 0.0287481 0.165 0.116667 0.0166667 
0.149667 0.0998506 0.012644 0.150364 0.117164 -0.00527712 0.149725 0.116992 0.0123716 
0.149491 0.0479385 0.0653162 0.149624 0.0479949 0.0478573 0.149591 0.0304041 0.0653216 
0.165 0.0666667 0.0666667 0.136453 0.0290396 0.0108172 0.135769 0.0290739 0.0286325 
0.149959 0.0482128 0.0130065 0.149833 0.0306899 0.0304589 0.165 0.0166667 0.0166667 
0.150597 -0.00483197 0.0310315 0.150348 0.0130939 0.0131999 0.14997 0.0129966 0.0307415 
0.144466 0.192041 0.00683775 0.0720934 0.0042428 0.182215 0.153856 0.190751 0.0226881 
0.12084 0.0729221 0.140937 0.0115551 0.0226358 0.0358486 0.153366 0.0615201 0.177466 
0.0235621 0.0741339 0.0470605 0.043615 0.194049 0.0867608 0.0446848 0.140556 0.154271 
0.141494 0.112908 0.140181 0.0616677 0.195673 0.00518412 0.15332 0.125416 0.177665 
0.142584 0.0739042 0.192505 0.020723 0.00818885 0.00738988 0.0536584 0.0729208 0.00498404 
0.113469 0.0186114 0.00489719 0.0615613 0.00489185 0.00509589 0.0225973 0.19219 0.113251 
0.0642767 0.154654 0.141057 0.022263 0.0345993 0.0212771 0.0519435 0.0189673 0.00539124 
0.011752 0.138387 0.0227793 0.153491 0.0870254 0.190677 0.031831 0.179588 0.00668536 
0.111249 0.0728952 0.0453984 0.0112938 0.00943602 0.0230403 0.0723939 0.196145 0.0180975 
0.142175 0.0336092 0.126301 0.0443357 0.0461481 0.0595977 0.153496 0.177341 0.164508 
0.033208 0.0202163 0.0736956 0.0528686 0.0189251 0.0323481 0.0115605 0.113025 0.00949593 
0.121262 0.167421 0.140616 0.0116112 0.0226776 0.164126 0.112937 0.181455 0.00528947 
0.111368 0.168087 0.127214 0.0538952 0.00504872 0.127079 0.133439 0.179604 0.19395 
0.103394 0.195381 0.195222 0.0532577 0.181373 0.0324351 0.0222795 0.0611538 0.00772267 
0.0317739 0.1795 0.193507 0.0449978 0.113603 0.0322404 0.0115958 0.177231 0.0358942 
0.0113546 0.00949914 0.176903 0.153147 0.0612333 0.0741906 0.0207863 0.191752 0.00753805 
0.0113421 0.190446 0.0231167 0.0116981 0.138346 0.177411 0.0434005 0.167103 0.180747 
0.0225586 0.165421 0.0213876 0.0116518 0.177167 0.164138 0.0117328 0.0747359 0.0225479 
0.0115663 0.0874827 0.00944188 0.0114711 0.11298 0.190731 0.0723957 0.00435308 0.0180236 
0.0207859 0.191682 0.192517 0.121925 0.140265 0.194491 0.0116076 0.177542 0.0617346 
0.0114227 0.190772 0.0743743 0.131228 0.113001 0.180537 0.0113962 0.0091673 0.0743391 
0.0445561 0.167666 0.1135 0.0225335 0.126092 0.19244 0.0225107 0.00765202 0.0870425 
0.0223101 0.0610026 0.1923 0.0337809 0.180006 0.139958 0.0115111 0.190567 0.125848 
0.0116925 0.177368 0.138435 0.0434359 0.0059252 0.0866394 0.0226439 0.126209 0.00783489 
0.0225736 0.165378 0.178747 0.0114059 0.190355 0.176882 0.0223747 0.0345443 0.178686 
0.020737 0.00819626 0.192548 0.11167 0.154406 0.181718 0.153336 0.177192 0.138699 
0.0235591 0.139894 0.126411 0.14273 0.165439 0.179222 0.0315368 0.0205495 0.00649165 
0.10338 0.00471896 0.195187 0.0335339 0.0868199 0.179906 0.131156 0.113391 0.0459108 
0.011687 0.0746112 0.177525 0.153536 0.0870491 0.00905063 0.0339814 0.0870501 0.0198658 
0.053283 0.194791 0.0594297 0.0430665 0.0598021 0.194096 0.0115905 0.0224165 0.0617058 
0.153416 0.0222583 0.138605 0.153622 0.190756 0.0740394 0.121548 0.167381 0.0460322 
0.0225743 0.00780149 0.113237 0.0614529 0.00478186 0.195203 0.0116877 0.0226375 0.138422 
0.0519276 0.0188826 0.194794 0.0535781 0.0729001 0.194988 0.0430192 0.0329891 0.180601 
0.132147 0.179971 0.0598141 0.153743 0.190555 0.177223 0.112746 0.0456563 0.00476195 
0.0115002 0.0873654 0.190703 0.0615515 0.195391 0.195357 0.0115059 0.00944503 0.125838 
0.10372 0.00480637 0.00471803 0.111305 0.154518 0.0456949 0.111577 0.168117 0.0729267 
0.102435 0.0181191 0.0451681 0.0435894 0.00593154 0.113494 0.0636317 0.045437 0.182063 
0.0532448 0.0187597 0.167799 0.0642725 0.0453514 0.140998 0.0445462 0.073023 0.154248 
0.0441822 0.0596382 0.16739 0.0235784 0.0601877 0.126292 0.0444996 0.0323632 0.113309 
0.0234609 0.0472263 0.139334 0.0337213 0.0200482 0.139927 0.111596 0.127112 0.195425 
0.153508 0.112628 0.190807 0.133584 0.0199137 0.194081 0.144411 0.00779659 0.192935 
0.113014 0.181349 0.194988 0.142684 0.138972 0.192538 0.142729 0.0341956 0.179238 
0.153734 0.00932512 0.177111 0.153463 0.0225476 0.164399 0.0721748 0.195842 0.182383 
0.0335877 0.139771 0.179941 0.04435 0.153893 0.167509 0.0643889 0.14087 0.168575 
0.0434817 0.126817 0.19418 0.0538684 0.113529 0.194935 0.0442395 0.113517 0.167651 
0.0234723 0.152831 0.139464 0.0925021 0.195742 0.182323 0.0521222 0.181285 0.194919 
0.0522532 0.181504 0.00546296 0.102108 0.0316233 0.18225 0.0925326 0.0586639 0.196351 
0.113219 0.0185097 0.195075 0.101938 0.0180026 0.155009 0.0922645 0.045026 0.168959 
0.0535797 0.181326 0.167941 0.0437064 0.1941 0.11356 0.142747 0.192307 0.0867851 
0.0826035 0.127216 0.127225 0.102002 0.182192 0.141077 0.122056 0.167184 0.181049 
0.0922662 0.168874 0.182534 0.0530738 0.00532993 0.059242 0.144507 0.00782593 0.00692343 
0.0225698 0.192255 0.0870892 0.111181 0.072741 0.168349 0.121424 0.019008 0.127047 
0.121215 0.0459343 0.154157 0.13188 0.0599343 0.180367 0.14231 0.0473414 0.165947 
0.0333488 0.179782 0.0737596 0.142729 0.192176 0.113263 0.0923758 0.182507 0.155065 
0.153503 0.190406 0.126025 0.142777 0.165769 0.0205575 0.120901 0.1407 0.127149 
0.142614 0.0739386 0.00714403 0.142248 0.139487 0.033307 0.1212 0.140712 0.072937 
0.133442 0.179839 0.00591885 0.031589 0.0204945 0.193513 0.0645316 0.141236 0.0453698 
0.153577 0.177564 0.0354549 0.133706 0.0199587 0.00577335 0.102498 0.195829 0.0590975 
0.141553 0.125884 0.153209 0.0827605 0.127269 0.0728422 0.142707 0.139298 0.00697053 
0.153422 0.125508 0.0218424 0.112244 0.181588 0.0323109 0.0826115 0.0728304 0.127326 
0.144353 0.191813 0.193015 0.153449 0.177588 0.0612892 0.0926715 0.19633 0.0451932 
0.103539 0.195597 0.00509134 0.0445788 0.0593984 0.0728977 0.142481 0.165794 0.0469489 
0.131137 0.0462834 0.113422 0.153253 0.0481438 0.138711 0.0929017 0.196154 0.0180425 
0.131301 0.153183 0.153744 0.0433688 0.167214 0.0195115 0.0638014 0.182146 0.0454983 
0.0430312 0.0598902 0.00588731 0.0438066 0.127004 0.00586045 0.0446452 0.154224 0.0730587 
0.0442317 0.167371 0.0597105 0.0236303 0.126296 0.0602397 0.0235112 0.139327 0.0472891 
0.0339553 0.139931 0.0201042 0.0236305 0.0871594 0.0600083 0.121365 0.140603 0.0189705 
0.153252 0.12567 0.047584 0.142169 0.0336953 0.0868198 0.0925705 0.00429072 0.182237 
0.054123 0.113646 0.0049941 0.111172 0.127336 0.0183789 0.0829105 0.072784 0.0728178 
0.121052 0.0458977 0.0730246 0.0427455 0.0331002 0.0194729 0.0931645 0.0043503 0.0178223 
0.153176 0.112847 0.0605205 0.153407 0.0615692 0.0223397 0.0922372 0.169035 0.0453067 
0.153497 0.0225355 0.0355432 0.102609 0.031731 0.0179575 0.0540186 0.195011 0.127204 
0.0637535 0.0316322 0.0453802 0.132012 0.0600537 0.0194553 0.153611 0.00913578 0.0740713 
0.112613 0.0455114 0.195339 0.153402 0.0223846 0.0613949 0.13155 0.0464103 0.0599044 
0.142023 0.0736966 0.0470348 0.153629 0.00903015 0.125921 0.063402 0.0453524 0.018205 
0.112109 0.0185308 0.059131 0.092468 0.0450053 0.0313412 0.0926023 0.0586804 0.00404814 
0.153145 0.0606634 0.112716 0.142675 0.00723077 0.0868812 0.142648 0.00716066 0.11322 
0.142441 0.0473847 0.0338727 0.153572 0.112686 0.00886248 0.153257 0.0483101 0.0612607 
0.142824 0.0342339 0.020585 0.153768 0.00930944 0.0228255 

CELLS 236 3776
15 69 93 88 68 456 511 453 449 451 450 532 527 528 888 1095 
15 28 47 45 44 260 323 259 258 319 318 690 731 989 529 1096 
15 93 69 88 94 456 453 511 523 457 512 532 530 894 531 1097 
15 43 49 86 85 310 349 317 316 348 503 850 916 538 937 1098 
15 5 1 26 6 103 106 124 120 104 129 562 533 682 551 1099 
15 82 86 81 63 495 494 493 423 424 422 534 543 861 769 1100 
15 7 11 48 6 137 169 145 127 128 135 980 535 674 565 1101 
15 37 17 54 38 212 216 289 285 213 291 863 848 825 536 1102 
15 55 13 12 51 191 171 180 361 190 178 658 782 792 783 1103 
15 90 86 49 85 506 349 350 504 503 348 901 537 538 877 1104 
15 37 52 50 36 287 352 286 282 284 283 564 539 540 808 1105 
15 91 92 65 86 519 438 437 507 508 435 764 541 755 618 1106 
15 82 65 86 63 434 435 495 423 421 424 555 542 859 543 1107 
15 25 5 0 26 123 99 100 243 124 101 545 664 560 544 1108 
15 46 32 6 48 269 131 134 326 270 135 957 546 673 1054 1109 
15 57 46 58 62 327 328 383 384 329 388 720 547 706 898 1110 
15 26 41 25 46 249 245 243 252 300 246 549 608 548 553 1111 
15 22 38 39 17 237 290 238 210 213 214 550 847 824 629 1112 
15 55 49 12 54 344 176 180 373 343 179 784 869 830 621 1113 
15 26 5 6 30 124 120 129 248 125 130 551 662 579 1009 1114 
15 25 30 26 46 244 248 243 246 265 252 663 552 1008 553 1115 
15 11 15 16 34 164 194 165 168 198 203 554 639 594 976 1116 
15 82 65 87 86 434 436 496 495 435 505 557 555 754 556 1117 
15 15 34 36 37 198 276 199 200 277 282 558 596 806 586 1118 
15 43 85 64 48 316 429 314 309 340 338 1004 1002 667 1061 1119 
15 1 5 26 0 103 124 106 98 99 101 562 559 560 561 1120 
15 52 37 50 53 287 286 352 368 288 353 564 563 577 944 1121 
15 60 80 59 86 410 401 398 413 492 403 1075 942 1066 853 1122 
15 48 7 6 43 145 127 135 309 143 133 565 932 567 1031 1123 
15 92 71 96 91 465 467 521 519 464 520 705 660 654 566 1124 
15 26 7 43 6 140 143 251 129 127 133 635 681 567 843 1125 
15 6 26 46 42 129 252 134 132 250 304 1007 842 607 1053 1126 
15 32 15 10 11 197 161 162 167 164 160 569 640 568 602 1127 
15 90 71 70 49 463 459 460 350 347 346 868 950 831 572 1128 
15 28 9 8 3 156 146 148 116 115 114 649 584 570 692 1129 
15 68 69 50 66 449 358 357 439 440 356 928 885 914 571 1130 
15 49 90 54 70 350 378 343 346 460 375 879 572 723 832 1131 
15 28 43 7 44 257 143 142 258 308 144 725 573 741 747 1132 
15 92 72 71 67 469 462 465 448 446 445 919 574 762 659 1133 
15 71 56 51 72 381 362 365 462 382 366 799 575 576 761 1134 
15 50 37 16 53 286 204 205 353 288 206 951 577 676 954 1135 
15 5 6 30 32 120 130 125 126 131 264 579 599 958 578 1136 
15 39 19 35 40 228 227 279 292 229 280 641 610 580 803 1137 
15 12 11 50 48 163 170 177 175 169 336 968 979 994 893 1138 
15 21 15 37 16 196 200 234 202 194 204 591 581 595 614 1139 
15 28 4 9 3 118 117 156 116 112 115 651 582 583 584 1140 
15 80 84 58 85 490 396 395 491 499 397 1083 585 1045 987 1141 
15 15 36 20 37 199 231 195 200 282 232 588 586 587 589 1142 
15 15 20 21 37 195 230 196 200 232 234 592 589 590 591 1143 
15 19 18 35 13 218 220 227 185 184 187 642 593 780 623 1144 
15 39 51 35 18 293 281 279 221 222 220 804 823 779 643 1145 
15 15 34 37 16 198 277 200 194 203 204 596 594 952 595 1146 
15 19 23 39 18 224 240 228 218 219 221 648 597 634 644 1147 
15 5 6 32 11 120 131 126 122 128 167 599 598 675 601 1148 
15 10 5 32 11 121 126 162 160 122 167 603 600 601 602 1149 
15 19 33 14 13 226 193 192 185 186 182 605 624 710 604 1150 
15 26 41 46 42 249 300 252 250 299 304 608 606 1010 607 1151 
15 24 19 39 40 225 228 241 242 229 292 646 609 610 611 1152 
15 51 91 67 65 367 447 364 363 437 433 834 749 766 612 1153 
15 17 21 37 16 209 234 212 201 202 204 616 613 614 865 1154 
15 37 22 21 17 236 233 234 212 210 209 617 849 615 616 1155 
15 49 91 65 86 351 437 345 349 507 435 751 902 618 851 1156 
15 7 1 26 2 105 106 140 108 102 109 683 619 620 626 1157 
15 17 55 12 54 217 180 172 216 373 179 656 1028 621 963 1158 
15 19 33 13 35 226 186 185 227 272 187 624 622 787 623 1159 
15 7 2 26 27 108 109 140 141 110 247 626 688 625 637 1160 
15 33 9 8 31 159 146 150 266 158 149 668 627 650 679 1161 
15 55 18 39 17 223 221 295 217 208 214 822 797 633 1027 1162 
15 23 22 39 17 235 238 240 211 210 214 630 628 629 632 1163 
15 18 23 39 17 219 240 221 208 211 214 634 631 632 633 1164 
15 26 7 27 43 140 141 247 251 143 254 637 635 726 636 1165 
15 32 15 11 34 197 164 167 268 198 168 640 638 639 961 1166 
15 39 19 18 35 228 218 221 279 227 220 644 641 642 643 1167 
15 23 19 39 24 224 228 240 239 225 241 648 645 646 647 1168 
15 28 9 31 8 156 158 256 148 146 149 891 649 650 701 1169 
15 28 4 29 9 118 119 255 156 117 157 653 651 652 892 1170 
15 51 91 49 71 367 351 342 365 464 347 752 837 948 839 1171 
15 96 71 90 91 467 463 518 520 464 515 874 654 947 655 1172 
15 13 55 12 17 191 180 171 183 217 172 658 795 656 657 1173 
15 92 71 91 67 465 464 519 448 445 447 660 659 835 767 1174 
15 25 5 26 30 123 124 243 244 125 248 664 661 662 663 1175 
15 47 61 45 60 333 325 323 332 404 324 666 814 665 991 1176 
15 33 49 8 13 274 153 150 186 189 147 697 790 736 669 1177 
15 85 90 64 48 504 432 429 340 341 338 1014 883 997 667 1178 
15 13 9 8 33 154 146 147 186 159 150 670 711 668 669 1179 
15 78 64 84 83 426 428 486 485 427 497 880 671 1080 672 1180 
15 6 32 11 48 131 167 128 135 270 169 675 673 992 674 1181 
15 16 37 54 53 204 289 207 206 288 371 864 676 677 956 1182 
15 47 33 8 31 273 150 152 267 266 149 696 678 679 699 1183 
15 1 7 26 6 105 140 106 104 127 129 683 680 681 682 1184 
15 76 80 60 81 480 410 408 481 489 411 1051 684 939 776 1185 
15 90 94 69 95 516 457 455 517 524 458 923 685 686 829 1186 
15 90 50 70 66 360 359 460 444 356 441 721 982 913 702 1187 
15 7 2 27 28 108 110 141 142 111 253 688 715 687 727 1188 
15 29 28 47 45 255 260 263 262 259 323 694 689 690 691 1189 
15 3 7 8 28 113 136 114 116 142 148 693 717 748 692 1190 
15 29 28 31 47 255 256 261 263 260 267 890 694 700 695 1191 
15 47 33 49 8 273 274 331 152 150 153 698 696 697 729 1192 
15 28 8 31 47 148 149 256 260 152 267 701 732 699 700 1193 
15 90 70 69 66 460 452 455 444 441 440 827 702 912 936 1194 
15 71 97 92 96 468 522 465 467 526 521 921 703 704 705 1195 
15 58 46 64 62 328 330 389 388 329 417 1023 706 707 1032 1196 
15 13 9 33 14 154 159 186 182 155 193 711 708 709 710 1197 
15 39 56 40 51 296 298 292 293 362 297 713 778 712 805 1198 
15 3 7 28 2 113 142 116 107 108 111 717 714 715 716 1199 
15 46 57 58 41 327 383 328 300 301 302 720 718 719 1012 1200 
15 90 50 48 70 360 336 341 460 359 339 998 721 1020 722 1201 
15 90 54 70 48 378 375 460 341 337 339 723 882 1018 722 1202 
15 58 43 64 42 311 314 389 306 303 307 1055 724 1059 1024 1203 
15 28 43 27 7 257 254 253 142 143 141 728 725 726 727 1204 
15 8 49 47 44 153 331 152 151 320 319 729 734 811 730 1205 
15 28 8 47 44 148 152 260 258 151 319 732 746 730 731 1206 
15 43 49 12 44 310 176 173 308 320 174 918 819 733 739 1207 
15 12 49 13 44 176 189 171 174 320 188 794 733 735 737 1208 
15 49 8 13 44 153 147 189 320 151 188 736 734 742 735 1209 
15 12 13 7 44 171 139 138 174 188 144 738 737 743 740 1210 
15 43 12 7 44 173 138 143 308 174 144 931 739 740 741 1211 
15 13 8 7 44 147 136 139 188 151 144 744 742 745 743 1212 
15 7 8 28 44 136 148 142 144 151 258 748 745 746 747 1213 
15 91 51 49 65 367 342 351 437 363 345 752 749 750 751 1214 
15 92 87 65 86 509 436 438 508 505 435 756 753 754 755 1215 
15 63 61 60 82 414 404 405 423 416 412 813 757 758 768 1216 
15 60 61 77 82 404 415 409 412 416 483 760 758 759 770 1217 
15 67 51 72 71 364 366 446 445 365 462 763 836 761 762 1218 
15 91 92 67 65 519 448 447 437 438 433 767 764 765 766 1219 
15 63 60 81 82 405 411 422 423 412 493 862 768 775 769 1220 
15 76 60 77 82 408 409 479 482 412 483 772 773 770 771 1221 
15 60 76 81 82 408 481 411 412 482 493 776 773 774 775 1222 
15 39 56 51 55 296 362 293 295 379 361 778 777 800 820 1223 
15 18 35 13 51 220 187 184 222 281 190 780 779 786 781 1224 
15 55 13 51 18 191 190 361 223 184 222 782 798 781 821 1225 
15 49 55 12 51 344 180 176 342 361 178 784 840 783 791 1226 
15 35 33 13 51 272 186 187 281 275 190 787 785 789 786 1227 
15 33 49 13 51 274 189 186 275 342 190 790 788 793 789 1228 
15 49 12 13 51 176 171 189 342 178 190 794 791 792 793 1229 
15 55 13 18 17 191 184 223 217 183 208 798 795 796 797 1230 
15 71 56 55 51 381 379 380 365 362 361 801 799 800 838 1231 
15 51 40 39 35 297 292 293 281 280 279 805 802 803 804 1232 
15 37 36 50 34 282 283 286 277 276 278 808 806 807 953 1233 
15 47 60 44 65 332 321 319 335 406 322 990 1039 815 810 1234 
15 49 47 44 65 331 319 320 345 335 322 811 809 810 817 1235 
15 47 61 60 63 333 404 332 334 414 405 814 812 813 1036 1236 
15 43 44 60 65 308 321 313 315 322 406 816 818 815 857 1237 
15 43 49 44 65 310 320 308 315 345 322 819 852 817 818 1238 
15 39 51 18 55 293 222 221 295 361 223 823 820 821 822 1239 
15 54 39 38 17 294 290 291 216 214 213 826 1029 824 825 1240 
15 90 70 95 69 460 461 517 455 452 458 867 827 828 829 1241 
15 49 12 54 85 176 179 343 348 181 377 830 917 906 878 1242 
15 71 49 54 70 347 343 376 459 346 375 871 831 832 833 1243 
15 51 91 71 67 367 464 365 364 447 445 837 834 835 836 1244 
15 49 55 51 71 344 361 342 347 380 365 840 872 838 839 1245 
15 6 43 26 42 133 251 129 132 303 250 843 1030 841 842 1246 
15 73 58 78 57 390 393 472 385 383 386 1093 844 897 845 1247 
15 37 22 17 38 236 210 212 285 237 213 849 846 847 848 1248 
15 43 49 65 86 310 345 315 317 349 435 852 850 851 856 1249 
15 59 43 60 86 312 313 398 403 317 413 854 938 855 853 1250 
15 60 43 65 86 313 315 406 413 317 435 857 855 856 858 1251 
15 63 60 65 86 405 406 421 424 413 435 1037 860 858 859 1252 
15 60 63 81 86 405 422 411 413 424 494 862 860 861 941 1253 
15 37 17 16 54 212 201 204 289 216 207 865 863 966 864 1254 
15 71 95 90 70 466 517 463 459 461 460 876 866 867 868 1255 
15 49 55 71 54 344 380 347 343 373 376 872 869 870 871 1256 
15 95 71 90 96 466 463 517 525 467 518 876 873 874 875 1257 
15 88 69 66 89 453 440 442 510 454 443 887 896 935 909 1258 
15 90 49 54 85 350 343 378 504 348 377 879 877 878 884 1259 
15 78 64 62 84 426 417 418 486 428 420 881 880 1033 1017 1260 
15 90 66 89 64 444 443 513 432 425 431 934 983 907 984 1261 
15 54 90 85 48 378 504 377 337 341 340 884 882 883 905 1262 
15 69 68 88 66 449 450 453 440 439 442 888 885 886 887 1263 
15 9 29 28 31 157 255 156 158 261 256 892 889 890 891 1264 
15 54 12 50 48 179 177 354 337 175 336 962 904 893 1019 1265 
15 88 69 89 94 453 454 510 512 457 514 896 894 924 895 1266 
15 78 58 62 57 393 388 418 386 383 384 1087 897 898 899 1267 
15 69 54 50 70 374 354 358 452 375 359 926 900 1021 915 1268 
15 90 86 91 49 506 507 515 350 349 351 903 901 902 949 1269 
15 12 54 85 48 179 377 181 175 337 340 906 904 905 1001 1270 
15 89 66 88 64 443 442 510 431 425 430 909 907 908 910 1271 
15 88 84 89 64 500 501 510 430 428 431 911 1082 985 910 1272 
15 69 70 50 66 452 359 358 440 441 356 915 912 913 914 1273 
15 49 43 12 85 310 173 176 348 316 181 918 916 1003 917 1274 
15 92 72 97 71 469 470 522 465 462 468 922 919 920 921 1275 
15 90 94 89 69 516 514 513 455 457 454 925 923 924 933 1276 
15 69 54 53 50 374 371 372 358 354 353 927 926 955 943 1277 
15 68 69 52 50 449 370 369 357 358 352 930 928 945 929 1278 
15 48 7 43 12 145 143 309 175 138 173 932 978 931 1000 1279 
15 69 90 66 89 455 444 440 454 513 443 936 933 934 935 1280 
15 59 43 86 85 312 317 403 402 316 503 938 1005 937 1069 1281 
15 60 80 86 81 410 492 413 411 489 494 942 939 940 941 1282 
15 69 53 52 50 372 368 370 358 353 352 946 943 944 945 1283 
15 90 71 49 91 463 347 350 515 464 351 950 947 948 949 1284 
15 50 37 34 16 286 277 278 205 204 203 953 951 952 974 1285 
15 54 16 53 50 207 206 371 354 205 353 956 964 954 955 1286 
15 46 32 30 6 269 264 265 134 131 130 959 957 958 1006 1287 
15 32 34 11 50 268 168 167 271 278 170 961 960 973 995 1288 
15 12 17 54 50 172 216 179 177 215 354 963 967 965 962 1289 
15 17 16 54 50 201 207 216 215 205 354 966 970 964 965 1290 
15 11 17 12 50 166 172 163 170 215 177 969 971 967 968 1291 
15 11 16 17 50 165 201 166 170 205 215 972 975 970 971 1292 
15 11 34 16 50 168 203 165 170 278 205 976 973 974 975 1293 
15 11 7 48 12 137 145 169 163 138 175 980 977 978 979 1294 
15 64 50 90 66 355 360 432 425 356 444 999 981 982 983 1295 
15 90 89 84 64 513 501 502 432 431 428 986 984 985 1013 1296 
15 85 59 58 80 402 387 397 491 401 395 1043 1067 1072 987 1297 
15 60 45 47 44 324 323 332 321 318 319 991 988 989 990 1298 
15 11 32 50 48 167 271 170 169 270 336 995 992 993 994 1299 
15 50 64 90 48 355 432 360 336 338 341 999 996 997 998 1300 
15 43 12 85 48 173 181 316 309 175 340 1003 1000 1001 1002 1301 
15 59 43 85 64 312 316 402 399 314 429 1005 1056 1004 1044 1302 
15 30 6 26 46 130 129 248 265 134 252 1009 1006 1007 1008 1303 
15 46 41 58 42 300 302 328 304 299 306 1012 1010 1011 1025 1304 
15 90 84 85 64 502 499 504 432 428 429 1015 1013 1048 1014 1305 
15 84 62 78 79 420 418 486 488 419 484 1017 1077 1089 1016 1306 
15 70 54 50 48 375 354 359 339 337 336 1021 1018 1019 1020 1307 
15 78 74 79 58 474 475 484 393 391 394 1022 1094 1041 1090 1308 
15 58 46 42 64 328 304 306 389 330 307 1025 1023 1064 1024 1309 
15 54 39 17 55 294 214 216 373 295 217 1029 1026 1027 1028 1310 
15 43 6 48 42 133 135 309 303 132 305 1031 1030 1052 1060 1311 
15 84 64 62 58 428 417 420 396 389 388 1033 1047 1032 1078 1312 
15 58 80 75 74 395 478 392 391 476 473 1071 1042 1034 1035 1313 
15 47 60 65 63 332 406 335 334 405 421 1039 1036 1037 1038 1314 
15 58 80 74 79 395 476 391 394 487 475 1042 1085 1040 1041 1315 
15 85 59 64 58 402 399 429 397 387 389 1044 1043 1057 1046 1316 
15 84 85 64 58 499 429 428 396 397 389 1048 1045 1046 1047 1317 
15 60 75 80 76 407 478 410 408 477 480 1073 1049 1050 1051 1318 
15 48 6 46 42 135 134 326 305 132 304 1054 1052 1053 1063 1319 
15 58 43 59 64 311 312 387 389 314 399 1058 1055 1056 1057 1320 
15 64 43 48 42 314 309 338 307 303 305 1061 1059 1060 1062 1321 
15 64 48 46 42 338 326 330 307 305 304 1065 1062 1063 1064 1322 
15 86 59 85 80 403 402 503 492 401 491 1069 1066 1067 1068 1323 
15 59 58 80 75 387 395 401 400 392 478 1072 1070 1071 1074 1324 
15 60 75 59 80 407 400 398 410 478 401 1076 1073 1074 1075 1325 
15 62 84 58 79 420 396 388 419 488 394 1078 1077 1084 1088 1326 
15 88 84 64 83 500 428 430 498 497 427 1082 1079 1080 1081 1327 
15 80 84 79 58 490 488 487 395 396 394 1086 1083 1084 1085 1328 
15 78 58 79 62 393 394 484 418 388 419 1090 1087 1088 1089 1329 
15 78 74 58 73 474 391 393 472 471 390 1094 1091 1092 1093 1330 

CELL_TYPES 236
24
24
24
24
24
24
24
24
24
24
24
24
24
24
24
24
24
24
24
24
24
24
24
24
24
24
24
24
24
24
24
24
24
24
24
24
24
24
24
24
24
24
24
24
24
24
24
24
24
24
24
24
24
24
24
24
24
24
24
24
24
24
24
24
24
24
24
24
24
24
24
24
24
24
24
24
24
24
24
24
24
24
24
24
24
24
24
24
24
24
24
24
24
24
24
24
24
24
24
24
24
24
24
24
24
24
24
24
24
24
24
24
24
24
24
24
24
24
24
24
24
24
24
24
24
24
24
24
24
24
24
24
24
24
24
24
24
24
24
24
24
24
24
24
24
24
24
24
24
24
24
24
24
24
24
24
24
24
24
24
24
24
24
24
24
24
24
24
24
24
24
24
24
24
24
24
24
24
24
24
24
24
24
24
24
24
24
24
24
24
24
24
24
24
24
24
24
24
24
24
24
24
24
24
24
24
24
24
24
24
24
24
24
24
24
24
24
24
24
24
24
24
24
24
24
24
24
24
24
24
24
24
24
24
24
24

POINT_DATA 1331
VECTORS displacement float
0 0 0
0 0 0
0 0 0
0 0 0
0 0 0
0 0 0
0 0 0
0 0 0
0 0 0
0 0 0
0 0 0
0 0 0
0 0 0
0 0 0
0 0 0
0 0 0
0 0 0
0 0 0
0 0 0
0 0 0
0 0 0
0 0 0
0 0 0
0 0 0
0 0 0
-0.0111543 -0.00726982 -0.00717536
-0.00890375 -0.00708097 -0.00359266
-0.00740369 -0.00741961 7.80193e-05
-0.00845193 -0.0073463 0.0036369
-0.0113569 -0.00734893 0.00727888
-0.0083561 -0.00337676 -0.007482
-0.00828271 -0.00345792 0.00748141
-0.00773208 0.000264982 -0.00731355
-0.00799457 4.98721e-05 0.00721808
-0.00764178 0.0037578 -0.00739645
-0.00778182 0.00357002 0.00756122
-0.0113106 0.00753264 -0.00700995
-0.00885974 0.00713447 -0.0034227
-0.00727128 0.00737728 0.000149776
-0.00830454 0.00733833 0.00362783
-0.0114195 0.00745564 0.00726861
-0.0175719 -0.00926106 -0.00888265
-0.0172013 -0.0101748 -0.00515391
-0.0167807 -0.0103874 -0.000181829
-0.0184152 -0.0102488 0.0049164
-0.0177022 -0.00935266 0.00914798
-0.0177786 -0.00531569 -0.00973886
-0.0178779 -0.00518916 0.0102409
-0.0170977 -9.13317e-05 -0.010428
-0.0165553 -2.88292e-05 0.0105864
-0.0178978 0.00549331 -0.0106107
-0.0175822 0.00518916 0.0105836
-0.017493 0.00981558 -0.00887471
-0.0175901 0.0104638 -0.00485578
-0.0163507 0.0104862 0.000142621
-0.0181853 0.0101781 0.00508321
-0.0175323 0.00946283 0.0093163
-0.0236825 -0.00806924 -0.00758955
-0.0262229 -0.00806842 -0.00371338
-0.0277333 -0.00772941 0.000247198
-0.0265426 -0.00781378 0.00372531
-0.0238544 -0.0081147 0.0074386
-0.0263913 -0.00372474 -0.00856319
-0.0263109 -0.00385243 0.00854839
-0.0278386 0.000163179 -0.0081943
-0.02728 1.95055e-05 0.008155
-0.0275625 0.00378943 -0.00797781
-0.0268275 0.00360155 0.00778284
-0.0238992 0.00759521 -0.00742729
-0.0256155 0.00765865 -0.003563
-0.027045 0.00781902 0.000105038
-0.0260652 0.00795402 0.00361852
-0.0237934 0.00758497 0.0073815
-0.035 0 0
-0.035 0 0
-0.035 0 0
-0.035 0 0
-0.035 0 0
-0.035 0 0
-0.035 0 0
-0.035 0 0
-0.035 0 0
-0.035 0 0
-0.035 0 0
-0.035 0 0
-0.035 0 0
-0.035 0 0
-0.035 0 0
-0.035 0 0
-0.035 0 0
-0.035 0 0
-0.035 0 0
-0.035 0 0
-0.035 0 0
-0.035 0 0
-0.035 0 0
-0.035 0 0
-0.035 0 0
0 0 0
0 0 0
-0.0064638 -0.00444055 -0.00621557
-0.00377392 -0.00555088 -0.00364729
0 0 0
0 0 0
0 0 0
0 0 0
-0.00306052 -0.0056539 -0.00242909
0 0 0
0 0 0
-0.00325053 -0.00580163 -0.00135979
-0.00299788 -0.00552331 0.000131143
-0.00311268 -0.00562647 0.00156805
0 0 0
0 0 0
0 0 0
0 0 0
-0.00291567 -0.00556077 0.00247804
0 0 0
-0.00367592 -0.0055231 0.00358734
-0.00655996 -0.00445009 0.00619153
0 0 0
0 0 0
0 0 0
-0.0051662 -0.0032329 -0.00566103
-0.0028729 -0.00396969 -0.00362184
-0.00387513 -0.002074 -0.00527971
-0.00286554 -0.00020559 -0.00572179
0 0 0
0 0 0
-0.00266226 -0.00384492 -0.00211377
-0.00277657 -0.00208896 -0.00373099
-0.00205029 -0.000572096 -0.00410545
-0.00713971 -0.0053114 -0.00364423
-0.00632089 -0.00563611 -0.00183997
-0.00699427 -0.00351585 -0.00546609
-0.00581899 -0.00168879 -0.00596194
0 0 0
0 0 0
0 0 0
0 0 0
-0.00240503 -0.00403641 -0.0010508
-0.00214558 -0.00393555 0.000117527
-0.00212517 -0.00386247 0.00124178
-0.00604414 -0.00577234 -0.000131828
-0.00551802 -0.00596305 0.00208248
-0.0051336 -0.00172802 -0.00430433
0 0 0
0 0 0
-0.00229126 -0.00378319 0.00227308
-0.00261958 -0.00218474 0.00369402
-0.00218976 -0.000779366 0.00408134
-0.00604081 -0.00568318 0.00383901
-0.00671799 -0.00360775 0.00553428
-0.00615451 -0.00184166 0.00580976
0 0 0
0 0 0
-0.0027431 -0.00396971 0.00361476
-0.00518769 -0.00323506 0.00564366
-0.00375495 -0.00215279 0.00528845
-0.00293154 -0.000388957 0.00576748
0 0 0
0 0 0
-0.00281525 0.000407303 -0.00551826
0 0 0
0 0 0
0 0 0
0 0 0
-0.0020575 0.000359425 -0.00376049
-0.00191995 0.00128637 -0.0038305
-0.00517566 3.96178e-05 -0.00604373
-0.00526407 0.00221994 -0.00589917
0 0 0
0 0 0
-0.00578643 -0.00426855 -7.76603e-05
-0.00519083 -0.00426012 0.00203707
-0.00516169 5.55673e-05 -0.00435305
-0.00590783 1.27686e-05 0.00446237
-0.00496032 0.00214926 -0.00419376
-0.00554296 0.00199771 0.00426677
-0.0057227 0.00430549 7.26116e-05
-0.00530612 0.00418016 0.00216873
-0.0173375 4.57041e-06 3.98175e-05
0 0 0
0 0 0
0 0 0
0 0 0
-0.00224328 0.000202371 0.00397419
-0.0020963 0.00118189 0.00404901
-0.00545808 -0.00412015 0.00388623
-0.00597824 -5.21147e-05 0.00596002
-0.00594696 0.001984 0.00586913
-0.0052892 0.00418953 0.00397764
0 0 0
-0.00295107 0.000247486 0.00573686
0 0 0
0 0 0
0 0 0
-0.00306582 0.00107008 -0.00555184
-0.00313019 0.00234045 -0.0051118
-0.00498574 0.00317124 -0.00547557
-0.00282277 0.00385507 -0.00354182
0 0 0
0 0 0
-0.00221314 0.00223118 -0.00362019
-0.00261542 0.00377847 -0.00204045
-0.00585624 0.00393502 -0.00555943
-0.0066767 0.00552843 -0.00352394
-0.00611601 0.00569185 -0.00173582
0 0 0
0 0 0
0 0 0
0 0 0
-0.00234343 0.00398372 -0.0010069
-0.00209925 0.00388191 0.000139402
-0.00210748 0.0038928 0.00126211
-0.00531745 0.003925 -0.00404126
-0.00584116 0.00578522 3.52277e-05
-0.00546013 0.00598711 0.00217539
0 0 0
0 0 0
-0.00230741 0.00214743 0.00389067
-0.00226301 0.0036943 0.00228123
-0.00615954 0.00374444 0.00582724
-0.00578667 0.0057973 0.00392462
0 0 0
0 0 0
-0.00322835 0.00095859 0.00583359
-0.00324931 0.00223657 0.00537387
-0.00269647 0.00380921 0.0036436
-0.00509991 0.00310825 0.00560521
0 0 0
-0.00643695 0.0043984 -0.00608097
-0.00374961 0.00548912 -0.00351398
0 0 0
-0.0030347 0.00560173 -0.00236454
0 0 0
-0.00320463 0.00572486 -0.00128305
-0.00294941 0.00546316 0.000165145
-0.00309308 0.00561745 0.00159311
0 0 0
-0.00285305 0.00543561 0.00251664
-0.00361536 0.0053821 0.00356341
-0.00654809 0.00433797 0.00616982
-0.00982292 -0.00725157 -0.00564623
-0.00919428 -0.00532227 -0.00757341
-0.0144213 -0.00852372 -0.00803704
-0.0134174 -0.00678861 -0.0084003
-0.00804789 -0.00732289 -0.00174165
-0.0076907 -0.00529504 -0.00566699
-0.0136729 -0.00838378 -0.0064643
-0.0129085 -0.00858891 -0.00463983
-0.0124622 -0.0087647 -0.00258754
-0.0124036 -0.0066828 -0.00659803
-0.00787249 -0.00735231 0.00184484
-0.0118713 -0.00892126 -0.000146111
-0.00979431 -0.00735981 0.00573378
-0.00754836 -0.00540564 0.00572919
-0.0122015 -0.00906472 0.00223092
-0.013171 -0.00889799 0.00457306
-0.0137383 -0.00855435 0.00673287
-0.0124166 -0.00677252 0.00684999
-0.00925076 -0.00539975 0.00766847
-0.0145916 -0.00861167 0.0083217
-0.0135279 -0.00682571 0.00864802
-0.00794578 -0.00173707 -0.00744357
-0.0129543 -0.00460713 -0.00869097
-0.0079669 -0.00182512 0.00743027
-0.0129569 -0.00456697 0.00888632
-0.00758799 0.00189196 -0.00740989
-0.0121686 -0.00245867 -0.00899557
-0.011994 5.88356e-05 -0.00910821
-0.0120182 0.00242017 -0.00916816
-0.00775546 0.00172148 0.00752622
-0.0121594 -0.00237658 0.00904194
-0.0119998 -6.98467e-05 0.00896499
-0.011997 0.00224303 0.00910549
-0.00889385 0.00572043 -0.00743422
-0.00730247 0.00560369 -0.00549367
-0.0125567 0.00500635 -0.00893466
-0.00730901 0.00549932 0.00577597
-0.00907646 0.00552916 0.00772724
-0.0125328 0.00468243 0.00904893
-0.00987117 0.00741203 -0.00544312
-0.0132503 0.00739121 -0.00838211
-0.0144792 0.00914325 -0.00782646
-0.00794545 0.00729743 -0.00159134
-0.0120746 0.00712728 -0.00658781
-0.0136294 0.00887228 -0.00628202
-0.0129823 0.00887037 -0.00436219
-0.0122945 0.00883979 -0.00226932
-0.00775796 0.00738187 0.00187292
-0.0116056 0.00895162 7.26866e-05
-0.00977996 0.00738811 0.00573125
-0.0122249 0.00690331 0.00700625
-0.0119981 0.00910449 0.00236247
-0.0129541 0.00891677 0.00468969
-0.0136421 0.00866762 0.00683276
-0.0133976 0.00700185 0.00880876
-0.0145285 0.00878172 0.00839393
-0.0172521 -0.00925072 -0.00732393
-0.0175258 -0.00755466 -0.00931294
-0.0206141 -0.00856582 -0.00847537
-0.0209915 -0.00851662 -0.00684098
-0.0169371 -0.0102675 -0.00280528
-0.0171396 -0.00759099 -0.00746381
-0.0170047 -0.00514659 -0.00758394
-0.0216772 -0.00868584 -0.00478112
-0.0226286 -0.00467143 -0.00705555
-0.0171065 -0.010514 0.0024144
-0.0169917 -0.00514925 -0.00492917
-0.017006 -0.00504725 0.00503163
-0.0220791 -0.00885662 -0.00250471
-0.0226083 -0.0088679 5.40979e-05
-0.0222435 -0.00927417 0.00249979
-0.0231475 -0.00465799 -0.00476687
-0.0235375 -0.00473115 0.00508967
-0.0291309 -0.00424478 0.000182425
-0.029176 -0.00415158 0.00217772
-0.0177417 -0.00934194 0.00739101
-0.0176924 -0.00758745 0.00772047
-0.0172602 -0.00500975 0.00782448
-0.0226779 -0.00862798 0.00482246
-0.0230632 -0.00479092 0.00736622
-0.0176706 -0.00758933 0.00966763
-0.0214404 -0.00854918 0.00672908
-0.0208007 -0.00871902 0.00833465
-0.0171613 -0.00281956 -0.0101266
-0.0214464 -0.00682845 -0.00872063
-0.0219495 -0.00675912 -0.00694486
-0.0218592 -0.00479853 -0.00890809
-0.022414 -0.00257899 -0.00908553
-0.0169899 -0.00271491 0.0104249
-0.0224374 -0.0068532 0.00701401
-0.0216744 -0.00697104 0.00869767
-0.0218533 -0.00495532 0.00907903
-0.0222003 -0.00267538 0.00946967
-0.0174025 0.00275281 -0.010444
-0.0169427 0.00524106 -0.00472639
-0.0227769 -0.000140846 -0.00915948
-0.0234378 0.00494958 -0.00452442
-0.0290189 0.000133923 -0.0044907
-0.0289653 0.00197975 -0.00432817
-0.01683 0.00269927 0.0105491
-0.017038 0.00506336 0.00493005
-0.0169838 0.005163 0.00778419
-0.0224118 -0.000263566 0.00964272
-0.0235627 0.00495695 0.00462951
-0.0230457 0.00493892 0.00718437
-0.0293199 2.4494e-06 0.00456776
-0.0292245 -0.000225514 0.00629562
-0.0294942 0.00180503 0.00460516
-0.0290011 0.00164202 0.006356
-0.0175018 0.00803318 -0.00952868
-0.0173206 0.00812591 -0.00750544
-0.017059 0.00802221 -0.00492324
-0.0226938 0.00262627 -0.00887863
-0.0229133 0.00495178 -0.00878977
-0.0217373 0.00726856 -0.00845316
-0.0224609 0.00717128 -0.0066769
-0.0230034 0.00730536 -0.00450063
-0.0286608 0.0039526 -0.00396361
-0.0178026 0.00755218 0.00785039
-0.0175353 0.0076563 0.00988464
-0.0223156 0.0023329 0.0095193
-0.0223104 0.00474483 0.00917518
-0.0225477 0.00713018 0.00698358
-0.0216604 0.00702718 0.00875236
-0.0283426 0.00369967 0.00602965
-0.0173755 0.00986222 -0.00718199
-0.0205413 0.00910717 -0.00799743
-0.0210063 0.0088692 -0.00643043
-0.0168378 0.0104622 -0.00247532
-0.0218598 0.00907045 -0.00462016
-0.016941 0.0104597 0.00265194
-0.0218718 0.00930405 -0.0023207
-0.0220362 0.0095284 0.000133838
-0.0222143 0.00911828 0.00263227
-0.0285037 0.00430417 4.12945e-05
-0.0280182 0.00596561 6.44294e-05
-0.0177338 0.00944014 0.00753504
-0.0226545 0.00866524 0.00490023
-0.0214241 0.00862316 0.00674997
-0.0206284 0.00881833 0.00831488
-0.0249629 -0.00802345 -0.00604137
-0.0255148 -0.00597214 -0.00830119
-0.028207 -0.00473593 -0.00668872
-0.0295766 -0.00363049 -0.0062709
-0.0270827 -0.00796847 -0.00174009
-0.0268927 -0.00597814 -0.00633054
-0.0277067 -0.00400391 -0.00626476
-0.0310897 -0.00580806 -0.00402371
-0.0319434 -0.00580527 -0.00276833
-0.0316498 -0.00608283 -0.00162039
-0.0319554 -0.00432154 -0.0042747
-0.0324045 -0.00416066 -0.0028285
-0.0325319 -0.00446641 -0.00136145
-0.0326158 -0.00262522 -0.00277567
-0.0328725 -0.00282309 -0.00131392
-0.0271872 -0.0079137 0.00211114
-0.0284313 -0.00399857 -0.00409961
-0.0318297 -0.00588902 6.80392e-05
-0.0327035 -0.00452815 2.35982e-05
-0.0330691 -0.00321305 1.11949e-06
-0.0330347 -0.00338707 0.00113872
-0.0252127 -0.0079664 0.00592764
-0.027132 -0.00599557 0.0063013
-0.0279273 -0.00411529 0.00625718
-0.0316139 -0.00620805 0.00167882
-0.0320476 -0.00574144 0.00273338
-0.031175 -0.00580112 0.00389546
-0.0325895 -0.00456987 0.0013537
-0.0325292 -0.00412272 0.00275081
-0.0320372 -0.00432429 0.00415284
-0.0328063 -0.00260504 0.00266146
-0.0256375 -0.00610005 0.00820852
-0.0283278 -0.00477895 0.006518
-0.0296692 -0.00368445 0.00611366
-0.0271387 -0.00172951 -0.00841405
-0.0313148 -0.00249535 -0.00589898
-0.0323586 -0.00248076 -0.00446303
-0.0325824 -0.00116733 -0.00438097
-0.0268767 -0.0018591 0.00840853
-0.0324559 -0.00253856 0.00424687
-0.0313508 -0.00258529 0.00569436
-0.0326841 -0.00121557 0.00408441
-0.0276401 0.00222908 -0.00803752
-0.0316665 -0.000912161 -0.00630018
-0.0321757 -0.0001299 -0.00612904
-0.0327882 -7.21693e-05 -0.0047747
-0.032928 0.000168809 -0.00338425
-0.0321309 0.000636056 -0.00631378
-0.0327257 0.00111942 -0.00503936
-0.032982 0.00120658 -0.00380677
-0.0269275 0.00199223 0.00797177
-0.0317093 -0.000883808 0.00595184
-0.0326924 6.55018e-05 0.00409971
-0.0321083 -0.000231261 0.00582215
-0.0328818 0.000823387 0.0044
-0.0320469 0.00035301 0.00602134
-0.0260197 0.00569248 -0.00784531
-0.0272487 0.0056789 -0.00599768
-0.0279199 0.00583272 -0.00387615
-0.0313469 0.00244041 -0.00590803
-0.0322793 0.00256183 -0.00458324
-0.0325949 0.00258597 -0.00319435
-0.0273352 0.0056855 0.00602582
-0.0258299 0.00558822 0.00792109
-0.0324269 0.00217506 0.00406133
-0.0312491 0.00210171 0.00560338
-0.0248541 0.00756288 -0.00578869
-0.0298112 0.00355481 -0.00626714
-0.0284004 0.00459675 -0.0067469
-0.0265104 0.00781374 -0.00167204
-0.0319137 0.00422481 -0.00433226
-0.0323447 0.00414218 -0.00295793
-0.0325165 0.00403692 -0.00159745
-0.0309728 0.00577442 -0.00418703
-0.0317154 0.00598088 -0.00280102
-0.0316059 0.00587799 -0.00169618
-0.0266451 0.00813753 0.00171922
-0.032095 0.00376382 1.38585e-05
-0.0316114 0.00555005 4.7172e-05
-0.0250375 0.00755729 0.00585034
-0.0325541 0.00368234 0.00151639
-0.0323742 0.00375776 0.00295175
-0.0320981 0.00399657 0.00417092
-0.0317435 0.00557937 0.00179653
-0.0319625 0.00559246 0.00274078
-0.0311715 0.00554043 0.00404806
-0.0298184 0.00326827 0.00611559
-0.0283947 0.00440108 0.00663071
-0.035 0 0
-0.035 0 0
-0.035 0 0
-0.035 0 0
-0.035 0 0
-0.035 0 0
-0.035 0 0
-0.035 0 0
-0.035 0 0
-0.035 0 0
-0.035 0 0
-0.035 0 0
-0.035 0 0
-0.035 0 0
-0.035 0 0
-0.035 0 0
-0.035 0 0
-0.035 0 0
-0.035 0 0
-0.035 0 0
-0.035 0 0
-0.035 0 0
-0.035 0 0
-0.035 0 0
-0.035 0 0
-0.035 0 0
-0.035 0 0
-0.035 0 0
-0.035 0 0
-0.035 0 0
-0.035 0 0
-0.035 0 0
-0.035 0 0
-0.035 0 0
-0.035 0 0
-0.035 0 0
-0.035 0 0
-0.035 0 0
-0.035 0 0
-0.035 0 0
-0.035 0 0
-0.035 0 0
-0.035 0 0
-0.035 0 0
-0.035 0 0
-0.035 0 0
-0.035 0 0
-0.035 0 0
-0.035 0 0
-0.035 0 0
-0.035 0 0
-0.035 0 0
-0.035 0 0
-0.035 0 0
-0.035 0 0
-0.035 0 0
-0.0283361 0.00643038 -0.00617687
-0.0306172 0.00267987 -0.00529947
-0.0150669 -0.00904484 0.00629738
-0.0326112 0.00494397 -0.00245851
-0.035 0 0
-0.0329325 0.00353393 -0.00360218
0 0 0
-0.035 0 0
0 0 0
-0.0104294 0.00837624 -0.00131073
-0.035 0 0
-0.0321272 -0.000230562 0.00360545
-0.0126852 0.00849854 -0.00652669
-0.0149354 0.00840059 -0.00852093
-0.035 0 0
-0.0300007 -0.00183946 0.00691174
-0.0336304 -0.00104434 0.00346955
-0.00645741 -0.00614789 -0.00564776
-0.00418756 -0.00256073 -0.00485018
-0.0135901 -0.00181394 -0.00952655
-0.0231155 -0.0058952 -0.00860247
-0.0150362 -0.00774846 -0.0085293
-0.0126779 -0.0080313 -0.00674537
-0.00447414 0.00645436 0.00110654
-0.00136081 -0.00249959 -0.00228213
-0.0116473 -0.00566731 -0.00817622
-0.011669 -0.00692306 -0.00687331
0 0 0
-0.0336677 -0.000594037 0.00362436
-0.035 0 0
-0.0329862 -0.000742277 0.00489937
-0.00563708 0.00365861 -0.00626983
0 0 0
-0.0018968 -0.00336965 -0.00314032
-0.00218479 -0.00468965 -0.00205237
-0.00156986 -0.00350998 -0.0022691
-0.0147929 0.00929224 -0.00596196
-0.0143861 0.00815141 -0.00747399
-0.00254849 -0.00169549 -0.00330775
-0.035 0 0
-0.00349344 -0.00390568 -0.000837951
0 0 0
-0.00189405 0.000843843 -0.00463815
0 0 0
-0.0237611 0.00607367 -0.00829005
-0.0288541 0.00385619 0.00285748
-0.0140351 -0.00952914 0.00304737
-0.0289924 0.0036099 0.00686795
-0.0223223 0.00828953 0.00699751
-0.0200238 0.0079854 0.00888398
-0.0138739 0.00814947 -0.00613636
-0.00482689 -0.00148172 -0.00656228
-0.00178436 -0.00150437 -0.00311147
-0.0057886 0.00356382 0.00645003
0 0 0
-0.00209935 -0.00460369 0.00202829
0 0 0
-0.00148233 -0.00344992 0.00223221
-0.035 0 0
-0.00525285 0.0048172 -0.00531686
-0.00649917 0.00614346 -0.00547962
-0.00406726 0.00247814 -0.00472616
-0.00185546 0.00326678 -0.0030462
-0.00213058 0.00457432 -0.00197459
-0.00152116 0.00336407 -0.00219114
0 0 0
0 0 0
-0.00132622 0.00163929 -0.00300956
-0.00130685 0.00234318 -0.0022399
-0.00424543 0.00389476 -0.00494296
0 0 0
0 0 0
-0.00131635 -0.000618492 -0.00345162
0 0 0
-0.00125124 -7.32177e-05 -0.00349876
-0.00123814 0.000306394 -0.00334953
-0.00186921 -0.00020616 -0.00469352
0 0 0
-0.00203869 0.000786603 0.00492556
-0.0147239 -0.0088386 -0.00617833
-0.0139541 -0.00774375 -0.00622949
-0.0144928 -0.0076356 -0.00746787
-0.00413135 0.00243024 0.004747
-0.00522372 0.00476749 0.00546639
-0.00649612 0.00606383 0.00560762
-0.0240003 0.00306328 0.0089242
0 0 0
-0.00141673 0.00333451 -0.00157426
0 0 0
-0.00147399 0.00374621 -0.000981374
-0.00211427 0.00487621 -0.00136308
-0.0338835 0.000377742 0.00286376
0 0 0
-0.00215647 -0.00494888 -0.00142514
-0.00870341 0.0061371 0.00151245
-0.00455208 0.00176822 0.00668388
-0.00132118 0.000985745 0.00347071
-0.00135667 0.000627411 0.00366135
-0.00456216 -0.00659974 -0.00083919
-0.00138006 -0.00361593 -0.000481616
-0.00478258 -0.00163648 0.0066079
0 0 0
-0.00127998 0.00339384 0.000726471
-0.001978 0.00462763 0.00157278
0 0 0
-0.00133489 0.00349816 0.00118122
-0.00109966 0.00255322 0.00101674
-0.00129809 0.00314965 0.00169379
-0.00642351 -0.00626289 -0.00116704
-0.0105991 -0.00835381 -0.00155053
-0.00363648 -0.00529166 -0.000875637
-0.00446344 0.00192318 -0.00639477
-0.00123567 0.00103818 -0.00321352
-0.00125472 0.000687081 -0.00340496
-0.00426364 0.00381235 0.00512219
-0.001382 0.0015931 0.00321273
-0.00358615 0.00375834 0.00404501
-0.00124878 0.00230763 0.00230797
0 0 0
-0.00178776 0.00318248 0.00303845
-0.00202646 0.00443908 0.00202435
-0.00142952 0.00327059 0.00222887
-0.00128846 -0.00249412 0.00226411
-0.00168751 -0.00158209 0.00307993
-0.00183045 -0.00332332 0.00305961
-0.0041968 -0.00254866 0.00478452
-0.00649102 -0.00616097 0.00563057
-0.0335512 0.0032503 0.00201076
-0.035 0 0
-0.00251273 0.00351883 0.00119538
0 0 0
-0.00243338 0.00253801 0.00236114
-0.0304678 0.00386317 0.00560613
-0.0335518 0.00246478 0.00284773
-0.00606804 -0.00349046 -0.00645451
-0.00458401 -0.0037582 -0.00512494
-0.00851428 -0.00589206 -0.00643572
-0.0053792 -0.00480611 -0.00549273
-0.0224508 -0.0083143 0.00703725
-0.0200951 -0.00784538 0.00878153
-0.028846 0.000115699 -0.00561375
-0.00135384 -0.000781062 0.00350639
-0.00114748 -0.000290734 0.0026581
0 0 0
-0.0329466 -0.000721343 -0.00514618
-0.035 0 0
-0.00606942 -0.000948842 -0.00661377
-0.00253809 -0.000724568 -0.00442542
-0.00104224 -0.000155537 -0.00260349
-0.00708132 0.00604286 -0.00349921
-0.0138868 0.00944396 -0.00317984
-0.0107707 -0.00297161 0.00849768
-0.00374571 -0.00164334 0.00533721
0 0 0
-0.00124946 -0.0026976 -0.00077386
-0.00144473 -0.00340625 -0.00162387
-0.00149522 -0.00379578 -0.00101516
-0.035 0 0
-0.035 0 0
-0.0327673 0.00494884 -0.00173737
-0.00450252 -0.00647113 0.00108907
-0.00130457 -0.00332239 0.000125785
-0.0127604 -0.00816256 0.00698717
-0.0146261 -0.00771427 0.0078064
-0.0151712 -0.0078241 0.00885383
-0.00133576 -0.00324922 0.00167698
0 0 0
-0.0117077 -0.00703442 0.00710483
-0.0117293 -0.00569307 0.00837794
-0.00668269 -0.00238811 0.00631976
-0.00635695 -0.00111896 0.0064223
-0.0135565 -0.00170072 0.00956734
-0.00700724 -0.00359389 0.00612976
-0.010792 -0.00566796 0.00716878
-0.00379173 -0.00380061 0.00398573
-0.0312911 0.004054 -0.00237165
-0.0327924 0.00467567 0.00233999
-0.035 0 0
-0.0333826 0.00351339 0.0026404
-0.0235851 -0.00585675 -0.00742177
-0.0238076 -0.00310014 -0.00882841
0 0 0
-0.00196308 -0.000392387 0.00484662
-0.00133408 0.000203534 0.0035846
-0.00131677 -0.000211298 0.00361736
-0.0150631 0.00799423 0.0090335
-0.0127096 0.00830206 0.00705794
0 0 0
-0.00129273 -0.00338712 0.000713843
-0.00199734 -0.00464666 0.00154526
-0.00134399 -0.00348178 0.00116001
-0.0198716 -0.00771132 -0.00879427
-0.0221216 -0.00827853 -0.00721062
-0.0229487 -0.00719849 -0.00728534
-0.0282854 0.00517426 -0.00261887
-0.0285039 0.00393389 -0.00268348
-0.0278112 0.00655361 7.40961e-05
-0.0203814 -0.00920946 -0.00346711
-0.00618168 -0.00628983 0.00129677
-0.00627715 -0.00628567 5.76878e-05
-0.00347018 -0.00518531 0.00109903
-0.0104789 -0.00847126 0.00135285
-0.00963706 -0.00289136 0.00740605
-0.0098871 -0.00576042 0.00585188
-0.0142176 -0.00782742 0.00641953
-0.00683197 -0.00485615 0.00496967
-0.00876331 -0.00291149 0.00471401
-0.0093668 -0.00427764 0.00603932
-0.00888386 -0.00294766 0.00613698
-0.00326046 -0.000990528 0.0040211
-0.00243392 -0.00245907 0.00224955
0 0 0
-0.00872303 -0.00614685 0.00134635
-0.00250915 -0.00349681 0.00105466
-0.00915438 -0.00739354 0.00129778
-0.00285687 -0.00310554 0.00299441
-0.00242501 -0.0034615 0.00198224
0 0 0
-0.00271557 -0.00424239 0.00217205
-0.00663623 -0.00624329 0.00374364
-0.0061468 -0.00643772 0.00258384
-0.00109882 -0.00252687 0.0010168
-0.0283361 0.00243001 0.0067279
-0.0205113 0.00163732 0.00995047
-0.0287031 0.0010147 0.00705096
-0.025115 0.00298505 0.00772475
-0.035 0 0
-0.0336973 -0.000165287 0.00361421
-0.0336686 0.000259972 0.00382371
-0.0330029 0.000362567 0.00500539
-0.028758 -0.00408768 0.00702164
-0.0295706 -0.00540218 0.00595738
-0.0306382 -0.00281069 0.00509892
-0.0283913 -0.00661168 0.0059679
-0.0233358 0.00726869 0.00720022
-0.0264751 0.00618037 0.00675135
-0.02342 0.00593413 0.00856552
-0.0336531 0.000758333 0.00364963
-0.0301427 0.00164408 0.00691754
-0.0312994 0.00169487 0.00566185
-0.0333208 0.00152838 0.00334803
-0.0303006 -0.00434109 0.0056861
-0.0334255 -0.00184624 0.00344882
-0.0330297 -0.00359027 0.00337293
-0.035 0 0
-0.0327928 -0.00479243 0.00222745
-0.033414 -0.00363899 0.00252764
-0.035 0 0
-0.0335625 -0.00265007 0.00275619
-0.0335982 -0.00345788 0.0019187
-0.014955 0.00912371 0.00640175
-0.0145152 0.00785267 0.00799639
-0.00656578 0.00364429 0.00636782
-0.00110153 0.000925901 0.0026126
-0.00314953 0.00203063 0.00406597
-0.00887263 0.00444196 0.00619497
-0.00871296 0.00438248 0.00472899
-0.00886449 0.00289457 0.00469048
-0.0105825 0.00282705 0.00853542
-0.00621534 0.00248653 0.00645622
-0.00354994 0.00104119 0.00534567
-0.013532 0.00159327 0.00951825
-0.00633016 0.0012168 0.0063164
-0.00624454 1.76626e-05 0.00639035
-0.00877248 0.0014421 0.00629728
-0.00304726 0.00123089 0.00335832
-0.00915564 0.00144607 0.00744533
-0.00342037 1.82543e-05 0.00348855
-0.00242016 0.00354686 0.00212696
0 0 0
-0.00270514 0.00429487 0.00222656
-0.00272207 0.00320666 0.00313372
-0.0205768 0.00785069 0.00784865
-0.017633 0.00828797 0.00842232
-0.0204952 0.00889723 0.00644402
-0.0115075 0.00584848 0.0085266
-0.00835124 0.00605192 0.00654103
-0.0104874 0.00583863 0.0073205
-0.011579 0.00720467 0.00723373
-0.00829412 0.00617255 -0.0062391
-0.0113541 0.00618297 -0.00820524
-0.0114786 0.0074152 -0.006762
-0.0204653 -0.00198342 0.00987078
-0.0210538 -0.00496409 0.0082968
-0.0171877 -0.00503936 0.00872602
-0.0232402 -0.00607217 0.00860845
-0.026365 -0.00659245 0.00699272
-0.0232812 -0.00726882 0.0072224
-0.0247264 -0.00600951 0.00623678
-0.020743 -0.00931663 0.00340643
-0.021006 -0.00335211 0.00838396
-0.0213407 -0.00657927 0.00523156
-0.017155 -0.00680817 0.005081
-0.0141277 0.00787722 0.00657001
-0.00942591 0.00581703 0.00610125
-0.00644565 0.00628967 0.00380126
-0.00645143 0.00496121 0.00510585
-0.00342643 0.00520209 0.00111513
-0.00610593 0.00627373 0.000158497
-0.0102933 0.00852019 0.00147388
-0.0309551 0.00528975 -0.0011179
-0.0300949 0.00666182 -0.00102783
-0.0335506 0.00356315 -0.000814124
-0.00915049 0.00298556 0.00307258
-0.0249929 0.00617541 0.00447274
-0.0213427 0.00668109 0.00318675
-0.0237171 0.00891336 0.0016058
-0.0280426 0.0037019 0.00652733
-0.0310575 0.00389833 0.00454586
-0.024264 0.00590867 0.0074455
-0.0279824 0.00509428 0.00542659
-0.0212182 0.00782585 0.006621
-0.0212028 0.00514951 0.00827964
-0.0171235 0.0051692 0.00870192
-0.0139976 -0.0092486 -0.00347756
-0.00733763 -0.00591245 -0.00364534
-0.00689098 -0.00617598 -0.00241682
-0.0282592 -0.00661106 -0.00613698
-0.0305432 -0.00276103 -0.005218
-0.00450907 0.00650418 -0.000758255
-0.00127615 0.00327231 0.000143993
-0.0035362 0.00521807 -0.000811223
-0.00134177 0.00352745 -0.000444193
-0.0256207 -0.00305717 0.0048843
-0.0287167 -0.00016251 0.00685596
-0.021258 -0.00326442 0.00681392
-0.0314976 -0.0045879 0.00211234
-0.024144 -0.00868793 0.00166198
-0.0287026 -0.00530467 0.00270719
-0.0288985 -0.00275994 0.00419547
-0.0249374 -0.00603438 0.00484857
-0.0315891 -0.00217261 0.00437687
-0.0312646 -0.000917647 0.00559116
-0.0313329 -0.00318446 0.00442081
-0.0337901 -0.00121538 0.00267748
-0.0310699 -0.00427428 0.00455743
-0.00620572 0.00626008 -0.00103571
-0.00671349 0.00623872 -0.002306
-0.00121459 0.00266607 -0.000741916
-0.0301474 0.00660251 0.00113029
-0.0333813 0.00333802 1.57144e-05
-0.0309628 0.00520227 0.00111544
-0.0170126 0.00684533 0.00510888
-0.0208466 0.00943609 0.00349504
-0.0211204 0.00671645 0.00495553
-0.0210622 0.00664858 0.00661295
-0.0329479 0.00453336 0.00182964
-0.0336557 0.00327297 0.00138872
-0.035 0 0
-0.0336099 0.00329769 0.00085097
-0.0324589 0.00104317 0.00282606
-0.0256846 0.00316224 0.00303849
-0.0255342 0.00465789 0.00302773
-0.0336116 -0.000603623 -0.00397338
-0.0300202 -0.00175747 -0.00717715
-0.0252961 0.00470285 -0.00288936
-0.0320047 0.00109982 -0.00276414
-0.0310443 0.00332911 3.61888e-05
-0.0264401 0.00625722 -0.00668307
-0.0291141 0.00388014 -0.00702054
-0.0304713 0.00414603 -0.00581162
-0.0294688 0.0051348 -0.00610939
-0.00603945 -0.00354986 0.00645396
-0.00849021 -0.00597664 0.00650912
-0.00447972 -0.00381525 0.00511017
-0.00531815 -0.00484536 0.00548455
-0.00837399 0.00157978 -0.00619358
-0.0332502 0.00376329 -0.00270509
-0.035 0 0
-0.0334645 0.00272522 -0.00293207
-0.02944 -0.00538158 -0.00610762
-0.0261503 -0.00655529 -0.00708388
-0.0286867 -0.00401011 -0.00717469
-0.0235615 0.00893664 -0.00137027
-0.0325107 0.000641248 0.00399985
-0.0322153 0.000592091 0.00474895
-0.035 0 0
-0.00891108 0.00317651 -0.00294482
-0.0254317 0.00319012 -0.00296695
-0.017305 0.00281263 2.89972e-05
-0.0312116 0.00212296 -0.00614974
-0.0304853 0.00196448 -0.00724597
-0.0331924 0.00180697 -0.00374788
-0.0335677 0.000962755 -0.00413691
-0.035 0 0
-0.0273703 0.00642777 -0.00385066
-0.0248722 0.00613011 -0.00572459
-0.0243227 0.00604411 -0.00705016
-0.0241778 0.00755007 -0.00427457
-0.025737 -0.00302405 0.00337128
-0.0174242 2.24997e-05 0.00287431
-0.00913875 -0.0029465 0.00305697
-0.0295963 0.00493009 0.00594422
-0.0284257 0.00622875 0.00608143
-0.0330597 0.00331553 0.00347179
-0.0307124 0.00247972 0.00516637
-0.0334835 0.00374292 -0.0013964
-0.0334358 0.00357102 -0.00204294
-0.035 0 0
-0.0208386 0.0083087 -0.00473919
-0.0203373 0.00964477 -0.00329397
-0.0232513 0.00738371 -0.00688873
-0.019975 0.00829754 -0.00855248
-0.0220827 0.00847653 -0.00674735
-0.0033626 -0.00326165 -0.000142534
-0.00871635 -0.00458878 -0.00299916
-0.033682 0.00274612 -0.00153488
-0.0335583 0.00192294 -0.00254352
-0.0310196 0.00421922 -0.00467639
-0.0311806 0.00416473 -0.00347275
-0.0319559 -0.00239993 0.00126045
-0.0290408 -0.0054441 0.00138322
-0.0337359 -0.00311631 0.001336
-0.035 0 0
-0.0338275 -0.00203412 0.00203558
-0.033889 -0.00236958 0.00133688
-0.0206974 0.00823164 -0.0062022
-0.0174028 0.00876523 -0.00804236
-0.0203627 0.00811017 -0.00750377
-0.0199408 0.00932361 -0.00611817
-0.0337115 0.0022302 0.00152325
-0.0284528 0.00386323 0.00543617
-0.032354 0.00175407 0.00378271
-0.029073 0.00399421 0.00426225
-0.00670221 0.00502082 -0.00479787
-0.00371054 0.00380412 -0.00384803
-0.010383 0.00606297 -0.00697586
-0.00969746 0.00598962 -0.00569432
-0.0169574 0.00892448 -0.0049262
-0.00960418 0.00731535 -0.00280658
-0.00665036 -0.00231227 -0.00635308
-0.00373165 -0.00148993 -0.005355
-0.010779 -0.00299229 -0.00846968
-0.0104492 0.00307697 -0.00855387
-0.0033316 0.00119593 -0.00516457
-0.00857809 0.00481368 -0.00288133
-0.00325598 0.00335579 1.18159e-05
-0.00920928 0.00610615 -0.00424987
-0.00877668 0.00615077 -0.00289018
-0.00328251 0.00394587 -0.000807361
-0.00236249 0.00220241 -0.0024224
-0.00234838 0.0011477 -0.00342315
0 0 0
-0.00279048 0.00298893 -0.00298
-0.00234517 0.00201958 -0.0033897
0 0 0
-0.00582707 0.00265199 -0.00641731
-0.00633374 0.00381797 -0.00614413
-0.00257479 0.00219112 -0.00418367
-0.00100653 0.00101326 -0.00243863
0 0 0
-0.00236819 -0.000918353 -0.00264175
-0.0024177 0.000210872 -0.00358843
-0.00232799 -0.000616233 -0.00369588
-0.0244659 0.00327383 -0.00855433
-0.0285942 0.00398606 -0.00522659
-0.0315897 0.00218267 -0.00497832
-0.0338767 0.00122617 -0.00291146
-0.0337936 0.000438578 -0.00360954
-0.035 0 0
-0.0339191 -0.00227361 -0.00069931
-0.0204809 -0.00888527 0.00638328
-0.0176613 -0.00824329 0.00827687
-0.0211005 -0.00783889 0.00652924
-0.020525 -0.00769654 0.00775091
-0.00578462 0.000201887 -0.00644674
-0.0136638 0.00169744 -0.00961161
-0.00890562 0.00151722 -0.00750543
-0.00595081 0.00141713 -0.00630595
-0.0209645 0.00177351 -0.00937896
-0.028911 0.00131461 -0.00579564
-0.0255084 0.00319156 -0.00598181
-0.0288721 0.00273164 -0.00549156
-0.0087084 -0.00312707 -0.00297267
-0.0172032 2.48749e-05 -0.00277639
-0.0253785 -0.00297646 -0.00311512
-0.0172175 -0.00278684 6.89951e-05
-0.0288921 -0.00267207 -0.00284073
-0.0289667 -0.00528925 0.000150082
-0.00717966 -0.00349671 -0.00611984
-0.00726306 -0.00471063 -0.00486252
-0.0108591 -0.00559463 -0.00696341
-0.00404523 -0.00373292 -0.0039568
-0.0172838 -0.00817086 -0.0080344
-0.0197621 -0.00889727 -0.006386
-0.0201205 -0.00761156 -0.00774735
-0.0338856 0.000547182 -0.00296006
-0.0339951 0.000715046 -0.00223547
-0.035 0 0
-0.035 0 0
-0.0335722 -0.000977705 -0.00371646
-0.0211432 0.00678169 -0.00297372
-0.0170981 0.00538507 -0.00659006
-0.0216004 0.00519492 -0.00635264
-0.0208868 0.00834398 -0.00309847
-0.035 0 0
-0.0240983 -0.00448253 -0.00751553
-0.0241718 -0.00589039 -0.00608544
-0.0203215 -0.00774697 -0.00646566
-0.0138179 0.00956454 0.00322551
-0.00604044 0.0064836 0.00263746
-0.00899135 0.007461 0.00150149
-0.00607672 0.00634125 0.00137516
-0.00984713 -0.00719677 -0.00302016
-0.00910968 -0.00456044 -0.00437925
-0.0274565 -0.00392192 -0.0070913
-0.0313032 -0.000938754 -0.00596836
-0.035 0 0
-0.0328131 -0.00496491 -0.00174847
-0.0238771 -0.00596359 0.00748413
-0.0275911 -0.00405664 0.00707543
-0.0236209 -0.00326458 0.00900874
-0.024339 -0.0046192 0.00769068
-0.035 0 0
-0.0335517 -0.00346967 -0.0019485
-0.0335384 -0.00383936 -0.00131896
-0.0315086 -0.00456327 -0.00100856
-0.0318885 -0.0024034 -0.00219712
-0.0339774 -0.00134255 -0.00141179
-0.0316994 -0.00215484 -0.0033883
-0.0314314 -0.00205966 -0.00457929
-0.0338987 -5.34731e-05 -0.00263626
-0.0328069 -0.00506062 0.00174852
-0.035 0 0
-0.0335375 -0.00396276 0.00130894
-0.0097885 -0.00437349 -0.00577182
-0.0102141 -0.00569423 -0.00565206
-0.00973496 -0.00290173 -0.00730292
-0.0244882 -0.00595432 -0.00461717
-0.0249433 -0.00589676 -0.00312974
-0.0279024 -0.00534181 -0.00407627
-0.0239766 -0.008581 -0.00141581
-0.0209153 -0.00644131 -0.00498163
-0.0170015 -0.00688744 -0.00507112
-0.0212616 -0.00331341 -0.00645241
-0.0208568 -0.00332819 -0.00798386
-0.0171184 -0.00515591 -0.00835722
-0.0207439 -0.00488625 -0.00796513
-0.0207614 -0.0018779 -0.00941115
-0.0338817 -0.00266555 0.000486366
-0.0339492 -0.00256053 -0.000129771
-0.035 0 0
-0.0340376 -0.00206135 0.00055051
-0.0303472 -0.00700755 -0.000966041
-0.0335377 -0.00386051 -0.000728705
-0.0311268 -0.0058543 -0.000983254
-0.0335441 -0.00395639 0.000755171
-0.0334987 -0.00371009 3.78089e-05
-0.0312403 -0.00591361 0.00109341
-0.0303161 -0.00708008 0.00113829
-0.0337183 -0.00118587 -0.00288884
-0.0311614 -0.0031085 -0.00458527
-0.035 0 0
-0.0336662 -0.000149399 -0.00402272
-0.0329695 0.000497153 -0.00527712
-0.0336084 0.000325404 -0.00429505
-0.0338421 -0.00206153 -0.00135043
-0.0337096 -0.0020051 -0.00214272
-0.0337424 -0.00292926 -0.0013451
-0.035 0 0
-0.0302139 -0.00429369 -0.00584947
-0.0308981 -0.00425943 -0.00470082
-0.0333744 -0.00178724 -0.00366021
-0.0335006 -0.0026434 -0.00287438
-0.035 0 0
-0.0327366 -0.00483197 -0.00230186
-0.0329856 -0.00357276 -0.00346674
-0.0333637 -0.00367005 -0.00259182
-0.0305343 0.00454113 -0.00566225
-0.0154066 -0.0082572 0.00721486
-0.0336438 0.00325145 -0.00231191
-0.0291601 -0.00207792 0.00343698
-0.00094491 -0.0023642 -0.00165139
-0.034134 -0.000979919 0.00246642
-0.00143789 -0.000866063 -0.00293955
-0.00638502 0.00654948 -0.000739162
-0.00531524 0.00305578 0.00427085
-0.0335061 0.000407966 0.00268058
-0.0133323 0.00817304 -0.00731588
-0.0341802 0.000415607 0.00266525
-0.0324159 -0.00109581 0.00500523
-0.00427695 -0.00431115 -0.00511012
-0.00884157 -0.00207922 -0.00751596
-0.0240306 -0.00638858 -0.00760281
-0.0134387 -0.00760815 -0.00740411
-0.00240274 0.0046897 0.000751159
-0.0107234 0.00465382 0.00355676
-0.00273699 -0.00290066 -0.0037229
-0.0105565 -0.00603274 -0.00710876
-0.000748045 0.000886764 -0.00222067
-0.0340093 -0.000474559 0.00317748
-0.00566896 0.00458775 -0.00581464
-0.0262505 -0.00210477 -0.00460157
-0.00120623 -0.00306398 -0.00195966
-0.0151061 0.008645 -0.0069025
-0.0328252 -0.00389082 0.00130071
-0.00566433 -0.00385189 -0.00290231
-0.0340038 0.00234133 0.00200758
-0.004292 -0.00478369 -0.00130441
-0.00963143 -0.00607491 -0.00515187
-0.000939508 0.000525281 -0.00300407
-0.0287381 0.00492113 0.00311642
-0.000888787 -0.00232242 0.0016255
-0.0245634 0.00645501 -0.00721053
-0.0261317 0.0055875 0.00221428
-0.00860478 -0.00745128 0.00207861
-0.0290612 0.00460431 0.00644982
-0.0216058 0.00788099 0.00772187
-0.00924232 0.00637273 -0.00506492
-0.00272052 -0.00134621 -0.00477733
-0.00572615 0.00449968 0.00600704
-0.00500218 0.00110304 -0.00525962
-0.000904216 0.00223129 -0.00160578
-0.00114539 -0.00300086 0.0019026
-0.0343528 -0.00126667 -0.0008094
-0.00421365 0.00425226 -0.00496195
-0.00115785 0.00294626 -0.00188332
-0.000801909 0.000846046 0.00241096
-0.00659952 0.00460335 0.00574736
-0.00244142 0.00292117 -0.00361241
-0.000848185 0.00216732 0.00163798
-0.000767247 -0.000264103 -0.00245212
-0.000933748 -1.72586e-05 -0.00305812
-0.00102888 0.000479686 0.00323083
-0.0151043 -0.00814692 -0.0069764
-0.00421406 0.00418151 0.00501715
-0.0280748 0.00276532 0.00699131
-0.000892424 0.00254157 -0.000765421
-0.00107735 0.00327165 -0.000625751
-0.0312715 0.000501176 0.00553713
-0.00110382 -0.0033327 -0.000660931
-0.00544392 0.0051664 0.000999903
-0.00246647 0.00109247 0.00494021
-0.00248933 -0.00484798 -0.000457536
-0.00268994 -0.00149739 0.00479968
-0.00371908 0.00500609 0.00245785
-0.000988861 0.00306654 0.000847623
-0.000807527 0.00236803 0.000935341
-0.00656406 -0.0065748 -0.000860559
-0.00235614 0.00120891 -0.00466511
-0.00242638 0.00287796 0.00374685
-0.00109405 0.00285506 0.00188241
-0.00262531 -0.00295567 0.00368646
-0.00426297 -0.00430374 0.00504834
-0.0258296 0.00440565 0.00671784
-0.0341636 0.00219202 0.00119932
-0.00144091 0.00239383 0.00141122
-0.0322698 0.00293938 0.00422197
-0.00596323 -0.00445053 -0.00600835
-0.02162 -0.00778104 0.00768653
-0.00396605 -0.000680085 0.00490611
-0.0313442 0.000890773 -0.00408924
-0.000813028 -0.000388799 0.00252485
-0.0339642 -0.000450886 -0.00344937
-0.00351861 -0.00044991 -0.00513423
-0.00921701 0.00729098 -0.00307028
-0.0069335 -0.00269791 0.00659643
-0.000909516 -0.00258355 -0.000794228
-0.0340839 -0.00274171 0.00110527
-0.0338777 0.00325626 -0.000960618
-0.0284523 0.00488103 -0.00396781
-0.00242571 -0.00469851 0.000737185
-0.0135471 -0.00771814 0.0077034
-0.000812311 -0.00236246 0.0009221
-0.0105724 -0.00611737 0.00729431
-0.00892191 -0.00209987 0.00748756
-0.00698081 -0.00451094 0.00560137
-0.0303527 0.00497147 -0.00268586
-0.0337568 0.00305486 0.00222286
-0.024754 -0.00434368 -0.00773805
-0.000999772 -0.000134637 0.00320278
-0.0134485 0.00789104 0.00785746
-0.000994122 -0.00305497 0.000837879
-0.0212796 -0.00769363 -0.00778197
-0.026195 0.00451816 -0.00430514
-0.025923 0.00561658 -0.00207328
-0.0225654 -0.00688087 -0.00483191
-0.00641058 -0.00656846 0.000994479
-0.0113683 -0.00456299 0.00706315
-0.0092552 -0.00624031 0.00529918
-0.0107275 -0.00464857 0.00349779
-0.00545376 -0.00197704 0.0042479
-0.00581775 -0.00286178 0.00489009
-0.00142164 -0.00231229 0.00129243
-0.00550041 -0.00513684 0.000809407
-0.0015391 -0.00277367 0.00183369
-0.00377867 -0.00495183 0.00242696
-0.0259038 0.00211228 0.00792466
-0.0339924 0.000127857 0.00330694
-0.0289156 -0.00508627 0.00658142
-0.0305885 -0.00470341 0.00543523
-0.0244856 0.00634927 0.00748779
-0.0323162 0.00147197 0.00503764
-0.0322706 -0.00330443 0.00423765
-0.033766 -0.00317488 0.00211101
-0.034037 -0.00245237 0.00189882
-0.0153252 0.00834187 0.00738337
-0.00391228 0.00227056 0.00494119
-0.00565004 0.00389326 0.00500895
-0.0106111 0.00336961 0.00607459
-0.00651831 0.00181738 0.00668002
-0.00863158 0.00102926 0.00743504
-0.00576054 0.00101706 0.00515146
-0.00152768 0.00283095 0.00196446
-0.0199979 0.00824194 0.00732316
-0.0103778 0.00628532 0.00741876
-0.0102468 0.00650416 -0.00703704
-0.0228918 -0.0058767 0.00724998
-0.0199674 -0.0038361 0.00885082
-0.0242805 -0.00649033 0.00757512
-0.0230616 -0.00699743 0.00500935
-0.0202355 -0.00497396 0.00645864
-0.00892035 0.00632572 0.00544086
-0.00629361 0.00660021 0.0010601
-0.0322525 0.00480659 -0.00071488
-0.0173965 0.00221613 0.00222477
-0.0229981 0.00719166 0.00357716
-0.0279436 0.00468417 0.00604913
-0.0202338 0.00637351 0.00753424
-0.00942619 -0.00717007 -0.00325801
-0.030493 -0.00467407 -0.00557657
-0.0024302 0.00475537 -0.000410841
-0.0263191 -0.00225902 0.00584908
-0.0285762 -0.00599201 0.00204747
-0.0287853 -0.00406569 0.00415719
-0.0306203 -0.00256572 0.00536667
-0.0326898 -0.00265858 0.00344677
-0.00415122 0.00478166 -0.00124036
-0.0322712 0.00467618 0.000763429
-0.0201242 0.0075066 0.00506542
-0.0339967 0.00290561 0.00102472
-0.0322231 0.00326897 -0.00444252
-0.0290995 0.00320046 0.00214869
-0.0323863 -0.00106139 -0.00535597
-0.0327519 0.0019867 -0.00419301
-0.0287995 0.0032119 -0.00206296
-0.0290575 0.00483887 -0.00658115
-0.00591097 -0.00450555 0.00601298
-0.0104684 0.0037362 -0.00463017
-0.0339226 0.0025636 -0.00204508
-0.0287942 -0.00504128 -0.00672665
-0.0225019 0.00832943 -0.0034025
-0.0334473 0.000883831 0.00320915
-0.0172395 0.00226863 -0.00215779
-0.0322934 0.00179752 -0.00552947
-0.0340776 0.000508234 -0.00315761
-0.0252556 0.00658763 -0.00518911
-0.0173885 -0.0021696 0.00232586
-0.030647 0.00431315 0.00551473
-0.034051 0.00258768 -0.00121083
-0.0198285 0.00882977 -0.0048068
-0.0214615 0.00809713 -0.00740866
-0.00542118 -0.00310162 -0.0021023
-0.0325187 0.00329429 -0.0030511
-0.0313631 -0.00371655 0.000921947
-0.0342468 -0.00185617 0.00121104
-0.0195983 0.00865416 -0.00695753
-0.031199 0.00318346 0.00374365
-0.00663116 0.00471397 -0.00548847
-0.0111986 0.00714576 -0.00450169
-0.00696882 -0.00260978 -0.00661269
-0.00619339 0.00200414 -0.00663955
-0.0053548 0.00422444 -0.00194131
-0.00576832 0.00487148 -0.0027895
-0.0013697 0.00129589 -0.00226027
-0.00148884 0.00182698 -0.0027109
-0.00354471 0.00243138 -0.0048958
-0.00136952 -0.000340573 -0.00249167
-0.0286351 0.00310331 -0.00602948
-0.0342478 0.000670189 -0.00241604
-0.0328309 -0.0038047 -0.000680183
-0.0199295 -0.00820928 0.0072369
-0.00837703 0.00114623 -0.0075059
-0.0263284 0.00233634 -0.00662109
-0.0170895 -0.00221603 -0.00218224
-0.0289478 -0.0041023 -0.00197536
-0.00725448 -0.00439981 -0.00552712
-0.0193355 -0.0081497 -0.00717774
-0.0343237 0.000346721 -0.00197952
-0.0340934 -0.000930805 -0.00266027
-0.0202628 0.00653524 -0.00469331
-0.0340033 -0.00246455 -0.00195678
-0.0223906 -0.00576899 -0.00704249
-0.00848144 0.00751115 0.00220444
-0.0112465 -0.00586775 -0.00461983
-0.0304878 -0.0024463 -0.00554472
-0.0338886 -0.00336422 -0.00092875
-0.0248871 -0.00448857 0.00783892
-0.0340982 -0.00261541 -0.00110511
-0.0309503 -0.00358968 -0.00259556
-0.0329768 -0.00130344 -0.00296517
-0.0338708 -0.00346985 0.00092052
-0.0115981 -0.00464759 -0.00679502
-0.0253913 -0.00646915 -0.003369
-0.020032 -0.00499471 -0.00615883
-0.0198977 -0.00381963 -0.00845186
-0.0343546 -0.00183659 0.000215694
-0.0323251 -0.00526923 -0.000618815
-0.0323524 -0.00533934 0.000720038
-0.0325589 -0.00261527 -0.00362731
-0.0339285 0.000185549 -0.00363752
-0.0342433 -0.00168992 -0.00123927
-0.0321756 -0.00326606 -0.00441502
-0.0337316 -0.00319056 -0.00217446

CELL_DATA 236
TENSORS stress float
-8567.86 -239.994 -157.504
-239.994 -2166.14 419.624
-157.504 419.624 296.847

-7691.75 124.231 132.393
124.231 -270.248 501.251
132.393 501.251 248.851

-9584.49 -1594.71 1558.96
-1594.71 -4812.51 -805.245
1558.96 -805.245 -5703.89

-8335.1 -22.3728 -455.799
-22.3728 -1511.74 197.737
-455.799 197.737 -1811.89

-9160.68 -1658.47 -1299.37
-1658.47 -4820.06 836.658
-1299.37 836.658 -5795.08

-9634.89 656.23 -1528.09
656.23 -6686.24 -340.121
-1528.09 -340.121 -5901.86

-10931.1 -94.4359 -543.293
-94.4359 -6919.67 -127.329
-543.293 -127.329 -7143.91

-7349.38 -206.862 94.259
-206.862 -465.148 34.7302
94.259 34.7302 -285.056

-8953.06 283.202 421.473
283.202 -1772.38 -99.3626
421.473 -99.3626 -2571.79

-11829.2 -438.948 -561.591
-438.948 -8145.4 37.3983
-561.591 37.3983 -7752.75

-6706.05 -345.836 101.258
-345.836 719.048 139.626
101.258 139.626 423.93

-8873.05 -452.563 -1866.2
-452.563 -6700.24 21.8572
-1866.2 21.8572 -4795.31

-7204.09 363.958 -1020.81
363.958 -1778.17 42.9887
-1020.81 42.9887 -91.4544

-8686.59 -209.694 249.521
-209.694 -2156.36 -305.226
249.521 -305.226 64.4044

-7515.35 120.774 268.008
120.774 703.681 -188.47
268.008 -188.47 -583.07

-7082.78 -296.48 -353.838
-296.48 1234.88 -233.185
-353.838 -233.185 736.482

-6787.48 230.132 132.916
230.132 483.58 -87.2155
132.916 -87.2155 298.311

-7782.16 755.534 114.342
755.534 -1540.03 226.926
114.342 226.926 -2876.75

-8887.76 354.967 192.234
354.967 -590.902 -28.2175
192.234 -28.2175 -369.981

-8527.46 -688.595 -832.529
-688.595 -2486.29 317.872
-832.529 317.872 -2691.42

-7123.88 157.267 387.771
157.267 1160.43 -8.72863
387.771 -8.72863 669.562

-8862.72 682.47 -1541.14
682.47 -6417.58 -208.572
-1541.14 -208.572 -5378.12

-9013.84 161.19 -1948.52
161.19 -6924.48 -385.926
-1948.52 -385.926 -3844.87

-7534.47 -104.588 193.559
-104.588 -1242.82 -221.966
193.559 -221.966 -18.01

-8317.25 -21.9615 109.607
-21.9615 -156.772 -111.233
109.607 -111.233 -458.626

-9633.77 -1538.25 -1349.01
-1538.25 -4896.87 706.099
-1349.01 706.099 -6043.71

-7291.36 -83.0803 -103.662
-83.0803 222.735 471.928
-103.662 471.928 657.995

-8897.74 754.001 -239.782
754.001 -3990.1 78.4271
-239.782 78.4271 -4161.19

-8215.32 -112.959 -108.68
-112.959 -1318.92 -400.093
-108.68 -400.093 -1807.66

-9107.76 -1751.76 -1616.14
-1751.76 -5082.06 870.574
-1616.14 870.574 -5959.8

-8449.29 -461.033 -168.222
-461.033 -1712.76 -196.472
-168.222 -196.472 -2612.61

-7408.57 -108.041 -75.5322
-108.041 109.38 -31.4454
-75.5322 -31.4454 161.453

-8466.42 309.664 -1914.03
309.664 -6341.58 -388.836
-1914.03 -388.836 -3441.8

-8556.12 -256.262 -246.805
-256.262 -1092.87 -112.028
-246.805 -112.028 -1272.42

-8610.58 -1751.5 1341.66
-1751.5 -4395.02 -868.262
1341.66 -868.262 -5456.61

-7183.34 422.094 -278.194
422.094 1159.33 226.042
-278.194 226.042 672.854

-8247.97 -159.197 -95.8981
-159.197 -259.319 -119.429
-95.8981 -119.429 -175.219

-6509.1 449.661 121.4
449.661 538.606 -66.4957
121.4 -66.4957 2018.52

-7601.17 13.2221 282.57
13.2221 -782.606 51.9645
282.57 51.9645 -31.0294

-6593.83 301.556 54.0312
301.556 568.175 -296.092
54.0312 -296.092 512.94

-7405.13 -170.879 -94.6924
-170.879 201.669 67.4056
-94.6924 67.4056 280.913

-8277.74 -319.399 -610.989
-319.399 -2424.62 -243.297
-610.989 -243.297 -2037.19

-7588.57 -132.129 -244.275
-132.129 -1162.8 134.284
-244.275 134.284 24.9277

-8290.93 103.948 -429.216
103.948 -1647.57 171.742
-429.216 171.742 -2216.99

-8790.86 1639.67 -1316.36
1639.67 -4387.85 -721.658
-1316.36 -721.658 -5373.31

-9513.23 -1561.47 1327.26
-1561.47 -4850.35 -698.543
1327.26 -698.543 -6044.58

-8215.5 930.745 618.582
930.745 -5036.69 -56.7749
618.582 -56.7749 -5315.58

-8685.27 192.057 254.939
192.057 -2129.25 249.211
254.939 249.211 -75.6788

-9621.55 1512.96 -1302.55
1512.96 -4857.79 -659.216
-1302.55 -659.216 -6091.01

-9611.5 603.384 1514.17
603.384 -7236.51 198.57
1514.17 198.57 -6006.76

-7489.23 159.813 133.751
159.813 -241.801 -29.8842
133.751 -29.8842 -170.812

-7694.4 628.163 -1024.18
628.163 -2126.31 -350.094
-1024.18 -350.094 -2033.9

-8268.03 1718.47 1402.09
1718.47 -4044.13 760.41
1402.09 760.41 -5012.78

-8462.07 -307.199 -1802.78
-307.199 -6122.05 67.6786
-1802.78 67.6786 -4519.24

-8274.36 8.0356 -2040.63
8.0356 -6212.02 215.638
-2040.63 215.638 -3235.83

-8881.03 238.126 1916.36
238.126 -6766.44 402.937
1916.36 402.937 -3697.43

-7023.01 30.8651 -25.0074
30.8651 226.27 -360.289
-25.0074 -360.289 540.324

-8728.96 188.253 -314.403
188.253 -2265.58 -264.207
-314.403 -264.207 -10.7972

-7725.53 -265.453 202.941
-265.453 -362.07 -90.8774
202.941 -90.8774 -549.869

-9217.97 1780.18 -606.705
1780.18 -5125.47 -259.097
-606.705 -259.097 -6875.45

-8675.27 1927.3 -455.684
1927.3 -3611.95 -707.444
-455.684 -707.444 -6162.46

-8640.05 -120.822 -209.064
-120.822 -3311.05 391.829
-209.064 391.829 -3070.14

-8829.56 -1918.56 -486.634
-1918.56 -3693.58 727.279
-486.634 727.279 -6338.64

-8660.56 476.66 384.684
476.66 -2498.25 111.103
384.684 111.103 -1756.25

-7679.16 493.079 752.126
493.079 -3088.86 -112.676
752.126 -112.676 -1060.8

-8001.2 -731.616 -6.40368
-731.616 -1637.67 270.544
-6.40368 270.544 -2963.88

-8347.54 -437.272 609.306
-437.272 -2792.23 282.011
609.306 282.011 -2071.88

-8438.38 -20.8532 430.891
-20.8532 -3487.02 -505.895
430.891 -505.895 -3124.72

-8403.06 1927.31 653.713
1927.31 -3494.6 738.223
653.713 738.223 -6003.09

-8180.02 1874.25 829.672
1874.25 -4236.54 299.905
829.672 299.905 -5774.65

-7558.31 165.891 32.1367
165.891 -532.221 -76.3513
32.1367 -76.3513 -358.24

-7398.54 545.497 -741.782
545.497 -2838.63 108.473
-741.782 108.473 -975.562

-7817.01 644.71 992.793
644.71 -2215.46 196.232
992.793 196.232 -2190.54

-9476.15 1530.61 1327.33
1530.61 -4854.42 666.484
1327.33 666.484 -6026.49

-8465.35 -675.318 767.91
-675.318 -2600.69 -326.979
767.91 -326.979 -2763.15

-8734.23 -196.161 -315.719
-196.161 -2265.6 295.634
-315.719 295.634 43.1087

-8612.04 -282.766 -284.672
-282.766 -1529.25 -623.285
-284.672 -623.285 -1433.05

-9167.9 -1647.42 -914.691
-1647.42 -4765.15 333.198
-914.691 333.198 -6005.96

-10868.6 555.296 476.827
555.296 -6913.36 -15.0151
476.827 -15.0151 -7033.77

-8482.41 -647.835 -828.57
-647.835 -2531.18 485.306
-828.57 485.306 -2887.39

-7731.38 48.0771 240.07
48.0771 -996.682 129.445
240.07 129.445 -67.6319

-6566.97 -330.804 68.662
-330.804 680.321 157.888
68.662 157.888 510.673

-8263.94 -235.476 393.416
-235.476 -2703.93 372.819
393.416 372.819 -2161.23

-9858.17 -169.274 124.802
-169.274 -4302.65 -123.601
124.802 -123.601 -3939.43

-9188.83 -399.851 1686.41
-399.851 -6797.61 -26.9198
1686.41 -26.9198 -5149.02

-8787.63 130.51 2170.98
130.51 -6776.66 306.234
2170.98 306.234 -3781.19

-7921.48 -128.34 -68.4464
-128.34 -2737.45 -141.287
-68.4464 -141.287 -2960.87

-7503.45 -288.295 -3.69125
-288.295 -616.989 108.558
-3.69125 108.558 51.091

-7802.65 -165.943 -218.042
-165.943 -730.865 135.555
-218.042 135.555 -649.303

-9398.73 -1773.91 -624.242
-1773.91 -5262.04 291.226
-624.242 291.226 -7019.55

-8783.2 2036.85 -930.855
2036.85 -4657.22 -137.421
-930.855 -137.421 -6023.51

-8989.33 -1859.71 664.794
-1859.71 -3769.97 -852.038
664.794 -852.038 -6343.05

-7763.95 -281.096 221.942
-281.096 -225.388 -6.82911
221.942 -6.82911 -343.943

-7900.06 -740.8 112.055
-740.8 -1573.84 -159.507
112.055 -159.507 -2966.28

-6807.87 272.602 -120.468
272.602 649.154 131.492
-120.468 131.492 332.59

-8104.58 -1874.52 823.417
-1874.52 -4107.44 -368.485
823.417 -368.485 -5669.7

-7199.75 259.383 -424.282
259.383 1186.83 19.9657
-424.282 19.9657 633.601

-7528.29 -20.4572 -193.481
-20.4572 330.888 74.6013
-193.481 74.6013 -625.593

-7511.4 -274.439 104.789
-274.439 -67.59 -259.39
104.789 -259.39 191.601

-8528.81 -165.531 118.42
-165.531 -1596.33 64.6244
118.42 64.6244 -2005.54

-9561.88 -1572.04 -1505.84
-1572.04 -4922.69 719.627
-1505.84 719.627 -5811.53

-7494.44 -76.2612 -385.908
-76.2612 756.634 -107.62
-385.908 -107.62 669.638

-8599.24 -87.5641 2028.64
-87.5641 -6536.67 -204.16
2028.64 -204.16 -3469.95

-6727.19 -355.625 -94.3724
-355.625 702.964 -164.122
-94.3724 -164.122 402.971

-8465.14 -1911.59 637.137
-1911.59 -3505 -747.809
637.137 -747.809 -6088.27

-6655.01 -322.052 6.04441
-322.052 636.976 -89.6394
6.04441 -89.6394 532.836

-8480.59 -362.169 302.286
-362.169 -954.296 112.037
302.286 112.037 -842.485

-8145.68 -201.144 -2.3152
-201.144 -203.585 145.782
-2.3152 145.782 -168.417

-7825.53 39.9675 49.7869
39.9675 305.193 -84.2428
49.7869 -84.2428 913.414

-7339.51 195.966 27.5519
195.966 -318.316 -52.5227
27.5519 -52.5227 -132.076

-8509.35 53.3769 -8.5112
53.3769 -803.19 139.705
-8.5112 139.705 -1471.21

-7447.06 219.158 -419.67
219.158 60.5837 356.787
-419.67 356.787 151.858

-8799.18 -324.716 236.606
-324.716 -263.325 94.5213
236.606 94.5213 -110.847

-8995.62 -251.74 434.907
-251.74 -2090.53 201.34
434.907 201.34 -2709.32

-7661.18 -224.381 7.83229
-224.381 -1270.3 654.742
7.83229 654.742 -1014.02

-10561.6 -558.319 410.579
-558.319 -6575.12 119.369
410.579 119.369 -6633.1

-8364.33 -413.581 466.825
-413.581 -2130.02 -177.587
466.825 -177.587 -1118.29

-10763.3 -609.302 228.693
-609.302 -7072.37 54.8606
228.693 54.8606 -6853.92

-8084.18 27.6523 326.234
27.6523 -2820.44 464.783
326.234 464.783 -2578.77

-7283.98 -68.9347 323.439
-68.9347 1421.66 -179.005
323.439 -179.005 201.662

-8701.44 -111.927 -2141.94
-111.927 -6695.77 255.059
-2141.94 255.059 -3565.78

-7777.69 80.7051 168.116
80.7051 -1009.39 -35.5622
168.116 -35.5622 -128.839

-8607.21 347.547 259.769
347.547 -2311.88 336.342
259.769 336.342 238.859

-6949.13 259.025 356.069
259.025 1535.45 -389.058
356.069 -389.058 839.884

-8279.71 -497.771 -695.804
-497.771 -2822.78 -277.861
-695.804 -277.861 -2060.36

-8180.66 752.848 -1014.14
752.848 -2362.45 -415.257
-1014.14 -415.257 -2544.43

-9627.56 1662.5 -1419.31
1662.5 -4983.23 -838
-1419.31 -838 -6089.54

-8659.2 1915.66 -1558.75
1915.66 -4453.45 -871.528
-1558.75 -871.528 -5318.09

-7908.54 -173.809 137.588
-173.809 -525.524 -435.308
137.588 -435.308 -3.19935

-8366.08 381.456 410.983
381.456 -2723.28 -290.27
410.983 -290.27 -2184.4

-8012.86 260.924 179.505
260.924 -1675.34 -364.222
179.505 -364.222 -1501.33

-8814.24 137.973 227.037
137.973 -757.562 12.5101
227.037 12.5101 -264.011

-7078.28 274.819 -297.537
274.819 363.902 38.712
-297.537 38.712 234.07

-6723.72 21.9298 -171.901
21.9298 1471.96 -60.517
-171.901 -60.517 302.8

-8072.63 208.679 507.938
208.679 -667.56 -129.413
507.938 -129.413 -1710.67

-10429.2 667.812 403.852
667.812 -6753.9 -51.9385
403.852 -51.9385 -6516.19

-6633.87 122.157 113.071
122.157 1011.83 -398.206
113.071 -398.206 1489.08

-7232.22 -409.9 -424.524
-409.9 1148.28 -26.3336
-424.524 -26.3336 593.001

-7196.16 -338.201 420.972
-338.201 1170.38 51.5746
420.972 51.5746 647.728

-7208.59 -36.2408 345.125
-36.2408 1091.69 396.497
345.125 396.497 950.694

-7077.94 194.514 -66.1838
194.514 3208.56 -195.737
-66.1838 -195.737 2552.45

-6861.87 -214.006 446.313
-214.006 1358.27 289.475
446.313 289.475 792.982

-7572.11 197.3 -295.346
197.3 605.25 375.605
-295.346 375.605 1215.76

-8393.44 175.785 -21.682
175.785 759.276 -71.6482
-21.682 -71.6482 597.434

-6932.17 -486.102 -488.43
-486.102 773.39 -472.134
-488.43 -472.134 695.264

-7251.98 -175.883 47.1991
-175.883 -376.052 58.0662
47.1991 58.0662 -178.163

-8422.88 -751.028 127.087
-751.028 -1577.75 -236.815
127.087 -236.815 -2641.64

-8901.96 86.6113 -7.93389
86.6113 -727.934 379.182
-7.93389 379.182 -743.579

-8086.18 246.515 -86.565
246.515 279.653 222.743
-86.565 222.743 1092.17

-7448.57 -208.157 -223.333
-208.157 373.061 101.411
-223.333 101.411 -17.0417

-6747.57 -423.072 -562.935
-423.072 2150.07 -119.13
-562.935 -119.13 3204.98

-7535.84 190.535 -45.0842
190.535 -476.008 -211.272
-45.0842 -211.272 106.543

-8667.38 329.625 -265.874
329.625 -2337.93 -392.799
-265.874 -392.799 336.602

-7857.32 729.331 17.7566
729.331 -1547.59 -231.589
17.7566 -231.589 -2885.83

-7821.78 -389.642 64.2823
-389.642 13.2476 98.901
64.2823 98.901 176.543

-7954.97 -138.135 -29.892
-138.135 -725.975 84.8577
-29.892 84.8577 -422.49

-8204.35 160.427 -323.015
160.427 -1164.86 42.982
-323.015 42.982 -655.195

-8699.88 333.95 -425.805
333.95 -2718.87 106.988
-425.805 106.988 -1827.54

-8015.98 769.931 -977.891
769.931 -2930.03 -302.368
-977.891 -302.368 -2373.96

-8254.85 380.243 -160.737
380.243 -1874.76 279.074
-160.737 279.074 -2337

-8743.18 -885.122 -143.468
-885.122 -1953.99 116.142
-143.468 116.142 -3205.18

-7654.09 -330.199 -331.43
-330.199 991.147 -28.8704
-331.43 -28.8704 1878.81

-9115.27 -1758.43 -717.786
-1758.43 -4029.38 800.022
-717.786 800.022 -6527.58

-8403.96 -642.169 928.918
-642.169 -2855.26 -176.304
928.918 -176.304 -2807.22

-8994.96 -297.395 -333.419
-297.395 -2477.57 -231.087
-333.419 -231.087 -1573.99

-7058.56 289.689 1133.06
289.689 -1957.58 -237.393
1133.06 -237.393 16.8966

-8180.29 -640.048 770.908
-640.048 -3249.73 311.632
770.908 311.632 -3078.87

-8935.04 -279.673 205.554
-279.673 -2276.05 275.105
205.554 275.105 -1680.96

-7310.62 184.746 -256.117
184.746 -636.984 -16.9673
-256.117 -16.9673 184.314

-7741.87 80.7402 -304.248
80.7402 -1070.61 -140.959
-304.248 -140.959 -41.4982

-8787.39 224.728 -263.243
224.728 -109.062 -79.348
-263.243 -79.348 -110.482

-9018.41 -1817.1 1624.77
-1817.1 -4799.95 -886.479
1624.77 -886.479 -5687.15

-7763.03 21.2985 -173.232
21.2985 -828.937 -47.4658
-173.232 -47.4658 16.4704

-7969.09 341.026 71.7612
341.026 -106.818 25.596
71.7612 25.596 667.753

-11033.3 -266.435 -623.771
-266.435 -6865.24 -82.2164
-623.771 -82.2164 -7116.29

-8895.66 62.9884 -67.0597
62.9884 -607.303 -419.951
-67.0597 -419.951 -807.6

-8203.28 -598.026 941.926
-598.026 -2624.19 339.171
941.926 339.171 -2435.5

-8974.47 -530.849 2182.62
-530.849 -6597.57 -138.171
2182.62 -138.171 -5061.52

-7345.04 397.535 -80.8976
397.535 868.51 264.314
-80.8976 264.314 972.364

-8850.01 -60.4005 25.8008
-60.4005 -672.634 -424.794
25.8008 -424.794 -516.003

-8619.21 -246.435 246.236
-246.435 -2163.4 -399.261
246.236 -399.261 217.615

-8997.9 -1817.28 979.56
-1817.28 -4742.01 -358.644
979.56 -358.644 -6134.36

-6775.74 -247.151 288.076
-247.151 2446.32 46.7933
288.076 46.7933 3072.13

-6744.19 366.176 51.321
366.176 731.701 180.493
51.321 180.493 454.411

-8698.35 -440.854 -299.415
-440.854 -2353.55 -279.814
-299.415 -279.814 -1631.42

-8239.43 -895.642 779.021
-895.642 -2758.23 -63.6581
779.021 -63.6581 -3002.79

-9559.26 151.004 -268.971
151.004 -3597.54 30.7677
-268.971 30.7677 -3724.54

-8535.81 1353.35 -978.363
1353.35 -5337.07 -63.1447
-978.363 -63.1447 -5687.82

-7118.59 24.2561 147.894
24.2561 283.603 539.75
147.894 539.75 729.451

-8104.32 -464.861 -333.012
-464.861 -1857.2 -270.974
-333.012 -270.974 -2412.2

-7579.72 78.096 -275.178
78.096 -437.061 -0.725556
-275.178 -0.725556 -159.867

-8279.93 7.97065 -1.01172
7.97065 -1195.5 141.145
-1.01172 141.145 -510.309

-7766.72 -89.0511 242.361
-89.0511 -661.059 -202.202
242.361 -202.202 -607.275

-6707.15 333.357 471.004
333.357 785.353 42.2119
471.004 42.2119 351.434

-8966.83 419.561 -224.207
419.561 -2848.47 158.079
-224.207 158.079 -2062.54

-7357.3 21.2591 -277.899
21.2591 -835.647 674.096
-277.899 674.096 -938.944

-10020.1 405.828 -628.423
405.828 -6173.36 62.5715
-628.423 62.5715 -6029.29

-10267.1 262.05 -701.37
262.05 -6338.78 98.7638
-701.37 98.7638 -6492.15

-7437.06 381.154 -271.666
381.154 -1750.5 524.044
-271.666 524.044 -1853.81

-10985.6 -256.438 -628.643
-256.438 -7296.09 -81.4784
-628.643 -81.4784 -6964.3

-8053.51 -269.83 -48.9627
-269.83 -825.118 226.44
-48.9627 226.44 -979.181

-9428.73 -653.325 1676.25
-653.325 -7095.22 -247.278
1676.25 -247.278 -6403.66

-8127.02 843.591 2.49559
843.591 -2810.72 -204.589
2.49559 -204.589 -3589.14

-6677.84 53.8433 127.552
53.8433 867.363 558.776
127.552 558.776 1361.81

-6329.83 -144.721 396.661
-144.721 2197.39 -73.8971
396.661 -73.8971 783.37

-7776.86 -203.074 69.6786
-203.074 1031.21 238.608
69.6786 238.608 -223.423

-8842.44 -50.5376 -100.16
-50.5376 -524.803 448.717
-100.16 448.717 -511.19

-8365.69 118.431 14.2593
118.431 -1300.31 -131.557
14.2593 -131.557 -936.625

-7614.12 -372.52 -306.178
-372.52 -102.677 275.265
-306.178 275.265 267.153

-7167.22 57.0653 145.67
57.0653 220.051 -402.05
145.67 -402.05 591.026

-11024.8 -380.421 1115.95
-380.421 -9064.75 -251.938
1115.95 -251.938 -8419.94

-9906.34 602.771 1572.8
602.771 -6977.34 275.933
1572.8 275.933 -6018.25

-8248.64 -143.455 309.953
-143.455 1172.23 -277.944
309.953 -277.944 1553.18

-8850.78 1893.8 1585.46
1893.8 -4604.52 859.911
1585.46 859.911 -5420.69

-7616.12 -78.618 -96.1166
-78.618 665.16 -128.838
-96.1166 -128.838 648.838

-6655.99 -399.116 168.036
-399.116 285.753 -70.1675
168.036 -70.1675 1623.02

-8160.99 -19.5406 80.8358
-19.5406 -478.871 -197.587
80.8358 -197.587 -115.073

-8735.42 194.701 400.431
194.701 -2676.53 -169.077
400.431 -169.077 -1675.59

-8791.34 2062.76 666.502
2062.76 -3662.21 731.114
666.502 731.114 -6168.39

-7133.34 3.92551 531.622
3.92551 1187.62 207.773
531.622 207.773 967.049

-8658.89 2008.12 932.24
2008.12 -4409.5 218.996
932.24 218.996 -5734.7

-8542.72 283.526 156.802
283.526 -2332.68 -263.178
156.802 -263.178 -2046.27

-8115.8 253.416 873.669
253.416 -3347.84 -253.664
873.669 -253.664 -2923.46

-8718.94 2086.69 -699.485
2086.69 -3569.29 -737.403
-699.485 -737.403 -6220.76

-8174.67 -20.2836 -121.151
-20.2836 -281.555 -304.113
-121.151 -304.113 -607.297

-8125.01 -189.018 -108.609
-189.018 -90.3596 3.55152
-108.609 3.55152 351.175

-8061.41 15.8443 -48.007
15.8443 1119.89 109.621
-48.007 109.621 1122.23

-7494.39 114.613 301.584
114.613 2125.47 139.277
301.584 139.277 1379.05

-10085.3 1053.84 -255.886
1053.84 -7407.24 -143.66
-255.886 -143.66 -7816.4

-7823.63 979.787 -24.693
979.787 -1613.09 221.529
-24.693 221.529 -2301.13

-7719.42 919.334 -108.753
919.334 -1579.24 -391.504
-108.753 -391.504 -2468.55

-8047.59 767.104 1060.42
767.104 -3006.56 223.629
1060.42 223.629 -2298.76

-8223.95 -163.71 2468.27
-163.71 -6210.97 -421.886
2468.27 -421.886 -3227.39

-8696.04 1220.45 936.927
1220.45 -5188.6 207.667
936.927 207.667 -5440.67

-8363.11 710.203 1039.04
710.203 -2421.28 300.511
1039.04 300.511 -2628.87

-9708.84 1635.78 1444.51
1635.78 -5043.73 831.996
1444.51 831.996 -6033.74

