# vtk DataFile Version 3.0
vtk output at time 0.6
ASCII
DATASET UNSTRUCTURED_GRID
POINTS 1331 float
0 0 0 0 0 0.05 0 0 0.1 
0 0 0.15 0 0 0.2 0 0.05 0 
0 0.05 0.05 0 0.05 0.1 0 0.05 0.15 
0 0.05 0.2 0 0.1 0 0 0.1 0.05 
0 0.1 0.1 0 0.1 0.15 0 0.1 0.2 
0 0.15 0 0 0.15 0.05 0 0.15 0.1 
0 0.15 0.15 0 0.15 0.2 0 0.2 0 
0 0.2 0.05 0 0.2 0.1 0 0.2 0.15 
0 0.2 0.2 0.0405547 -0.00643289 -0.00628269 0.0423866 -0.00624694 0.0468559 
0.0436416 -0.006539 0.100064 0.042761 -0.00649046 0.153201 0.0403831 -0.0064797 0.206402 
0.0428599 0.0470152 -0.00658833 0.0429218 0.0469707 0.20659 0.0433487 0.100213 -0.00647344 
0.0431393 0.100037 0.206368 0.0434333 0.153303 -0.00653105 0.0433304 0.153129 0.206661 
0.040405 0.206664 -0.00615825 0.0424145 0.206294 0.0469938 0.04375 0.206506 0.100122 
0.0428864 0.206486 0.153187 0.0403194 0.206583 0.206397 0.0849377 -0.00810316 -0.00776938 
0.0852456 -0.00889058 0.045512 0.0855957 -0.00909459 0.0998437 0.0841679 -0.00894374 0.15427 
0.0848284 -0.00817477 0.207988 0.0847584 0.0453693 -0.00851829 0.0846798 0.0454872 0.208953 
0.0853108 0.0999141 -0.00914714 0.0858029 0.0999748 0.209267 0.0846043 0.154772 -0.0092963 
0.0849025 0.154507 0.209249 0.0849981 0.208574 -0.00776323 0.0848994 0.209143 0.0457639 
0.0859516 0.209173 0.100121 0.0843645 0.20889 0.154407 0.0849687 0.208271 0.208125 
0.129562 -0.00709695 -0.0066349 0.127465 -0.00709954 0.0467684 0.126209 -0.00679624 0.10022 
0.127193 -0.00687827 0.153246 0.129418 -0.00713727 0.20651 0.127332 0.0467398 -0.00751037 
0.12741 0.0466337 0.207516 0.126113 0.100144 -0.00720721 0.126611 0.100031 0.207191 
0.126308 0.15332 -0.0069933 0.126981 0.153179 0.206837 0.129382 0.206707 -0.00648461 
0.127976 0.206765 0.0469006 0.126793 0.206881 0.100087 0.127593 0.207021 0.15314 
0.129463 0.206711 0.20644 0.17 0 0 0.17 0 0.05 
0.17 0 0.1 0.17 0 0.15 0.17 0 0.2 
0.17 0.05 0 0.17 0.05 0.05 0.17 0.05 0.1 
0.17 0.05 0.15 0.17 0.05 0.2 0.17 0.1 0 
0.17 0.1 0.05 0.17 0.1 0.1 0.17 0.1 0.15 
0.17 0.1 0.2 0.17 0.15 0 0.17 0.15 0.05 
0.17 0.15 0.1 0.17 0.15 0.15 0.17 0.15 0.2 
0.17 0.2 0 0.17 0.2 0.05 0.17 0.2 0.1 
0.17 0.2 0.15 0.17 0.2 0.2 0 0 0.025 
0 0.025 0 0.0195766 -0.00391877 -0.00550966 0.0218209 -0.00488996 0.0217963 
0 0 0.075 0 0.025 0.025 0 0.025 0.05 
0 0.025 0.075 0.0224178 -0.00500446 0.0478733 0 0 0.125 
0 0.025 0.1 0.0222448 -0.00513749 0.0738164 0.0224585 -0.00489728 0.100114 
0.0223543 -0.00498738 0.126369 0 0 0.175 0 0.025 0.125 
0 0.025 0.15 0 0.025 0.175 0.0225343 -0.0049239 0.152181 
0 0.025 0.2 0.021899 -0.00485719 0.178164 0.0194945 -0.00391378 0.205504 
0 0.05 0.025 0 0.075 0 0 0.075 0.025 
0.0206532 0.0221529 -0.00499524 0.0225728 0.0215158 0.0218158 0.0217257 0.048162 -0.00467629 
0.0225593 0.0747932 -0.00507509 0 0.05 0.075 0 0.075 0.05 
0.0227292 0.0216069 0.0481483 0.0226347 0.0481515 0.0217074 0.0232472 0.0744849 0.0213616 
0.0438641 0.0203266 0.0468048 0.0445661 0.0200328 0.0733878 0.0439922 0.046903 0.0201917 
0.0449759 0.0735026 0.0197428 0 0.05 0.125 0 0.075 0.075 
0 0.075 0.1 0 0.075 0.125 0.0229509 0.0214363 0.0740859 
0.0231623 0.0215192 0.100103 0.0231897 0.0215756 0.126092 0.0447938 0.0199142 0.0998843 
0.0452374 0.0197444 0.126822 0.0455432 0.0734724 0.0462181 0 0.05 0.175 
0 0.075 0.15 0.0230454 0.0216582 0.152001 0.0227659 0.0480814 0.178259 
0.0231296 0.0743142 0.178607 0.0448013 0.0199986 0.153373 0.0442227 0.0468443 0.179867 
0.0447021 0.0733896 0.180115 0 0.075 0.175 0 0.075 0.2 
0.0226798 0.0215228 0.178185 0.0206321 0.0221655 0.20499 0.0218266 0.0481105 0.204685 
0.0225107 0.0746474 0.205108 0 0.1 0.025 0 0.125 0 
0.0226038 0.100344 -0.00489398 0 0.1 0.075 0 0.125 0.025 
0 0.125 0.05 0 0.125 0.075 0.0232367 0.100304 0.0216645 
0.0233551 0.12613 0.0216011 0.0455348 0.100026 0.0196604 0.0454451 0.126937 0.0197868 
0 0.1 0.125 0 0.125 0.1 0.0449767 0.0462585 0.0999289 
0.0454877 0.0462607 0.126779 0.0455068 0.100045 0.0461708 0.0448669 0.100012 0.153909 
0.0456751 0.126875 0.0463091 0.045186 0.126749 0.153741 0.04502 0.153771 0.10006 
0.0453846 0.153669 0.126894 0.0851134 0.100005 0.100031 0 0.1 0.175 
0 0.125 0.125 0 0.125 0.15 0 0.125 0.175 
0.0230806 0.100174 0.178512 0.0232072 0.126037 0.178578 0.0452745 0.0463934 0.153415 
0.0448533 0.0999566 0.180251 0.0448725 0.126732 0.180169 0.04541 0.153669 0.153496 
0 0.125 0.2 0.0224982 0.100212 0.205081 0 0.15 0.025 
0 0.175 0 0 0.175 0.025 0.0223871 0.12594 -0.00491945 
0.0223333 0.15206 -0.00452912 0.0207866 0.177798 -0.00483799 0.0226114 0.178388 0.0218835 
0 0.15 0.075 0 0.175 0.05 0.0231059 0.151965 0.0217972 
0.0227633 0.178334 0.0482106 0.0449527 0.153458 0.0200962 0.0442424 0.179859 0.0469059 
0.0447326 0.180014 0.0734759 0 0.15 0.125 0 0.175 0.075 
0 0.175 0.1 0 0.175 0.125 0.0229998 0.178521 0.0741218 
0.0232 0.178438 0.100121 0.0232044 0.178452 0.126107 0.0453899 0.153446 0.0464483 
0.0449595 0.180098 0.100027 0.0452836 0.180278 0.1269 0 0.15 0.175 
0 0.175 0.15 0.0230287 0.151889 0.178433 0.023069 0.178266 0.152005 
0.0446986 0.153282 0.180128 0.0450192 0.180105 0.153445 0 0.175 0.175 
0 0.175 0.2 0.0222618 0.125844 0.20516 0.0222426 0.151964 0.204753 
0.0227179 0.178347 0.178206 0.020696 0.177736 0.204955 0 0.2 0.025 
0.0195813 0.203888 -0.00539842 0.0218323 0.204841 0.0219099 0 0.2 0.075 
0.0224351 0.20496 0.0479262 0 0.2 0.125 0.0222787 0.205074 0.0738806 
0.0224963 0.204848 0.100142 0.0223699 0.204982 0.126389 0 0.2 0.175 
0.0225859 0.204816 0.15221 0.021944 0.204742 0.178137 0.0194932 0.203828 0.205483 
0.0416704 -0.0064131 0.0200577 0.0421889 0.0202999 -0.00665808 0.0627133 -0.00749231 -0.00705867 
0.0635459 0.0190431 -0.00737806 0.0431188 -0.00646996 0.073467 0.0434408 0.0203354 0.0200251 
0.0633298 -0.00736854 0.0193382 0.0639435 -0.0075478 0.0459424 0.0643189 -0.00771096 0.0727338 
0.0643778 0.0191399 0.0192177 0.0432555 -0.00650147 0.126621 0.0648146 -0.00785014 0.0998675 
0.0416881 -0.00649783 0.180044 0.0435537 0.0202532 0.180039 0.0645221 -0.00797554 0.126949 
0.0636891 -0.00782453 0.154007 0.0632645 -0.00750756 0.180912 0.0643572 0.0190755 0.181009 
0.0421388 0.0202567 0.206753 0.0625684 -0.00754918 0.207323 0.0634518 0.0190311 0.207601 
0.0432017 0.0734592 -0.00658282 0.0639068 0.0459547 -0.00763677 0.0431922 0.0734031 0.206563 
0.0639065 0.0460123 0.207809 0.0434845 0.126655 -0.00656015 0.0645636 0.0728328 -0.00791924 
0.0646882 0.100041 -0.00803285 0.0646629 0.127101 -0.00808676 0.0433603 0.126509 0.206645 
0.0645813 0.0729242 0.207951 0.0647091 0.0999378 0.207886 0.0647055 0.126954 0.208007 
0.0424214 0.180043 -0.00654824 0.0437529 0.179931 0.0201658 0.0642034 0.154386 -0.00787034 
0.0437469 0.179836 0.180081 0.042275 0.179864 0.206806 0.0642488 0.154094 0.207953 
0.0416111 0.206559 0.0202198 0.063665 0.181485 -0.00737556 0.0626522 0.208036 -0.00688763 
0.0431967 0.206449 0.073592 0.0646313 0.181247 0.0192199 0.0633497 0.207798 0.019487 
0.0638663 0.207795 0.0461754 0.0644509 0.207774 0.0730075 0.0433492 0.206531 0.126641 
0.0650329 0.207876 0.100054 0.0416892 0.206533 0.180042 0.0645019 0.181048 0.181144 
0.0646899 0.208012 0.127059 0.0638727 0.207845 0.154104 0.0633352 0.207617 0.180996 
0.0635506 0.181135 0.207744 0.0626157 0.20771 0.207385 0.0852064 -0.00809363 0.0186161 
0.0849752 0.0184053 -0.0081469 0.107252 -0.00751994 -0.00743214 0.106941 -0.00747615 0.0190178 
0.0854679 -0.00898026 0.0725567 0.0852997 0.018376 0.0184879 0.085409 0.0455099 0.0183728 
0.106388 -0.00762651 0.045832 0.105598 0.0459197 0.0188233 0.0853019 -0.00919304 0.127096 
0.0854147 0.0455031 0.045692 0.0854105 0.0455944 0.154392 0.10605 -0.00777891 0.0728198 
0.105608 -0.00778612 0.100052 0.105908 -0.00815662 0.127182 0.105172 0.0459303 0.0458349 
0.104856 0.0458686 0.154454 0.125071 0.0462863 0.100161 0.125027 0.0463678 0.126912 
0.0847815 -0.0081581 0.181436 0.0848244 0.0183892 0.181734 0.0851922 0.0456404 0.181831 
0.105516 -0.00756264 0.154204 0.105237 0.0458177 0.181453 0.0848556 0.0183834 0.20845 
0.106562 -0.00749503 0.180882 0.107092 -0.0076484 0.20731 0.0852742 0.0725433 -0.00887231 
0.106557 0.0190208 -0.00765183 0.106149 0.019082 0.0189214 0.106227 0.0458038 -0.00781642 
0.105773 0.0727492 -0.00797274 0.0854338 0.0726401 0.20912 0.105744 0.0190049 0.181139 
0.106367 0.0189007 0.207635 0.106242 0.0456695 0.207973 0.105969 0.072669 0.208318 
0.0850458 0.127393 -0.0091516 0.0854501 0.154574 0.0458699 0.105461 0.0998757 -0.00804238 
0.104929 0.154328 0.0460511 0.125164 0.10012 0.0460661 0.125201 0.126738 0.0462094 
0.0855596 0.127347 0.209226 0.0853775 0.154425 0.1543 0.0854147 0.1545 0.181795 
0.105799 0.0997724 0.208472 0.104831 0.154342 0.154034 0.105265 0.154326 0.181272 
0.124911 0.100008 0.153999 0.124969 0.0998106 0.180534 0.124769 0.126593 0.154023 
0.125164 0.126449 0.180585 0.0849755 0.182 -0.00833734 0.0851225 0.182086 0.0184454 
0.0853371 0.181993 0.0457029 0.105521 0.127295 -0.00779092 0.105307 0.154321 -0.00770931 
0.106301 0.181354 -0.0074165 0.105704 0.181273 0.019154 0.105269 0.181396 0.0460713 
0.125459 0.153466 0.0465432 0.0847074 0.181584 0.181844 0.084961 0.181672 0.208631 
0.105875 0.127053 0.208351 0.105857 0.154159 0.208041 0.105639 0.181243 0.181092 
0.10637 0.181152 0.20766 0.125738 0.153252 0.180277 0.0850871 0.20862 0.018735 
0.107302 0.20798 -0.00702409 0.106916 0.207782 0.0193719 0.0855373 0.209144 0.072839 
0.106218 0.207955 0.0459655 0.0854379 0.209147 0.127295 0.106221 0.208163 0.0729728 
0.106093 0.20836 0.100112 0.105936 0.208005 0.127289 0.125601 0.153764 0.100036 
0.125984 0.18024 0.100054 0.084776 0.208248 0.181553 0.105532 0.207597 0.154264 
0.106563 0.207569 0.180888 0.107227 0.207738 0.207282 0.128483 -0.00706233 0.0197241 
0.128033 0.019766 -0.00727905 0.150675 -0.00416265 -0.00591298 0.149536 0.0218276 -0.005512 
0.126749 -0.00701124 0.0734879 0.126887 0.0197603 0.0194582 0.126221 0.0464946 0.0195098 
0.148267 -0.00509857 0.0214893 0.147558 -0.00511229 0.0475954 0.147824 -0.0053668 0.0735968 
0.147546 0.0212225 0.0212679 0.147199 0.0213539 0.0475381 0.147097 0.0210782 0.0738235 
0.147032 0.047706 0.0475726 0.146824 0.0475219 0.0738551 0.126655 -0.00697437 0.12684 
0.125634 0.0464973 0.046416 0.14767 -0.00520694 0.100063 0.146951 0.0210127 0.100024 
0.146661 0.0471756 0.100002 0.146684 0.0470235 0.125998 0.128276 -0.00701195 0.180182 
0.126688 0.0197466 0.180527 0.126043 0.0464028 0.1805 0.147851 -0.00547822 0.126461 
0.147471 -0.00505742 0.152384 0.148197 -0.00509066 0.178407 0.147043 0.0209809 0.126181 
0.147092 0.0213846 0.152405 0.147479 0.02122 0.178634 0.146872 0.0477201 0.15234 
0.127934 0.0196542 0.207207 0.150579 -0.00419907 0.205769 0.149465 0.0217787 0.205383 
0.126703 0.0734864 -0.00739152 0.148102 0.0478244 -0.00518908 0.147237 0.0478359 0.0210966 
0.147052 0.0739835 0.0211529 0.126941 0.0733825 0.207407 0.147157 0.0477844 0.178727 
0.148081 0.0477454 0.20502 0.146974 0.0739445 0.178598 0.126256 0.126951 -0.00707368 
0.147808 0.0742027 -0.00554505 0.147373 0.0998948 -0.00540284 0.146879 0.0999384 0.0208002 
0.14678 0.100144 0.0470266 0.147404 0.125572 -0.00555785 0.146924 0.125993 0.0205766 
0.146721 0.126057 0.046654 0.126897 0.126762 0.207027 0.147788 0.0742292 0.205252 
0.146975 0.100066 0.178615 0.147446 0.0998099 0.205145 0.146802 0.125726 0.178885 
0.147501 0.125331 0.205324 0.127604 0.180001 -0.00687612 0.126579 0.179992 0.0197571 
0.126044 0.180128 0.0466181 0.148044 0.152143 -0.0051998 0.147287 0.152252 0.0209843 
0.147047 0.152275 0.047207 0.12652 0.180004 0.180265 0.127775 0.179929 0.20694 
0.147195 0.15192 0.178574 0.14817 0.151863 0.20495 0.128569 0.206686 0.019949 
0.149333 0.178112 -0.00549685 0.150512 0.204044 -0.00595469 0.127236 0.20689 0.0735448 
0.147575 0.1787 0.02122 0.14724 0.178639 0.0474313 0.147112 0.178559 0.07362 
0.148361 0.205077 0.0213515 0.147747 0.205279 0.0475705 0.147871 0.2052 0.0735361 
0.127116 0.207177 0.126485 0.147476 0.178318 0.100011 0.147855 0.204915 0.100039 
0.128416 0.206683 0.180097 0.147088 0.17825 0.126309 0.147225 0.178316 0.152568 
0.147431 0.178518 0.178641 0.147757 0.204937 0.12655 0.147549 0.204943 0.152372 
0.148206 0.204885 0.178521 0.149341 0.177889 0.20537 0.150523 0.203896 0.205847 
0.17 0 0.025 0.17 0.025 0 0.17 0 0.075 
0.17 0.025 0.025 0.17 0.025 0.05 0.17 0.025 0.075 
0.17 0 0.125 0.17 0.025 0.1 0.17 0 0.175 
0.17 0.025 0.125 0.17 0.025 0.15 0.17 0.025 0.175 
0.17 0.025 0.2 0.17 0.05 0.025 0.17 0.075 0 
0.17 0.075 0.025 0.17 0.05 0.075 0.17 0.075 0.05 
0.17 0.05 0.125 0.17 0.075 0.075 0.17 0.075 0.1 
0.17 0.075 0.125 0.17 0.05 0.175 0.17 0.075 0.15 
0.17 0.075 0.175 0.17 0.075 0.2 0.17 0.1 0.025 
0.17 0.125 0 0.17 0.1 0.075 0.17 0.125 0.025 
0.17 0.125 0.05 0.17 0.125 0.075 0.17 0.1 0.125 
0.17 0.125 0.1 0.17 0.1 0.175 0.17 0.125 0.125 
0.17 0.125 0.15 0.17 0.125 0.175 0.17 0.125 0.2 
0.17 0.15 0.025 0.17 0.175 0 0.17 0.175 0.025 
0.17 0.15 0.075 0.17 0.175 0.05 0.17 0.15 0.125 
0.17 0.175 0.075 0.17 0.175 0.1 0.17 0.175 0.125 
0.17 0.15 0.175 0.17 0.175 0.15 0.17 0.175 0.175 
0.17 0.175 0.2 0.17 0.2 0.025 0.17 0.2 0.075 
0.17 0.2 0.125 0.17 0.2 0.175 0.142272 0.205643 0.0112613 
0.15694 0.185701 -0.00465941 0.0704286 -0.00792353 0.172182 0.155291 0.204335 0.0311949 
0.17 0.183333 0.0166667 0.155027 0.186421 0.0135287 0 0.0333333 0.0333333 
0.17 0.0666667 0.166667 0 0.0666667 0.0666667 0.0577162 0.207378 0.0821779 
0.17 0.116667 0.116667 0.139154 0.0998052 0.153172 0.0558567 0.207482 0.0109268 
0.0705541 0.190693 -0.00748424 0.17 0.133333 0.166667 0.140921 0.0650662 0.206092 
0.154486 0.0657557 0.186388 0.0278746 -0.00540963 0.0116987 0.0131902 0.0143976 -0.00428779 
0.0716674 0.0817351 -0.00837637 0.113458 0.0281722 -0.0075477 0.0704846 0.00987532 -0.00748309 
0.0558796 -0.00707091 0.0107496 0.0295055 0.20571 0.117633 0.0155187 0.0311391 0.0313325 
0.0567227 0.028351 -0.00718569 0.056714 0.0105819 0.0106328 0 0.133333 0.0333333 
0.154454 0.0828202 0.186526 0.17 0.0833333 0.183333 0.155009 0.0826982 0.20432 
0.0285395 0.169895 -0.00553761 0 0.0166667 0.0166667 0.0150893 0.0137147 0.0139086 
0.0148564 -0.00412254 0.0315306 0.0153605 0.0135848 0.0313488 0.0706612 0.208146 0.0281106 
0.0709993 0.190473 0.0101146 0.0311101 0.0651678 0.0470854 0.17 0.166667 0.166667 
0.0303294 0.0298824 0.0825997 0 0.116667 0.0166667 0.0150816 0.117392 -0.00410125 
0 0.0333333 0.166667 0.112902 0.171979 -0.00727211 0.125301 0.153385 0.135825 
0.0712803 -0.00836741 0.135991 0.141739 0.169862 0.206032 0.114095 0.207287 0.189447 
0.0994511 0.190318 0.20777 0.0714168 0.190466 0.0279611 0.0292176 0.0653407 -0.00579971 
0.0151622 0.0486703 0.0139137 0.0284185 0.169803 0.205695 0 0.166667 0.0333333 
0.0149243 -0.00404542 0.168457 0 0.0166667 0.183333 0.0154319 0.01364 0.168625 
0.17 0.0833333 0.0833333 0.0288951 0.187583 0.0119928 0.0278258 0.205414 0.0118379 
0.0132758 0.185536 -0.00418128 0.0151188 0.1862 0.0139894 0.0148951 0.204025 0.0315977 
0.0153961 0.18629 0.0314141 0 0.183333 0.0166667 0 0.133333 0.166667 
0.0155419 0.151441 0.0140014 0.015563 0.168727 0.0313686 0.0297172 0.170092 0.0123076 
0 0.166667 0.166667 0 0.0666667 0.0333333 0.0155496 0.0661093 0.0136086 
0 0.0833333 0.0166667 0.0156089 0.0832541 0.013569 0.0156181 0.100258 0.0137019 
0.0151009 0.083148 -0.0041521 0 0.116667 0.183333 0.01497 0.117344 0.204349 
0.0707375 -0.00775014 0.0279305 0.0713709 0.00988567 0.0278861 0.0709315 0.00997598 0.0101273 
0.0132241 0.185488 0.204204 0.0289206 0.187534 0.188142 0.0278315 0.205339 0.188282 
0.112752 0.13603 0.207839 0 0.166667 0.0666667 0.0154742 0.186284 0.0486193 
0 0.183333 0.0833333 0.0154301 0.186638 0.0658062 0.0149063 0.204306 0.0654741 
0.154282 0.117004 0.169195 0 0.0166667 0.0833333 0.014876 -0.00436525 0.0654223 
0.0591322 0.172044 0.117977 0.0294476 0.13488 0.2059 0.0155518 0.134199 0.186402 
0.0155261 0.117212 0.186565 0.0294383 -0.00582789 0.082599 0.0155041 0.0134751 0.0829156 
0.0292601 0.0652244 0.205835 0 0.183333 0.116667 0.0155844 0.186338 0.1173 
0.0150165 0.204089 0.134709 0 0.166667 0.133333 0.0155448 0.186424 0.134369 
0.0157292 0.168932 0.134231 0.0155743 0.186123 0.151486 0.0444883 0.0111449 0.0823112 
0.0575818 -0.00735967 0.081973 0.0302252 0.0119953 0.0825711 0.0295092 0.135018 -0.0056577 
0.0156184 0.134247 0.013819 0.0156063 0.117264 0.0136535 0.0297038 0.170015 0.187846 
0.0154996 0.151399 0.186173 0.0302677 0.169973 0.170226 0.0156133 0.168696 0.168693 
0 0.183333 0.183333 0.0151738 0.186123 0.186006 0.0149797 0.203907 0.168448 
0.0154726 0.186209 0.16862 0.0155799 0.0311481 0.168658 0.0152441 0.0486122 0.186059 
0.0151418 0.0137626 0.186028 0.0131777 0.014419 0.204239 0.0278446 -0.00541092 0.188305 
0.154542 0.186205 0.151746 0.17 0.166667 0.133333 0.0311427 0.153106 0.117719 
0 0.116667 0.116667 0.0311992 0.135566 0.135408 0.1405 0.170071 0.188246 
0.154541 0.168839 0.169148 0.0281986 0.0302484 -0.00569177 0.029444 0.0300252 0.0121565 
0.0427664 0.0114714 0.0110198 0.0288019 0.0124308 0.0118452 0.114003 -0.0072991 0.189497 
0.0993984 0.00980265 0.207696 0.125289 0.100102 0.0284057 0.0155232 0.0659771 0.186434 
0.0156832 0.0830731 0.169018 0 0.0666667 0.166667 0.155028 0.082715 -0.00452638 
0.17 0.0833333 0.0166667 0.0447765 0.08249 0.010824 0.0311496 0.0826911 0.0294156 
0.0157762 0.0831851 0.0310228 0.0439174 0.188654 0.046928 0.0714158 0.208287 0.0638802 
0.0574443 0.0640689 0.20748 0.0301298 0.0652219 0.188043 0 0.0333333 0.0666667 
0.0155985 0.0309518 0.0659861 0.0154536 0.013654 0.0485786 0.0154151 0.0133217 0.0657783 
0.17 0.0333333 0.133333 0.17 0.183333 0.0833333 0.15518 0.204358 0.0651586 
0.0294826 -0.0057195 0.117619 0.0155633 0.013719 0.10011 0.0558027 -0.00717053 0.189482 
0.0708114 0.00992105 0.190173 0.070371 0.00982645 0.207771 0.0155437 0.0137913 0.151473 
0 0.0333333 0.133333 0.0566749 0.0105015 0.189581 0.0566525 0.0283518 0.207368 
0.0442679 0.0645788 0.188902 0.0445399 0.0823535 0.188992 0.0717119 0.0818503 0.208401 
0.0439965 0.0468543 0.188729 0.0574284 0.0283733 0.189632 0.030095 0.0299957 0.170174 
0.139837 0.170239 0.0646017 0.155153 0.204113 0.168696 0.17 0.183333 0.183333 
0.154668 0.186423 0.168959 0.113069 0.0282065 0.0101608 0.112896 0.0639565 -0.00775329 
0 0.0833333 0.183333 0.0150278 0.0829944 0.204285 0.0155416 0.100172 0.1865 
0.0155563 0.0831398 0.186532 0.070455 0.190332 0.207926 0.0558343 0.207304 0.189544 
0 0.0166667 0.116667 0.0155741 0.0136701 0.117291 0.0150012 -0.00410263 0.134687 
0.0155367 0.0135912 0.134353 0.0995867 0.00991329 -0.00770847 0.114279 -0.0072734 0.0103537 
0.113588 0.0103579 0.0102822 0.125762 0.171208 0.0643814 0.125595 0.153447 0.0643231 
0.126154 0.189092 0.100062 0.0991792 -0.00807847 0.0636449 0.04468 0.0111175 0.117798 
0.0446072 0.0111238 0.100047 0.03036 0.0120819 0.117627 0.057671 -0.00746545 0.117846 
0.0583849 0.0641435 0.18984 0.0581635 0.0282952 0.171799 0.0711319 0.00982315 0.172285 
0.0441397 0.0290736 0.171038 0.0590808 0.0641289 0.154125 0.0585963 0.0462666 0.171964 
0.058999 0.0641013 0.17205 0.0305179 0.0824705 0.170215 0.0312017 0.0645019 0.135308 
0 0.0833333 0.116667 0.0591226 0.0279482 0.117835 0.0311469 0.0469128 0.117594 
0.0587819 0.0101657 0.117795 0.0308577 0.0472654 0.152635 0.0312356 0.0469392 0.135083 
0 0.0666667 0.133333 0.0309991 0.0295796 0.135245 0.0443027 0.0111641 0.15329 
0.0447131 0.0109866 0.1356 0.0157302 0.0310916 0.134232 0.12572 0.135476 0.189245 
0.0990805 0.118104 0.208726 0.125406 0.117564 0.189537 0.111827 0.135957 0.190104 
0.17 0.116667 0.183333 0.15443 0.0998662 0.18652 0.15445 0.116908 0.186707 
0.154995 0.116988 0.204419 0.141934 0.0297565 0.20618 0.141219 0.0119355 0.188549 
0.156937 0.0141889 0.204501 0.142226 -0.00579338 0.188573 0.113259 0.189709 0.189625 
0.127222 0.188778 0.189233 0.113205 0.171874 0.207502 0.154469 0.134011 0.186556 
0.140801 0.1348 0.206097 0.139832 0.134834 0.188317 0.154749 0.151353 0.186287 
0.140637 0.0295415 0.188324 0.154654 0.0483904 0.186366 0.154954 0.0135328 0.186286 
0.17 0.0166667 0.183333 0.155148 -0.00419999 0.168615 0.15464 0.0134819 0.168873 
0.17 0.0333333 0.166667 0.154531 0.0310159 0.169074 0.154499 0.0136235 0.151676 
0.0705127 0.208 0.172267 0.0708899 0.190209 0.190337 0.0443649 0.153194 0.188941 
0.0157234 0.134151 0.16898 0.030613 0.135113 0.170255 0.0590005 0.153875 0.172098 
0.0591266 0.153831 0.154133 0.0589998 0.135862 0.154101 0.0575911 0.135804 0.207516 
0.0446561 0.135509 0.189022 0.0302975 0.117578 0.188053 0.0717234 0.118056 0.208356 
0.0445625 0.11773 0.188903 0.0446311 0.100014 0.188966 0.0590812 0.117924 0.172179 
0.0306841 0.117748 0.152959 0.0587845 0.117926 0.189872 0.0303666 0.100018 0.153075 
0.0312399 0.153136 0.135211 0 0.133333 0.133333 0.0310074 0.170467 0.135291 
0.0309762 0.15283 0.15276 0.0989878 0.190198 0.19018 0.084864 0.190562 0.190676 
0.0990442 0.207786 0.172281 0.0568278 0.171794 0.207502 0.042888 0.18866 0.189089 
0.0576724 0.171784 0.189767 0.0567714 0.189659 0.189697 0.0429349 0.188773 0.0111787 
0.0569453 0.172098 -0.00722589 0.0568551 0.189849 0.0107179 0.0991291 0.0816016 0.208657 
0.0986232 0.0456728 0.190598 0.0852618 0.0456157 0.190955 0.113357 0.02802 0.20756 
0.127313 0.0108866 0.189462 0.113312 0.0103005 0.189666 0.112128 0.0280744 0.17213 
0.0988595 -0.00816795 0.136303 0.0986771 0.0637488 0.190675 0.0983872 0.0275834 0.154571 
0.0852749 0.0273942 0.154431 0.0711927 0.190229 0.172413 0.0585506 0.171759 0.172017 
0.0444648 0.188879 0.153337 0.0444589 0.171025 0.171157 0.0303956 0.187936 0.117638 
0.0447461 0.188867 0.100132 0.0578231 0.20751 0.117948 0.140116 0.187998 0.0823665 
0.14084 0.205879 0.0824442 0.154554 0.186475 0.082628 0.0587523 0.135944 0.136015 
0.111929 0.172082 0.153897 0.0983837 0.172513 0.136107 0.112974 0.207832 0.11806 
0.125964 0.153256 0.189059 0.140022 0.1701 0.170643 0.112503 0.171848 0.189844 
0.126007 0.171144 0.17141 0.0984439 0.190172 0.172437 0.0984952 0.154499 0.190565 
0.0852941 0.1545 0.190931 0.0713354 -0.00811889 0.0636272 0.043715 0.0114572 0.0468052 
0.0440929 0.0112212 0.0645486 0.142335 -0.00579346 0.0112871 0.157009 0.0142314 -0.00460124 
0.0294793 0.205749 0.0826658 0.0155859 0.18624 0.100125 0.0303056 0.187944 0.082624 
0.0155336 0.186452 0.0829467 0.111419 0.064004 0.154276 0.125399 0.0998682 0.189365 
0.0984688 0.063822 0.172628 0.13966 0.0293033 0.135185 0.112618 -0.00763801 0.11812 
0.125411 0.0286827 0.135706 0.125263 0.0642591 0.153681 0.11197 0.0280485 0.154245 
0.139589 0.064775 0.170518 0.139858 0.0825388 0.18826 0.139796 0.0472203 0.170549 
0.15436 0.0656078 0.169023 0.140005 0.0295964 0.170658 0.0446622 0.188851 0.0824219 
0.0442351 0.188831 0.064643 0.0156269 0.169023 0.0660134 0.140793 0.205829 0.117641 
0.1547 0.186286 0.100013 0.140115 0.187923 0.117625 0.0853871 0.172644 0.154452 
0.0987738 0.208265 0.136375 0.098566 0.172541 0.154322 0.0986034 0.172476 0.172436 
0.155041 0.204004 0.134916 0.154461 0.186224 0.13454 0.17 0.183333 0.116667 
0.154508 0.186245 0.117403 0.138897 0.117583 0.135804 0.111359 0.136097 0.135984 
0.111482 0.154077 0.13597 0.15449 0.0828106 0.0131772 0.140891 0.0651341 -0.00631043 
0.111684 0.154112 0.064147 0.139274 0.117635 0.0642486 0.140065 0.152926 0.100031 
0.127243 0.188836 0.0108226 0.141612 0.170074 -0.00615419 0.140475 0.170299 0.0115824 
0.141292 0.187845 0.011336 0.0282195 0.0302169 0.205698 0.0427808 0.0114151 0.189059 
0.0295286 0.0299902 0.187836 0.0288492 0.0124096 0.188161 0.0594051 0.118036 0.0278963 
0.15477 0.18663 0.0309858 0.17 0.166667 0.0333333 0.154605 0.169057 0.0307838 
0.141325 0.0119537 0.0113294 0.127491 0.0109183 0.0104665 0.141986 0.0298257 -0.00630158 
0.11311 0.207851 0.0821365 0.138813 0.117239 0.153521 0.139055 0.11719 0.170851 
0.17 0.133333 0.133333 0.0589525 0.136108 0.0640843 0.111574 0.136118 0.0640744 
0.085145 0.13579 0.10002 0.139879 0.135204 0.0112712 0.140476 0.135069 -0.00636468 
0.154833 0.15159 0.013376 0.154524 0.134189 0.0130304 0.17 0.133333 0.0333333 
0.126503 0.188991 0.0466427 0.11199 0.172036 0.0283278 0.112432 0.171955 0.0104887 
0.112583 0.189957 0.0462668 0.111328 0.0640315 0.13628 0.085037 0.100021 0.135843 
0.0587667 0.0640919 0.136006 0.141197 0.187686 0.188521 0.142202 0.205486 0.18865 
0.154933 0.186246 0.186358 0.156874 0.185545 0.204544 0.154596 0.186624 0.0654505 
0.154631 0.186478 0.0482249 0.17 0.166667 0.0666667 0.098782 0.190601 0.0458645 
0.0992026 0.208448 0.0637887 0.113328 0.189803 0.0106298 0.0994872 0.190584 -0.00749888 
0.114296 0.207445 0.0107536 0.0304199 0.0471229 0.0998746 0.0591281 0.0459735 0.0640479 
0.154446 0.169081 0.0653329 0.15455 0.151691 0.0477751 0.140037 0.170369 0.0292534 
0.139917 0.170332 0.0469772 0.139309 0.0645633 0.117771 0.125122 0.0285577 0.11788 
0.154397 0.0306005 0.134507 0.17 0.0666667 0.133333 0.154326 0.048217 0.151787 
0.154276 0.0479132 0.134509 0.0988936 0.19053 0.027915 0.0850591 0.190978 0.00964149 
0.0991661 0.190422 0.0101007 0.0995203 0.208164 0.0279848 0.15443 0.168643 0.134658 
0.125625 0.153397 0.171428 0.138964 0.134885 0.15332 0.125123 0.153507 0.153717 
0.0442457 0.171084 0.0291117 0.0301599 0.170016 0.0299445 0.0577566 0.171987 0.0105305 
0.0583137 0.171917 0.0283373 0.0854321 0.19112 0.0457004 0.0584011 0.189758 0.0642039 
0.044288 0.064623 0.0110628 0.0301363 0.0653398 0.0119363 0.0574313 0.0640292 -0.00746231 
0.0576819 0.136021 -0.00755099 0.0304748 0.11771 0.0120913 0.0592236 0.154207 0.064148 
0.0305007 0.152959 0.100009 0.0587196 0.172018 0.0462773 0.059078 0.172058 0.0641419 
0.0304959 0.170149 0.0826237 0.0312622 0.135267 0.0645256 0.0312837 0.117673 0.0469668 
0 0.116667 0.0833333 0.0309125 0.15263 0.0473674 0.031303 0.135112 0.0469923 
0 0.133333 0.0666667 0.0449786 0.135657 0.0109937 0.0445534 0.153353 0.0112428 
0.031116 0.135261 0.0296243 0.0158064 0.134229 0.0311653 0 0.0833333 0.0833333 
0.0312494 0.082524 0.064339 0.0312271 0.100179 0.0468232 0.0313186 0.0827852 0.0467282 
0.112325 0.136195 -0.00751252 0.125481 0.153499 0.0287613 0.139575 0.135252 0.0289654 
0.154282 0.134413 0.0474452 0.154344 0.117059 0.0301661 0.17 0.133333 0.0666667 
0.154257 0.0480032 0.0827236 0.0990645 -0.0077731 0.172237 0.0848537 0.00948067 0.190555 
0.0985592 0.00981569 0.172368 0.0990448 0.00993562 0.19011 0.0450162 0.100167 0.0109688 
0.071587 0.118142 -0.0084591 0.058982 0.117982 0.0100538 0.0448681 0.117898 0.0110893 
0.0986739 0.118214 -0.00822584 0.125229 0.117818 0.0282474 0.111492 0.136126 0.0281008 
0.125263 0.135728 0.0285198 0.0591263 0.0639281 0.064063 0.0852311 0.10002 0.0642336 
0.111614 0.0640705 0.0639482 0.0852132 0.0642331 0.100062 0.125266 0.0643315 0.0641847 
0.125191 0.0286923 0.100136 0.0438517 0.046916 0.0112805 0.0437887 0.0291846 0.0290625 
0.0573793 0.0284186 0.0105528 0.0298862 0.0300429 0.0298572 0.0851782 0.00953259 0.00965209 
0.0996845 -0.00779886 0.0277576 0.0993836 0.0100013 0.00988901 0.154279 0.117148 0.0473976 
0.154197 0.117286 0.064695 0.17 0.116667 0.0833333 0.17 0.0666667 0.0333333 
0.154529 0.0658123 0.0134037 0.0985509 0.172596 0.0640746 0.0853065 0.154692 0.0275721 
0.0981512 0.154536 0.0277827 0.0987533 0.190635 0.0639648 0.17 0.0333333 0.0333333 
0.112651 0.0460797 0.0100767 0.112596 0.0281748 0.0280087 0.0992252 0.00988642 0.0276851 
0.0714593 0.2084 0.13614 0.0448015 0.189055 0.135644 0.0589127 0.189893 0.117969 
0.0447641 0.188929 0.117863 0.0582037 0.0103432 0.0640216 0.058803 0.0459979 0.0461694 
0.126429 0.0465677 0.0104507 0.13981 0.0825132 0.0114217 0.17 0.0166667 0.0833333 
0.15514 -0.00436422 0.0651463 0.112829 0.0281177 0.189901 0.126323 0.0464551 0.189552 
0.113068 0.0638163 0.207922 0.112456 0.0459646 0.190085 0.17 0.0333333 0.0666667 
0.154539 0.0136144 0.0483046 0.154546 0.0133023 0.0655203 0.139657 0.0293245 0.0824585 
0.139352 0.0645663 0.0647399 0.15421 0.0654847 0.0654316 0.139502 0.0647822 0.0470303 
0.139714 0.0648666 0.0293167 0.154275 0.0999529 0.0476799 0.155141 -0.00444852 0.134859 
0.17 0.0166667 0.116667 0.154545 0.0131907 0.134477 0.0582358 0.0461626 0.0282733 
0.057898 0.0283369 0.0283814 0.0582922 0.0641106 0.0102457 0.112341 0.0281165 0.0459654 
0.111961 0.0281695 0.0639349 0.12607 0.0286489 0.0464399 0.112759 -0.0075391 0.0821026 
0.0987404 0.0277018 0.0456524 0.0854114 0.0273211 0.0455711 0.0984479 0.0637755 0.0276905 
0.0987872 0.0637657 0.00967556 0.0853146 0.0455046 0.00936268 0.0988779 0.0457358 0.00969427 
0.098857 0.0816921 -0.00825275 0.154286 0.0476539 0.117096 0.154232 0.0477467 0.0998897 
0.17 0.0833333 0.116667 0.154164 0.0648521 0.117147 0.140616 -0.00617216 0.0824985 
0.154558 0.0132702 0.082704 0.139968 0.0115194 0.0824853 0.15455 0.0131856 0.117323 
0.154592 0.0133874 0.100035 0.139867 0.0114636 0.117618 0.140641 -0.00623868 0.117659 
0.154418 0.0656355 0.0308032 0.139939 0.0472851 0.0293212 0.17 0.116667 0.0166667 
0.154445 0.0998777 0.0131265 0.155004 0.117105 -0.00463874 0.154483 0.116962 0.0128957 
0.154318 0.0481913 0.0654872 0.154426 0.0482449 0.0481294 0.154394 0.0307702 0.0654947 
0.17 0.0666667 0.0666667 0.140706 0.0295836 0.0115455 0.140151 0.0296107 0.0292291 
0.154691 0.0484418 0.0134575 0.154582 0.0310214 0.0308301 0.17 0.0166667 0.0166667 
0.155194 -0.00423637 0.0313285 0.154989 0.0135469 0.0136375 0.154681 0.0134536 0.0310771 
0.148704 0.191486 0.0075531 0.0742948 0.00528375 0.181312 0.158592 0.190341 0.0229941 
0.12506 0.0731915 0.140511 0.0117157 0.0229197 0.0360576 0.158224 0.0616453 0.177171 
0.0237591 0.0742373 0.0473921 0.0445137 0.193276 0.0868474 0.0453781 0.140172 0.153747 
0.146294 0.112861 0.139869 0.0635998 0.194673 0.00607249 0.158186 0.125372 0.177354 
0.147197 0.0740459 0.191908 0.0214218 0.00870472 0.00800796 0.0548968 0.0731623 0.00587927 
0.116831 0.0194044 0.00583495 0.0635286 0.00582062 0.00600595 0.0229485 0.191651 0.113154 
0.0657385 0.154068 0.1406 0.0226798 0.0349472 0.0217239 0.0534942 0.0196946 0.00625682 
0.0118678 0.138281 0.0230298 0.158317 0.0870967 0.190299 0.0326838 0.179042 0.00737868 
0.115026 0.0731638 0.0459771 0.0115153 0.00981554 0.0232857 0.0745411 0.195063 0.0189575 
0.146854 0.0340796 0.126141 0.0450906 0.0466099 0.0599625 0.15832 0.177063 0.164243 
0.0338178 0.0207769 0.0738568 0.0542454 0.0196621 0.0329853 0.0117199 0.11295 0.00984489 
0.125395 0.16682 0.140213 0.0117618 0.0229586 0.163924 0.116376 0.180654 0.00618086 
0.115127 0.167395 0.126927 0.055094 0.00593984 0.126814 0.137511 0.179062 0.193144 
0.106413 0.194404 0.194245 0.0545543 0.180595 0.0330547 0.0226824 0.0613002 0.00827825 
0.0326379 0.178958 0.19279 0.0456461 0.113456 0.0328644 0.0117467 0.176965 0.0360951 
0.0115634 0.00987416 0.17667 0.158053 0.061383 0.0742908 0.021463 0.19125 0.00813311 
0.0115504 0.190084 0.0233508 0.0118249 0.138246 0.177135 0.0443407 0.16654 0.180058 
0.0229221 0.165069 0.0218153 0.0117937 0.176909 0.163934 0.0118531 0.0747586 0.0228266 
0.0117241 0.0874788 0.00979643 0.0116507 0.112911 0.19035 0.0745634 0.0053691 0.0188998 
0.021464 0.191182 0.19192 0.125936 0.139938 0.193644 0.0117502 0.177248 0.0618256 
0.0116103 0.190385 0.07445 0.135697 0.112946 0.179877 0.0115912 0.0095652 0.0744203 
0.0452734 0.167043 0.113371 0.0229023 0.125957 0.191861 0.0228804 0.00821893 0.0871029 
0.0227124 0.0611819 0.191737 0.0343064 0.179427 0.13966 0.0116814 0.190207 0.125743 
0.0118214 0.177097 0.138323 0.0443702 0.00670173 0.0867453 0.0229876 0.126059 0.00837033 
0.022938 0.165029 0.1783 0.0116019 0.190004 0.17665 0.0227729 0.0349097 0.178249 
0.0214302 0.0087223 0.19195 0.115373 0.153867 0.180879 0.1582 0.17694 0.138545 
0.0237481 0.139626 0.126249 0.147306 0.165091 0.1787 0.0324521 0.0210778 0.00721872 
0.106413 0.00568584 0.194232 0.0340875 0.0869048 0.179329 0.135651 0.11328 0.0464089 
0.0118162 0.0746548 0.177236 0.158346 0.087116 0.00946904 0.034473 0.0870964 0.0204562 
0.0545792 0.193912 0.0598052 0.0440593 0.0601387 0.193312 0.0117377 0.0227175 0.0618015 
0.158257 0.0225933 0.138469 0.158422 0.190362 0.0741613 0.125609 0.166786 0.0465364 
0.0229301 0.00834517 0.113143 0.0634314 0.00574119 0.194266 0.0118173 0.0229086 0.138313 
0.0534752 0.0196404 0.193915 0.0548414 0.0731664 0.194088 0.0440232 0.0335475 0.179929 
0.136464 0.179381 0.0601647 0.158507 0.190181 0.176928 0.116246 0.0462004 0.00571149 
0.0116722 0.0873813 0.190329 0.0635027 0.194421 0.194401 0.011677 0.00980513 0.125736 
0.106698 0.00575573 0.00568419 0.115069 0.153955 0.0462399 0.115305 0.167417 0.0731929 
0.105653 0.0189732 0.04578 0.0444908 0.00670373 0.113366 0.0652214 0.04602 0.181189 
0.0545511 0.0195301 0.167153 0.0657405 0.0459402 0.140555 0.0452581 0.0732737 0.153727 
0.0449686 0.0600027 0.166799 0.0237652 0.0604445 0.126143 0.0452327 0.0329823 0.113206 
0.0236743 0.0475399 0.139117 0.0342563 0.020622 0.139636 0.115311 0.126862 0.194456 
0.158331 0.112619 0.190416 0.137631 0.0205501 0.193274 0.148668 0.00837914 0.192268 
0.116453 0.180574 0.194049 0.147281 0.138808 0.191939 0.147301 0.0346147 0.178714 
0.158498 0.00972654 0.176843 0.158291 0.0228506 0.164156 0.0743488 0.194798 0.181456 
0.0341336 0.139492 0.17936 0.0451112 0.153408 0.166904 0.0658372 0.14044 0.167808 
0.0444062 0.126589 0.19339 0.0550802 0.113398 0.194041 0.0450132 0.11339 0.167027 
0.0236851 0.152511 0.139233 0.0953206 0.1947 0.181382 0.0536281 0.180516 0.194027 
0.0537348 0.180716 0.00630681 0.105369 0.0323655 0.181349 0.0953936 0.0591603 0.195248 
0.116625 0.0193187 0.194148 0.105236 0.0188737 0.15438 0.0951676 0.0456608 0.168143 
0.054829 0.180551 0.167274 0.0445854 0.193326 0.11342 0.147337 0.19174 0.0868833 
0.0850671 0.126936 0.126938 0.105294 0.181301 0.140615 0.126034 0.166617 0.180295 
0.0951425 0.168062 0.181575 0.0544132 0.00619132 0.0596457 0.148744 0.00840399 0.00761577 
0.0229275 0.191704 0.0871412 0.114977 0.0730342 0.167627 0.125509 0.0197393 0.126794 
0.125348 0.0464456 0.153646 0.136245 0.0602637 0.179719 0.146967 0.0476795 0.165524 
0.0339296 0.179221 0.0739097 0.147324 0.191627 0.113156 0.0952402 0.181562 0.154416 
0.158331 0.190063 0.12589 0.147327 0.165367 0.0211191 0.125107 0.1403 0.126874 
0.147209 0.0740713 0.0077949 0.146908 0.139249 0.0338236 0.12536 0.140309 0.0731995 
0.137497 0.179246 0.0067468 0.032492 0.0210469 0.192795 0.065944 0.140759 0.0459465 
0.158381 0.177249 0.0357261 0.137729 0.0205901 0.00661083 0.105695 0.1948 0.0595319 
0.146333 0.12578 0.152832 0.0852016 0.126979 0.0731096 0.147273 0.139088 0.00764666 
0.158258 0.125452 0.0222276 0.115819 0.180777 0.0329627 0.0850765 0.0731076 0.127032 
0.148622 0.191307 0.192318 0.158287 0.177276 0.0614439 0.0954803 0.19522 0.0458053 
0.106533 0.194587 0.00600909 0.0452806 0.0597774 0.0731581 0.147103 0.165396 0.0473418 
0.135636 0.0467357 0.113308 0.158134 0.04837 0.138567 0.0956627 0.195062 0.0189189 
0.135784 0.152804 0.153275 0.04431 0.166644 0.0201649 0.0653515 0.181257 0.0460587 
0.0440245 0.0601935 0.00666865 0.0446679 0.12675 0.006628 0.0453353 0.153704 0.0732985 
0.0450056 0.166781 0.0600558 0.0238087 0.126144 0.0604839 0.0237163 0.139109 0.0475896 
0.0344497 0.139637 0.0206654 0.0238088 0.0871983 0.060284 0.125446 0.140223 0.019713 
0.15813 0.125591 0.0478777 0.146856 0.0341585 0.0869114 0.095391 0.00532828 0.181319 
0.05528 0.113492 0.00587704 0.114945 0.127045 0.0191974 0.0853247 0.0730645 0.0730931 
0.125215 0.0464095 0.0732762 0.043801 0.0336248 0.0201419 0.0958981 0.00536836 0.0187288 
0.158077 0.112801 0.0607529 0.158253 0.0616877 0.0226662 0.0951258 0.168209 0.0459044 
0.158318 0.0228394 0.035798 0.10579 0.0324549 0.0188353 0.0551936 0.194114 0.12692 
0.0653142 0.0323603 0.0459596 0.136349 0.0603614 0.0201396 0.158409 0.0095496 0.0741908 
0.116143 0.0460781 0.194388 0.158247 0.0227076 0.0615366 0.135979 0.046857 0.0602295 
0.146738 0.0738597 0.0474002 0.158421 0.00945577 0.125806 0.0650278 0.045928 0.0190452 
0.115731 0.0193264 0.0595606 0.0953293 0.0456407 0.0321179 0.0954387 0.0591695 0.00510086 
0.158052 0.0608798 0.11269 0.147265 0.00786032 0.0869683 0.147238 0.00779738 0.113126 
0.147077 0.0477174 0.0343314 0.158371 0.112669 0.00930532 0.158138 0.0485209 0.061417 
0.147379 0.0346487 0.0211413 0.158525 0.00971128 0.0231067 

CELLS 236 3776
15 69 93 88 68 456 511 453 449 451 450 532 527 528 888 1095 
15 28 47 45 44 260 323 259 258 319 318 690 731 989 529 1096 
15 93 69 88 94 456 453 511 523 457 512 532 530 894 531 1097 
15 43 49 86 85 310 349 317 316 348 503 850 916 538 937 1098 
15 5 1 26 6 103 106 124 120 104 129 562 533 682 551 1099 
15 82 86 81 63 495 494 493 423 424 422 534 543 861 769 1100 
15 7 11 48 6 137 169 145 127 128 135 980 535 674 565 1101 
15 37 17 54 38 212 216 289 285 213 291 863 848 825 536 1102 
15 55 13 12 51 191 171 180 361 190 178 658 782 792 783 1103 
15 90 86 49 85 506 349 350 504 503 348 901 537 538 877 1104 
15 37 52 50 36 287 352 286 282 284 283 564 539 540 808 1105 
15 91 92 65 86 519 438 437 507 508 435 764 541 755 618 1106 
15 82 65 86 63 434 435 495 423 421 424 555 542 859 543 1107 
15 25 5 0 26 123 99 100 243 124 101 545 664 560 544 1108 
15 46 32 6 48 269 131 134 326 270 135 957 546 673 1054 1109 
15 57 46 58 62 327 328 383 384 329 388 720 547 706 898 1110 
15 26 41 25 46 249 245 243 252 300 246 549 608 548 553 1111 
15 22 38 39 17 237 290 238 210 213 214 550 847 824 629 1112 
15 55 49 12 54 344 176 180 373 343 179 784 869 830 621 1113 
15 26 5 6 30 124 120 129 248 125 130 551 662 579 1009 1114 
15 25 30 26 46 244 248 243 246 265 252 663 552 1008 553 1115 
15 11 15 16 34 164 194 165 168 198 203 554 639 594 976 1116 
15 82 65 87 86 434 436 496 495 435 505 557 555 754 556 1117 
15 15 34 36 37 198 276 199 200 277 282 558 596 806 586 1118 
15 43 85 64 48 316 429 314 309 340 338 1004 1002 667 1061 1119 
15 1 5 26 0 103 124 106 98 99 101 562 559 560 561 1120 
15 52 37 50 53 287 286 352 368 288 353 564 563 577 944 1121 
15 60 80 59 86 410 401 398 413 492 403 1075 942 1066 853 1122 
15 48 7 6 43 145 127 135 309 143 133 565 932 567 1031 1123 
15 92 71 96 91 465 467 521 519 464 520 705 660 654 566 1124 
15 26 7 43 6 140 143 251 129 127 133 635 681 567 843 1125 
15 6 26 46 42 129 252 134 132 250 304 1007 842 607 1053 1126 
15 32 15 10 11 197 161 162 167 164 160 569 640 568 602 1127 
15 90 71 70 49 463 459 460 350 347 346 868 950 831 572 1128 
15 28 9 8 3 156 146 148 116 115 114 649 584 570 692 1129 
15 68 69 50 66 449 358 357 439 440 356 928 885 914 571 1130 
15 49 90 54 70 350 378 343 346 460 375 879 572 723 832 1131 
15 28 43 7 44 257 143 142 258 308 144 725 573 741 747 1132 
15 92 72 71 67 469 462 465 448 446 445 919 574 762 659 1133 
15 71 56 51 72 381 362 365 462 382 366 799 575 576 761 1134 
15 50 37 16 53 286 204 205 353 288 206 951 577 676 954 1135 
15 5 6 30 32 120 130 125 126 131 264 579 599 958 578 1136 
15 39 19 35 40 228 227 279 292 229 280 641 610 580 803 1137 
15 12 11 50 48 163 170 177 175 169 336 968 979 994 893 1138 
15 21 15 37 16 196 200 234 202 194 204 591 581 595 614 1139 
15 28 4 9 3 118 117 156 116 112 115 651 582 583 584 1140 
15 80 84 58 85 490 396 395 491 499 397 1083 585 1045 987 1141 
15 15 36 20 37 199 231 195 200 282 232 588 586 587 589 1142 
15 15 20 21 37 195 230 196 200 232 234 592 589 590 591 1143 
15 19 18 35 13 218 220 227 185 184 187 642 593 780 623 1144 
15 39 51 35 18 293 281 279 221 222 220 804 823 779 643 1145 
15 15 34 37 16 198 277 200 194 203 204 596 594 952 595 1146 
15 19 23 39 18 224 240 228 218 219 221 648 597 634 644 1147 
15 5 6 32 11 120 131 126 122 128 167 599 598 675 601 1148 
15 10 5 32 11 121 126 162 160 122 167 603 600 601 602 1149 
15 19 33 14 13 226 193 192 185 186 182 605 624 710 604 1150 
15 26 41 46 42 249 300 252 250 299 304 608 606 1010 607 1151 
15 24 19 39 40 225 228 241 242 229 292 646 609 610 611 1152 
15 51 91 67 65 367 447 364 363 437 433 834 749 766 612 1153 
15 17 21 37 16 209 234 212 201 202 204 616 613 614 865 1154 
15 37 22 21 17 236 233 234 212 210 209 617 849 615 616 1155 
15 49 91 65 86 351 437 345 349 507 435 751 902 618 851 1156 
15 7 1 26 2 105 106 140 108 102 109 683 619 620 626 1157 
15 17 55 12 54 217 180 172 216 373 179 656 1028 621 963 1158 
15 19 33 13 35 226 186 185 227 272 187 624 622 787 623 1159 
15 7 2 26 27 108 109 140 141 110 247 626 688 625 637 1160 
15 33 9 8 31 159 146 150 266 158 149 668 627 650 679 1161 
15 55 18 39 17 223 221 295 217 208 214 822 797 633 1027 1162 
15 23 22 39 17 235 238 240 211 210 214 630 628 629 632 1163 
15 18 23 39 17 219 240 221 208 211 214 634 631 632 633 1164 
15 26 7 27 43 140 141 247 251 143 254 637 635 726 636 1165 
15 32 15 11 34 197 164 167 268 198 168 640 638 639 961 1166 
15 39 19 18 35 228 218 221 279 227 220 644 641 642 643 1167 
15 23 19 39 24 224 228 240 239 225 241 648 645 646 647 1168 
15 28 9 31 8 156 158 256 148 146 149 891 649 650 701 1169 
15 28 4 29 9 118 119 255 156 117 157 653 651 652 892 1170 
15 51 91 49 71 367 351 342 365 464 347 752 837 948 839 1171 
15 96 71 90 91 467 463 518 520 464 515 874 654 947 655 1172 
15 13 55 12 17 191 180 171 183 217 172 658 795 656 657 1173 
15 92 71 91 67 465 464 519 448 445 447 660 659 835 767 1174 
15 25 5 26 30 123 124 243 244 125 248 664 661 662 663 1175 
15 47 61 45 60 333 325 323 332 404 324 666 814 665 991 1176 
15 33 49 8 13 274 153 150 186 189 147 697 790 736 669 1177 
15 85 90 64 48 504 432 429 340 341 338 1014 883 997 667 1178 
15 13 9 8 33 154 146 147 186 159 150 670 711 668 669 1179 
15 78 64 84 83 426 428 486 485 427 497 880 671 1080 672 1180 
15 6 32 11 48 131 167 128 135 270 169 675 673 992 674 1181 
15 16 37 54 53 204 289 207 206 288 371 864 676 677 956 1182 
15 47 33 8 31 273 150 152 267 266 149 696 678 679 699 1183 
15 1 7 26 6 105 140 106 104 127 129 683 680 681 682 1184 
15 76 80 60 81 480 410 408 481 489 411 1051 684 939 776 1185 
15 90 94 69 95 516 457 455 517 524 458 923 685 686 829 1186 
15 90 50 70 66 360 359 460 444 356 441 721 982 913 702 1187 
15 7 2 27 28 108 110 141 142 111 253 688 715 687 727 1188 
15 29 28 47 45 255 260 263 262 259 323 694 689 690 691 1189 
15 3 7 8 28 113 136 114 116 142 148 693 717 748 692 1190 
15 29 28 31 47 255 256 261 263 260 267 890 694 700 695 1191 
15 47 33 49 8 273 274 331 152 150 153 698 696 697 729 1192 
15 28 8 31 47 148 149 256 260 152 267 701 732 699 700 1193 
15 90 70 69 66 460 452 455 444 441 440 827 702 912 936 1194 
15 71 97 92 96 468 522 465 467 526 521 921 703 704 705 1195 
15 58 46 64 62 328 330 389 388 329 417 1023 706 707 1032 1196 
15 13 9 33 14 154 159 186 182 155 193 711 708 709 710 1197 
15 39 56 40 51 296 298 292 293 362 297 713 778 712 805 1198 
15 3 7 28 2 113 142 116 107 108 111 717 714 715 716 1199 
15 46 57 58 41 327 383 328 300 301 302 720 718 719 1012 1200 
15 90 50 48 70 360 336 341 460 359 339 998 721 1020 722 1201 
15 90 54 70 48 378 375 460 341 337 339 723 882 1018 722 1202 
15 58 43 64 42 311 314 389 306 303 307 1055 724 1059 1024 1203 
15 28 43 27 7 257 254 253 142 143 141 728 725 726 727 1204 
15 8 49 47 44 153 331 152 151 320 319 729 734 811 730 1205 
15 28 8 47 44 148 152 260 258 151 319 732 746 730 731 1206 
15 43 49 12 44 310 176 173 308 320 174 918 819 733 739 1207 
15 12 49 13 44 176 189 171 174 320 188 794 733 735 737 1208 
15 49 8 13 44 153 147 189 320 151 188 736 734 742 735 1209 
15 12 13 7 44 171 139 138 174 188 144 738 737 743 740 1210 
15 43 12 7 44 173 138 143 308 174 144 931 739 740 741 1211 
15 13 8 7 44 147 136 139 188 151 144 744 742 745 743 1212 
15 7 8 28 44 136 148 142 144 151 258 748 745 746 747 1213 
15 91 51 49 65 367 342 351 437 363 345 752 749 750 751 1214 
15 92 87 65 86 509 436 438 508 505 435 756 753 754 755 1215 
15 63 61 60 82 414 404 405 423 416 412 813 757 758 768 1216 
15 60 61 77 82 404 415 409 412 416 483 760 758 759 770 1217 
15 67 51 72 71 364 366 446 445 365 462 763 836 761 762 1218 
15 91 92 67 65 519 448 447 437 438 433 767 764 765 766 1219 
15 63 60 81 82 405 411 422 423 412 493 862 768 775 769 1220 
15 76 60 77 82 408 409 479 482 412 483 772 773 770 771 1221 
15 60 76 81 82 408 481 411 412 482 493 776 773 774 775 1222 
15 39 56 51 55 296 362 293 295 379 361 778 777 800 820 1223 
15 18 35 13 51 220 187 184 222 281 190 780 779 786 781 1224 
15 55 13 51 18 191 190 361 223 184 222 782 798 781 821 1225 
15 49 55 12 51 344 180 176 342 361 178 784 840 783 791 1226 
15 35 33 13 51 272 186 187 281 275 190 787 785 789 786 1227 
15 33 49 13 51 274 189 186 275 342 190 790 788 793 789 1228 
15 49 12 13 51 176 171 189 342 178 190 794 791 792 793 1229 
15 55 13 18 17 191 184 223 217 183 208 798 795 796 797 1230 
15 71 56 55 51 381 379 380 365 362 361 801 799 800 838 1231 
15 51 40 39 35 297 292 293 281 280 279 805 802 803 804 1232 
15 37 36 50 34 282 283 286 277 276 278 808 806 807 953 1233 
15 47 60 44 65 332 321 319 335 406 322 990 1039 815 810 1234 
15 49 47 44 65 331 319 320 345 335 322 811 809 810 817 1235 
15 47 61 60 63 333 404 332 334 414 405 814 812 813 1036 1236 
15 43 44 60 65 308 321 313 315 322 406 816 818 815 857 1237 
15 43 49 44 65 310 320 308 315 345 322 819 852 817 818 1238 
15 39 51 18 55 293 222 221 295 361 223 823 820 821 822 1239 
15 54 39 38 17 294 290 291 216 214 213 826 1029 824 825 1240 
15 90 70 95 69 460 461 517 455 452 458 867 827 828 829 1241 
15 49 12 54 85 176 179 343 348 181 377 830 917 906 878 1242 
15 71 49 54 70 347 343 376 459 346 375 871 831 832 833 1243 
15 51 91 71 67 367 464 365 364 447 445 837 834 835 836 1244 
15 49 55 51 71 344 361 342 347 380 365 840 872 838 839 1245 
15 6 43 26 42 133 251 129 132 303 250 843 1030 841 842 1246 
15 73 58 78 57 390 393 472 385 383 386 1093 844 897 845 1247 
15 37 22 17 38 236 210 212 285 237 213 849 846 847 848 1248 
15 43 49 65 86 310 345 315 317 349 435 852 850 851 856 1249 
15 59 43 60 86 312 313 398 403 317 413 854 938 855 853 1250 
15 60 43 65 86 313 315 406 413 317 435 857 855 856 858 1251 
15 63 60 65 86 405 406 421 424 413 435 1037 860 858 859 1252 
15 60 63 81 86 405 422 411 413 424 494 862 860 861 941 1253 
15 37 17 16 54 212 201 204 289 216 207 865 863 966 864 1254 
15 71 95 90 70 466 517 463 459 461 460 876 866 867 868 1255 
15 49 55 71 54 344 380 347 343 373 376 872 869 870 871 1256 
15 95 71 90 96 466 463 517 525 467 518 876 873 874 875 1257 
15 88 69 66 89 453 440 442 510 454 443 887 896 935 909 1258 
15 90 49 54 85 350 343 378 504 348 377 879 877 878 884 1259 
15 78 64 62 84 426 417 418 486 428 420 881 880 1033 1017 1260 
15 90 66 89 64 444 443 513 432 425 431 934 983 907 984 1261 
15 54 90 85 48 378 504 377 337 341 340 884 882 883 905 1262 
15 69 68 88 66 449 450 453 440 439 442 888 885 886 887 1263 
15 9 29 28 31 157 255 156 158 261 256 892 889 890 891 1264 
15 54 12 50 48 179 177 354 337 175 336 962 904 893 1019 1265 
15 88 69 89 94 453 454 510 512 457 514 896 894 924 895 1266 
15 78 58 62 57 393 388 418 386 383 384 1087 897 898 899 1267 
15 69 54 50 70 374 354 358 452 375 359 926 900 1021 915 1268 
15 90 86 91 49 506 507 515 350 349 351 903 901 902 949 1269 
15 12 54 85 48 179 377 181 175 337 340 906 904 905 1001 1270 
15 89 66 88 64 443 442 510 431 425 430 909 907 908 910 1271 
15 88 84 89 64 500 501 510 430 428 431 911 1082 985 910 1272 
15 69 70 50 66 452 359 358 440 441 356 915 912 913 914 1273 
15 49 43 12 85 310 173 176 348 316 181 918 916 1003 917 1274 
15 92 72 97 71 469 470 522 465 462 468 922 919 920 921 1275 
15 90 94 89 69 516 514 513 455 457 454 925 923 924 933 1276 
15 69 54 53 50 374 371 372 358 354 353 927 926 955 943 1277 
15 68 69 52 50 449 370 369 357 358 352 930 928 945 929 1278 
15 48 7 43 12 145 143 309 175 138 173 932 978 931 1000 1279 
15 69 90 66 89 455 444 440 454 513 443 936 933 934 935 1280 
15 59 43 86 85 312 317 403 402 316 503 938 1005 937 1069 1281 
15 60 80 86 81 410 492 413 411 489 494 942 939 940 941 1282 
15 69 53 52 50 372 368 370 358 353 352 946 943 944 945 1283 
15 90 71 49 91 463 347 350 515 464 351 950 947 948 949 1284 
15 50 37 34 16 286 277 278 205 204 203 953 951 952 974 1285 
15 54 16 53 50 207 206 371 354 205 353 956 964 954 955 1286 
15 46 32 30 6 269 264 265 134 131 130 959 957 958 1006 1287 
15 32 34 11 50 268 168 167 271 278 170 961 960 973 995 1288 
15 12 17 54 50 172 216 179 177 215 354 963 967 965 962 1289 
15 17 16 54 50 201 207 216 215 205 354 966 970 964 965 1290 
15 11 17 12 50 166 172 163 170 215 177 969 971 967 968 1291 
15 11 16 17 50 165 201 166 170 205 215 972 975 970 971 1292 
15 11 34 16 50 168 203 165 170 278 205 976 973 974 975 1293 
15 11 7 48 12 137 145 169 163 138 175 980 977 978 979 1294 
15 64 50 90 66 355 360 432 425 356 444 999 981 982 983 1295 
15 90 89 84 64 513 501 502 432 431 428 986 984 985 1013 1296 
15 85 59 58 80 402 387 397 491 401 395 1043 1067 1072 987 1297 
15 60 45 47 44 324 323 332 321 318 319 991 988 989 990 1298 
15 11 32 50 48 167 271 170 169 270 336 995 992 993 994 1299 
15 50 64 90 48 355 432 360 336 338 341 999 996 997 998 1300 
15 43 12 85 48 173 181 316 309 175 340 1003 1000 1001 1002 1301 
15 59 43 85 64 312 316 402 399 314 429 1005 1056 1004 1044 1302 
15 30 6 26 46 130 129 248 265 134 252 1009 1006 1007 1008 1303 
15 46 41 58 42 300 302 328 304 299 306 1012 1010 1011 1025 1304 
15 90 84 85 64 502 499 504 432 428 429 1015 1013 1048 1014 1305 
15 84 62 78 79 420 418 486 488 419 484 1017 1077 1089 1016 1306 
15 70 54 50 48 375 354 359 339 337 336 1021 1018 1019 1020 1307 
15 78 74 79 58 474 475 484 393 391 394 1022 1094 1041 1090 1308 
15 58 46 42 64 328 304 306 389 330 307 1025 1023 1064 1024 1309 
15 54 39 17 55 294 214 216 373 295 217 1029 1026 1027 1028 1310 
15 43 6 48 42 133 135 309 303 132 305 1031 1030 1052 1060 1311 
15 84 64 62 58 428 417 420 396 389 388 1033 1047 1032 1078 1312 
15 58 80 75 74 395 478 392 391 476 473 1071 1042 1034 1035 1313 
15 47 60 65 63 332 406 335 334 405 421 1039 1036 1037 1038 1314 
15 58 80 74 79 395 476 391 394 487 475 1042 1085 1040 1041 1315 
15 85 59 64 58 402 399 429 397 387 389 1044 1043 1057 1046 1316 
15 84 85 64 58 499 429 428 396 397 389 1048 1045 1046 1047 1317 
15 60 75 80 76 407 478 410 408 477 480 1073 1049 1050 1051 1318 
15 48 6 46 42 135 134 326 305 132 304 1054 1052 1053 1063 1319 
15 58 43 59 64 311 312 387 389 314 399 1058 1055 1056 1057 1320 
15 64 43 48 42 314 309 338 307 303 305 1061 1059 1060 1062 1321 
15 64 48 46 42 338 326 330 307 305 304 1065 1062 1063 1064 1322 
15 86 59 85 80 403 402 503 492 401 491 1069 1066 1067 1068 1323 
15 59 58 80 75 387 395 401 400 392 478 1072 1070 1071 1074 1324 
15 60 75 59 80 407 400 398 410 478 401 1076 1073 1074 1075 1325 
15 62 84 58 79 420 396 388 419 488 394 1078 1077 1084 1088 1326 
15 88 84 64 83 500 428 430 498 497 427 1082 1079 1080 1081 1327 
15 80 84 79 58 490 488 487 395 396 394 1086 1083 1084 1085 1328 
15 78 58 79 62 393 394 484 418 388 419 1090 1087 1088 1089 1329 
15 78 74 58 73 474 391 393 472 471 390 1094 1091 1092 1093 1330 

CELL_TYPES 236
24
24
24
24
24
24
24
24
24
24
24
24
24
24
24
24
24
24
24
24
24
24
24
24
24
24
24
24
24
24
24
24
24
24
24
24
24
24
24
24
24
24
24
24
24
24
24
24
24
24
24
24
24
24
24
24
24
24
24
24
24
24
24
24
24
24
24
24
24
24
24
24
24
24
24
24
24
24
24
24
24
24
24
24
24
24
24
24
24
24
24
24
24
24
24
24
24
24
24
24
24
24
24
24
24
24
24
24
24
24
24
24
24
24
24
24
24
24
24
24
24
24
24
24
24
24
24
24
24
24
24
24
24
24
24
24
24
24
24
24
24
24
24
24
24
24
24
24
24
24
24
24
24
24
24
24
24
24
24
24
24
24
24
24
24
24
24
24
24
24
24
24
24
24
24
24
24
24
24
24
24
24
24
24
24
24
24
24
24
24
24
24
24
24
24
24
24
24
24
24
24
24
24
24
24
24
24
24
24
24
24
24
24
24
24
24
24
24
24
24
24
24
24
24
24
24
24
24
24
24
24
24
24
24
24
24

POINT_DATA 1331
VECTORS displacement float
0 0 0
0 0 0
0 0 0
0 0 0
0 0 0
0 0 0
0 0 0
0 0 0
0 0 0
0 0 0
0 0 0
0 0 0
0 0 0
0 0 0
0 0 0
0 0 0
0 0 0
0 0 0
0 0 0
0 0 0
0 0 0
0 0 0
0 0 0
0 0 0
0 0 0
-0.00944527 -0.00643289 -0.00628269
-0.00761342 -0.00624694 -0.00314407
-0.00635837 -0.006539 6.38771e-05
-0.00723897 -0.00649046 0.00320138
-0.00961695 -0.0064797 0.00640194
-0.00714014 -0.00298481 -0.00658833
-0.00707822 -0.00302933 0.00659005
-0.00665135 0.000212939 -0.00647344
-0.00686074 3.66966e-05 0.00636751
-0.00656672 0.00330252 -0.00653105
-0.00666962 0.00312908 0.00666079
-0.00959505 0.00666363 -0.00615825
-0.0075855 0.00629393 -0.00300623
-0.00625005 0.00650563 0.000121912
-0.0071136 0.00648616 0.00318735
-0.00968064 0.00658327 0.00639728
-0.0150623 -0.00810316 -0.00776938
-0.0147544 -0.00889058 -0.00448799
-0.0144043 -0.00909459 -0.000156343
-0.0158321 -0.00894374 0.00427024
-0.0151716 -0.00817477 0.00798844
-0.0152416 -0.00463073 -0.00851829
-0.0153202 -0.00451278 0.00895287
-0.0146892 -8.58515e-05 -0.00914714
-0.0141971 -2.52278e-05 0.00926667
-0.0153957 0.00477224 -0.0092963
-0.0150975 0.00450719 0.0092491
-0.0150019 0.0085735 -0.00776323
-0.0151006 0.00914252 -0.00423612
-0.0140484 0.00917341 0.000120885
-0.0156355 0.00888991 0.00440672
-0.0150313 0.00827075 0.00812466
-0.0204375 -0.00709695 -0.0066349
-0.0225353 -0.00709954 -0.00323157
-0.0237913 -0.00679624 0.000219853
-0.0228074 -0.00687827 0.00324577
-0.0205824 -0.00713727 0.00650953
-0.0226683 -0.00326025 -0.00751037
-0.0225899 -0.00336633 0.00751552
-0.0238873 0.000143756 -0.00720721
-0.0233894 3.1449e-05 0.00719082
-0.023692 0.00331991 -0.0069933
-0.0230188 0.0031787 0.00683672
-0.0206176 0.00670651 -0.00648461
-0.0220241 0.00676507 -0.00309944
-0.0232068 0.00688115 8.73343e-05
-0.0224068 0.00702052 0.00314034
-0.0205371 0.0067114 0.00643961
-0.03 0 0
-0.03 0 0
-0.03 0 0
-0.03 0 0
-0.03 0 0
-0.03 0 0
-0.03 0 0
-0.03 0 0
-0.03 0 0
-0.03 0 0
-0.03 0 0
-0.03 0 0
-0.03 0 0
-0.03 0 0
-0.03 0 0
-0.03 0 0
-0.03 0 0
-0.03 0 0
-0.03 0 0
-0.03 0 0
-0.03 0 0
-0.03 0 0
-0.03 0 0
-0.03 0 0
-0.03 0 0
0 0 0
0 0 0
-0.00542343 -0.00391877 -0.00550966
-0.00317914 -0.00488996 -0.00320368
0 0 0
0 0 0
0 0 0
0 0 0
-0.00258222 -0.00500446 -0.0021267
0 0 0
0 0 0
-0.00275522 -0.00513749 -0.00118357
-0.00254154 -0.00489728 0.000113878
-0.00264571 -0.00498738 0.00136903
0 0 0
0 0 0
0 0 0
0 0 0
-0.0024657 -0.0049239 0.00218085
0 0 0
-0.00310096 -0.00485719 0.00316444
-0.0055055 -0.00391378 0.00550398
0 0 0
0 0 0
0 0 0
-0.00434676 -0.00284708 -0.00499524
-0.00242725 -0.00348424 -0.00318424
-0.00327431 -0.00183802 -0.00467629
-0.0024407 -0.000206798 -0.00507509
0 0 0
0 0 0
-0.00227084 -0.00339311 -0.0018517
-0.00236532 -0.00184851 -0.00329263
-0.00175285 -0.000515116 -0.00363843
-0.00613589 -0.0046734 -0.00319523
-0.00543389 -0.0049672 -0.00161222
-0.00600784 -0.00309695 -0.00480825
-0.00502414 -0.00149735 -0.00525724
0 0 0
0 0 0
0 0 0
0 0 0
-0.0020491 -0.00356375 -0.000914122
-0.00183766 -0.00348077 0.000103341
-0.00181026 -0.00342443 0.00109184
-0.00520619 -0.0050858 -0.0001157
-0.00476262 -0.00525557 0.00182184
-0.00445683 -0.00152764 -0.00378191
0 0 0
0 0 0
-0.00195461 -0.0033418 0.00200102
-0.00223409 -0.00191863 0.00325903
-0.00187041 -0.000685829 0.00360714
-0.00519872 -0.00500137 0.00337301
-0.00577733 -0.00315572 0.00486705
-0.00529794 -0.00161043 0.00511482
0 0 0
0 0 0
-0.00232022 -0.0034772 0.00318542
-0.00436789 -0.00283446 0.00499002
-0.00317343 -0.00188946 0.00468493
-0.0024893 -0.000352601 0.00510769
0 0 0
0 0 0
-0.0023962 0.000344062 -0.00489398
0 0 0
0 0 0
0 0 0
0 0 0
-0.00176326 0.000303806 -0.00333546
-0.00164492 0.00112977 -0.00339893
-0.00446518 2.5749e-05 -0.00533964
-0.00455493 0.00193713 -0.00521319
0 0 0
0 0 0
-0.00502333 -0.00374155 -7.10782e-05
-0.00451233 -0.0037393 0.00177877
-0.00449319 4.47651e-05 -0.00382917
-0.00513311 1.22679e-05 0.00390949
-0.00432489 0.00187469 -0.00369086
-0.00481399 0.00174934 0.00374082
-0.00498005 0.00377103 5.96218e-05
-0.00461543 0.00366859 0.00189439
-0.0148866 5.16724e-06 3.08037e-05
0 0 0
0 0 0
0 0 0
0 0 0
-0.00191939 0.000173763 0.00351168
-0.00179281 0.00103697 0.00357799
-0.00472547 -0.00360659 0.00341493
-0.00514671 -4.34177e-05 0.0052514
-0.00512754 0.00173249 0.00516918
-0.00458996 0.0036692 0.00349621
0 0 0
-0.00250182 0.000211622 0.00508092
0 0 0
0 0 0
0 0 0
-0.00261288 0.000940467 -0.00491945
-0.00266669 0.00206035 -0.00452912
-0.00421341 0.00279796 -0.00483799
-0.00238858 0.00338813 -0.00311654
0 0 0
0 0 0
-0.00189409 0.0019652 -0.00320283
-0.00223666 0.00333363 -0.00178938
-0.00504733 0.00345781 -0.00490376
-0.00575757 0.00485894 -0.00309414
-0.00526744 0.00501363 -0.00152407
0 0 0
0 0 0
0 0 0
0 0 0
-0.00200017 0.00352116 -0.000878246
-0.00179996 0.00343778 0.000120955
-0.00179562 0.00345234 0.00110716
-0.00461007 0.00344587 -0.00355173
-0.00504049 0.00509824 2.71985e-05
-0.0047164 0.0052778 0.00189999
0 0 0
0 0 0
-0.00197133 0.00188918 0.00343286
-0.00193101 0.00326603 0.00200488
-0.00530144 0.00328209 0.00512751
-0.0049808 0.00510522 0.0034448
0 0 0
0 0 0
-0.00273822 0.000844248 0.00516005
-0.00275736 0.0019642 0.00475306
-0.0022821 0.00334685 0.00320633
-0.00430405 0.00273556 0.00495505
0 0 0
-0.00541867 0.00388822 -0.00539842
-0.00316775 0.00484122 -0.0030901
0 0 0
-0.00256491 0.00495951 -0.00207376
0 0 0
-0.00272129 0.00507356 -0.00111942
-0.00250365 0.00484799 0.000141876
-0.00263008 0.00498234 0.00138913
0 0 0
-0.00241407 0.00481597 0.00220952
-0.00305596 0.00474247 0.00313704
-0.00550676 0.00382845 0.00548275
-0.00832961 -0.0064131 -0.00494225
-0.00781114 -0.00470013 -0.00665808
-0.0122867 -0.00749231 -0.00705867
-0.0114541 -0.00595686 -0.00737806
-0.00688115 -0.00646996 -0.00153301
-0.0065592 -0.00466461 -0.0049749
-0.0116702 -0.00736854 -0.00566177
-0.0110565 -0.0075478 -0.00405759
-0.0106811 -0.00771096 -0.0022662
-0.0106222 -0.00586008 -0.00578227
-0.00674454 -0.00650147 0.00162127
-0.0101854 -0.00785014 -0.000132536
-0.00831186 -0.00649783 0.00504353
-0.00644634 -0.00474681 0.00503857
-0.0104779 -0.00797554 0.00194876
-0.0113109 -0.00782453 0.00400728
-0.0117355 -0.00750756 0.00591219
-0.0106428 -0.00592447 0.00600855
-0.00786122 -0.00474329 0.00675305
-0.0124316 -0.00754918 0.00732313
-0.0115483 -0.00596892 0.00760119
-0.00679835 -0.00154079 -0.00658282
-0.0110932 -0.00404533 -0.00763677
-0.00680781 -0.00159692 0.00656282
-0.0110935 -0.00398768 0.00780941
-0.00651551 0.00165469 -0.00656015
-0.0104364 -0.00216724 -0.00791924
-0.0103118 4.0711e-05 -0.00803285
-0.0103371 0.00210086 -0.00808676
-0.00663972 0.00150888 0.00664467
-0.0104187 -0.00207579 0.00795107
-0.0102909 -6.21906e-05 0.00788617
-0.0102945 0.00195414 0.00800716
-0.00757859 0.00504329 -0.00654824
-0.00624714 0.00493143 -0.00483421
-0.0107967 0.00438597 -0.00787034
-0.00625306 0.00483632 0.00508118
-0.00772502 0.00486421 0.00680598
-0.0107512 0.00409378 0.00795265
-0.00838889 0.00655859 -0.00478023
-0.011335 0.00648482 -0.00737556
-0.0123478 0.00803599 -0.00688763
-0.00680328 0.00644867 -0.00140804
-0.0103687 0.00624702 -0.00578011
-0.0116503 0.00779804 -0.005513
-0.0111337 0.00779526 -0.00382462
-0.0105491 0.00777384 -0.00199251
-0.00665081 0.00653079 0.00164146
-0.00996714 0.00787571 5.4242e-05
-0.00831082 0.00653342 0.00504186
-0.0104981 0.00604823 0.0061437
-0.0103101 0.00801248 0.00205911
-0.0111273 0.00784518 0.00410351
-0.0116648 0.00761665 0.00599638
-0.0114494 0.00613503 0.00774415
-0.0123843 0.00771037 0.00738543
-0.0147936 -0.00809363 -0.00638387
-0.0150248 -0.00659474 -0.0081469
-0.017748 -0.00751994 -0.00743214
-0.0180587 -0.00747615 -0.00598217
-0.0145321 -0.00898026 -0.00244329
-0.0147003 -0.00662401 -0.00651213
-0.014591 -0.00449015 -0.00662724
-0.0186124 -0.00762651 -0.00416799
-0.0194017 -0.00408029 -0.00617673
-0.0146981 -0.00919304 0.00209614
-0.0145853 -0.00449693 -0.00430802
-0.0145895 -0.00440561 0.00439248
-0.0189502 -0.00777891 -0.00218023
-0.0193918 -0.00778612 5.17366e-05
-0.0190916 -0.00815662 0.00218195
-0.0198281 -0.00406966 -0.00416509
-0.0201442 -0.0041314 0.00445375
-0.024929 -0.00371374 0.000161384
-0.0249727 -0.00363224 0.00191249
-0.0152185 -0.0081581 0.00643555
-0.0151756 -0.00661084 0.00673425
-0.0148078 -0.00435965 0.00683055
-0.0194839 -0.00756264 0.00420436
-0.0197629 -0.00418232 0.00645318
-0.0151444 -0.00661657 0.00844974
-0.018438 -0.00749503 0.00588202
-0.0179081 -0.0076484 0.00730992
-0.0147258 -0.00245672 -0.00887231
-0.0184435 -0.00597919 -0.00765183
-0.0188511 -0.00591801 -0.00607861
-0.0187731 -0.00419621 -0.00781642
-0.0192267 -0.00225084 -0.00797274
-0.0145662 -0.00235987 0.00911996
-0.019256 -0.00599507 0.00613932
-0.0186333 -0.00609935 0.00763458
-0.0187581 -0.00433047 0.00797289
-0.0190311 -0.00233097 0.00831809
-0.0149542 0.00239279 -0.0091516
-0.0145499 0.00457368 -0.00413011
-0.0195389 -0.000124328 -0.00804238
-0.0200711 0.00432773 -0.00394889
-0.0248358 0.000120278 -0.00393388
-0.0247993 0.00173843 -0.00379063
-0.0144404 0.00234733 0.00922623
-0.0146225 0.00442479 0.00429956
-0.0145853 0.00450001 0.0067948
-0.0192013 -0.000227608 0.00847177
-0.0201688 0.004342 0.00403443
-0.0197345 0.00432601 0.00627247
-0.0250886 7.58149e-06 0.00399875
-0.0250311 -0.000189366 0.00553412
-0.0252307 0.00159276 0.0040225
-0.024836 0.00144903 0.00558476
-0.0150245 0.00700038 -0.00833734
-0.0148775 0.0070863 -0.00655461
-0.0146629 0.00699349 -0.00429715
-0.0194793 0.00229482 -0.00779092
-0.0196927 0.00432053 -0.00770931
-0.0186993 0.00635432 -0.0074165
-0.0192957 0.00627329 -0.00584598
-0.0197306 0.00639606 -0.00392868
-0.0245415 0.00346602 -0.00345677
-0.0152926 0.00658435 0.00684395
-0.015039 0.00667232 0.00863121
-0.0191255 0.00205292 0.00835068
-0.0191433 0.00415928 0.00804126
-0.0193612 0.00624347 0.00609234
-0.0186295 0.00615152 0.00765976
-0.0242621 0.00325225 0.00527717
-0.0149129 0.00862048 -0.00626499
-0.0176983 0.00798034 -0.00702409
-0.0180843 0.00778177 -0.00562813
-0.0144627 0.00914449 -0.00216104
-0.018782 0.00795476 -0.00403451
-0.0145621 0.00914721 0.00229453
-0.0187794 0.0081627 -0.00202715
-0.0189071 0.00835987 0.00011241
-0.0190636 0.00800489 0.00228936
-0.0243985 0.0037643 3.56697e-05
-0.0240164 0.00523998 5.39929e-05
-0.015224 0.00824788 0.00655286
-0.0194677 0.00759651 0.00426447
-0.0184374 0.00756891 0.00588825
-0.0177734 0.00773833 0.00728167
-0.0215168 -0.00706233 -0.00527594
-0.0219669 -0.00523402 -0.00727905
-0.0243248 -0.00416265 -0.00591298
-0.0254641 -0.00317244 -0.005512
-0.0232506 -0.00701124 -0.00151206
-0.0231129 -0.00523968 -0.00554179
-0.0237788 -0.00350543 -0.00549022
-0.0267325 -0.00509857 -0.00351068
-0.027442 -0.00511229 -0.00240463
-0.0271764 -0.0053668 -0.00140325
-0.0274537 -0.00377748 -0.00373211
-0.0278008 -0.00364607 -0.0024619
-0.0279035 -0.00392183 -0.00117654
-0.0279678 -0.00229399 -0.00242745
-0.0281762 -0.00247814 -0.0011449
-0.0233447 -0.00697437 0.00183969
-0.0243664 -0.00350272 -0.00358397
-0.02733 -0.00520694 6.26556e-05
-0.028049 -0.00398725 2.40462e-05
-0.0283393 -0.00282435 1.65792e-06
-0.0283155 -0.00297654 0.000998188
-0.0217244 -0.00701195 0.00518246
-0.0233119 -0.00525338 0.00552739
-0.0239568 -0.00359717 0.00549963
-0.0271494 -0.00547822 0.00146099
-0.0275293 -0.00505742 0.00238429
-0.0268028 -0.00509066 0.00340732
-0.027957 -0.00401908 0.00118071
-0.0279076 -0.00361537 0.00240469
-0.0275209 -0.00377995 0.00363441
-0.0281284 -0.00227989 0.00234011
-0.0220658 -0.00534585 0.00720708
-0.024421 -0.00419907 0.00576911
-0.0255347 -0.00322132 0.00538342
-0.0232968 -0.00151357 -0.00739152
-0.0268984 -0.00217565 -0.00518908
-0.0277632 -0.00216415 -0.00390339
-0.0279481 -0.00101649 -0.00384714
-0.0230591 -0.00161746 0.00740746
-0.0278428 -0.00221563 0.00372704
-0.0269192 -0.00225458 0.00502032
-0.0280258 -0.00105553 0.00359798
-0.0237437 0.00195088 -0.00707368
-0.0271916 -0.000797261 -0.00554505
-0.0276274 -0.000105214 -0.00540284
-0.0281212 -6.16143e-05 -0.00419982
-0.0282204 0.000144468 -0.00297335
-0.0275955 0.000571889 -0.00555785
-0.0280762 0.000993197 -0.0044234
-0.0282793 0.00105656 -0.00334598
-0.0231035 0.00176187 0.0070266
-0.0272115 -0.000770764 0.00525168
-0.0280251 6.55624e-05 0.00361538
-0.0275541 -0.000190104 0.00514534
-0.0281983 0.000725656 0.00388462
-0.0274986 0.000330537 0.00532417
-0.0223962 0.00500081 -0.00687612
-0.0234207 0.00499205 -0.00524295
-0.0239561 0.00512787 -0.00338194
-0.0269558 0.00214263 -0.0051998
-0.0277127 0.00225184 -0.00401575
-0.0279527 0.00227545 -0.00279295
-0.0234797 0.00500397 0.00526487
-0.0222247 0.00492942 0.00694044
-0.0278055 0.00192019 0.00357445
-0.0268302 0.0018627 0.00495021
-0.0214315 0.00668612 -0.00505096
-0.0256674 0.0031124 -0.00549685
-0.0244875 0.00404432 -0.00595469
-0.0227642 0.00688967 -0.00145523
-0.0274247 0.00369957 -0.00377995
-0.0277598 0.00363949 -0.00256874
-0.0278881 0.00355881 -0.00138
-0.0266394 0.00507721 -0.00364849
-0.0272531 0.00527911 -0.00242954
-0.0271293 0.00519969 -0.00146388
-0.022884 0.00717749 0.00148533
-0.0275239 0.00331758 1.05704e-05
-0.027145 0.00491494 3.92681e-05
-0.0215845 0.00668331 0.00509718
-0.027912 0.00325025 0.00130932
-0.0277753 0.00331606 0.00256834
-0.0275686 0.00351787 0.00364055
-0.0272432 0.00493723 0.00154961
-0.0274509 0.00494335 0.002372
-0.0267937 0.00488532 0.00352076
-0.0256594 0.00288874 0.00536967
-0.0244767 0.00389627 0.00584738
-0.03 0 0
-0.03 0 0
-0.03 0 0
-0.03 0 0
-0.03 0 0
-0.03 0 0
-0.03 0 0
-0.03 0 0
-0.03 0 0
-0.03 0 0
-0.03 0 0
-0.03 0 0
-0.03 0 0
-0.03 0 0
-0.03 0 0
-0.03 0 0
-0.03 0 0
-0.03 0 0
-0.03 0 0
-0.03 0 0
-0.03 0 0
-0.03 0 0
-0.03 0 0
-0.03 0 0
-0.03 0 0
-0.03 0 0
-0.03 0 0
-0.03 0 0
-0.03 0 0
-0.03 0 0
-0.03 0 0
-0.03 0 0
-0.03 0 0
-0.03 0 0
-0.03 0 0
-0.03 0 0
-0.03 0 0
-0.03 0 0
-0.03 0 0
-0.03 0 0
-0.03 0 0
-0.03 0 0
-0.03 0 0
-0.03 0 0
-0.03 0 0
-0.03 0 0
-0.03 0 0
-0.03 0 0
-0.03 0 0
-0.03 0 0
-0.03 0 0
-0.03 0 0
-0.03 0 0
-0.03 0 0
-0.03 0 0
-0.03 0 0
-0.0243945 0.00564252 -0.00540536
-0.0263932 0.00236801 -0.00465941
-0.0129048 -0.00792353 0.00551525
-0.0280424 0.00433463 -0.00213843
-0.03 0 0
-0.0283061 0.00308806 -0.00313798
0 0 0
-0.03 0 0
0 0 0
-0.00895044 0.00737768 -0.00115544
-0.03 0 0
-0.0275126 -0.00019483 0.00317208
-0.01081 0.00748164 -0.00573984
-0.0127792 0.00736012 -0.00748424
-0.03 0 0
-0.025746 -0.00160045 0.00609168
-0.0288471 -0.000910996 0.00305503
-0.00545869 -0.00540963 -0.00496794
-0.00347652 -0.00226909 -0.00428779
-0.011666 -0.00159828 -0.00837637
-0.0198758 -0.00516116 -0.0075477
-0.0128488 -0.00679134 -0.00748309
-0.0107871 -0.00707091 -0.00591707
-0.00382786 0.00571008 0.000966037
-0.00114801 -0.00219425 -0.00200087
-0.00994393 -0.0049823 -0.00718569
-0.00995271 -0.0060848 -0.00603383
0 0 0
-0.0288792 -0.000513155 0.00319241
-0.03 0 0
-0.0283243 -0.000635129 0.00431962
-0.00479381 0.00322871 -0.00553761
0 0 0
-0.00157732 -0.00295195 -0.00275807
-0.00181031 -0.00412254 -0.00180277
-0.00130613 -0.00308189 -0.00198454
-0.0126721 0.00814642 -0.00522269
-0.012334 0.00713982 -0.00655204
-0.0022232 -0.00149887 -0.00291462
-0.03 0 0
-0.00300393 -0.00345097 -0.000733634
0 0 0
-0.00158506 0.00072554 -0.00410125
0 0 0
-0.0204311 0.00531224 -0.00727211
-0.0246991 0.00338488 0.00249119
-0.0120531 -0.00836741 0.0026577
-0.0249273 0.00319508 0.00603231
-0.0192381 0.00728727 0.00611395
-0.0172155 0.00698456 0.00776959
-0.0119165 0.00713305 -0.00537224
-0.00411575 -0.00132597 -0.00579971
-0.00150449 -0.00132971 -0.002753
-0.00491479 0.00313607 0.00569463
0 0 0
-0.00174241 -0.00404542 0.00179003
0 0 0
-0.00123479 -0.00302667 0.00195834
-0.03 0 0
-0.00443822 0.00424974 -0.00467388
-0.00550753 0.00541356 -0.00482881
-0.00339089 0.00220226 -0.00418128
-0.00154783 0.00286627 -0.0026773
-0.00177158 0.00402544 -0.00173567
-0.00127053 0.00295638 -0.00191922
0 0 0
0 0 0
-0.00112481 0.0014414 -0.00266528
-0.00110369 0.00206046 -0.00196476
-0.00361611 0.00342538 -0.00435911
0 0 0
0 0 0
-0.00111707 -0.000557381 -0.00305806
0 0 0
-0.00105781 -7.92143e-05 -0.00309769
-0.00104856 0.000258192 -0.00296477
-0.00156572 -0.00018531 -0.0041521
0 0 0
-0.00169672 0.000677443 0.00434874
-0.0125958 -0.00775014 -0.00540279
-0.0119624 -0.006781 -0.00544722
-0.0124018 -0.00669069 -0.00653938
-0.00344254 0.0021543 0.00420409
-0.00441268 0.00420019 0.00480854
-0.00550178 0.00533884 0.00494872
-0.0205815 0.00269624 0.00783945
0 0 0
-0.00119244 0.00295065 -0.00138067
0 0 0
-0.00123656 0.00330484 -0.000860502
-0.00176032 0.00430557 -0.0011926
-0.0290514 0.000336932 0.00252823
0 0 0
-0.00179071 -0.00436525 -0.00124436
-0.00753444 0.00537741 0.0013106
-0.00388573 0.00154713 0.00590012
-0.00111488 0.000866098 0.00306825
-0.00114062 0.000545471 0.00323172
-0.00389503 -0.00582789 -0.000734385
-0.00116256 -0.00319158 -0.000417755
-0.00407326 -0.00144226 0.00583489
0 0 0
-0.00108228 0.00300463 0.000633524
-0.00165012 0.00408878 0.00137579
0 0 0
-0.00112184 0.00309097 0.00103608
-0.000937423 0.00226563 0.00089729
-0.00109238 0.00278996 0.00148553
-0.00551167 -0.00552178 -0.00102213
-0.0090849 -0.00735967 -0.0013603
-0.00310809 -0.00467137 -0.000762237
-0.00382411 0.00168508 -0.0056577
-0.00104822 0.000913291 -0.00284771
-0.00106041 0.000596836 -0.0030132
-0.00362948 0.00334876 0.00451289
-0.00116707 0.00139935 0.00284004
-0.00306561 0.00330672 0.00355971
-0.0010534 0.00202955 0.00202595
0 0 0
-0.00149283 0.0027892 0.00267306
-0.00168694 0.00390727 0.00178131
-0.00119403 0.00287532 0.00195325
-0.00108679 -0.0021852 0.00199134
-0.00142259 -0.00138779 0.00272532
-0.00152491 -0.00290408 0.00269489
-0.003489 -0.00224767 0.00423917
-0.00548873 -0.00541092 0.00497217
-0.0287911 0.00287175 0.00174569
-0.03 0 0
-0.00219059 0.00310648 0.00105193
0 0 0
-0.00213409 0.00223228 0.00207459
-0.0261666 0.00340419 0.00491274
-0.028792 0.00217194 0.00248163
-0.00513475 -0.00308495 -0.00569177
-0.0038893 -0.00330813 -0.00451019
-0.00723363 -0.00519532 -0.00564685
-0.00453147 -0.00423591 -0.00482146
-0.0193307 -0.0072991 0.00616352
-0.0172682 -0.00686401 0.00769601
-0.0247115 0.000102468 -0.0049276
-0.00114344 -0.000689537 0.00310106
-0.00098349 -0.000260193 0.00235121
0 0 0
-0.0283049 -0.000618344 -0.00452638
-0.03 0 0
-0.00522355 -0.000843285 -0.0058427
-0.00218372 -0.00064221 -0.00391774
-0.000890486 -0.000148259 -0.00231053
-0.00608256 0.00532034 -0.00307202
-0.0119175 0.00828678 -0.00278645
-0.0092224 -0.00259776 0.00748035
-0.00320354 -0.00144473 0.00470941
0 0 0
-0.00106816 -0.00238154 -0.000680573
-0.00121305 -0.00301266 -0.00142142
-0.00125153 -0.00334499 -0.000888404
-0.03 0 0
-0.03 0 0
-0.0281532 0.0043582 -0.00150809
-0.00385068 -0.0057195 0.000952791
-0.00110334 -0.00294763 0.000110311
-0.010864 -0.00717053 0.00614856
-0.0125219 -0.00674561 0.00683965
-0.0129623 -0.00684022 0.00777088
-0.00112293 -0.00287533 0.00147252
0 0 0
-0.00999181 -0.00616515 0.00624803
-0.0100142 -0.00498157 0.00736809
-0.00573207 -0.00208782 0.0055691
-0.00546014 -0.000979829 0.00565898
-0.0116214 -0.00148305 0.00840125
-0.00600347 -0.00314572 0.00539527
-0.00923822 -0.00495999 0.00629892
-0.00323831 -0.00333765 0.0035075
-0.0268297 0.00357197 -0.00206493
-0.0281799 0.00411283 0.00202939
-0.03 0 0
-0.0286652 0.00308987 0.00229194
-0.0202646 -0.00512685 -0.00650591
-0.0204377 -0.00271016 -0.00775329
0 0 0
-0.00163891 -0.000338889 0.00428468
-0.00112508 0.000172152 0.00316705
-0.00111036 -0.000193508 0.00319849
-0.0128783 0.00699873 0.00792643
-0.0108324 0.00730432 0.00621036
0 0 0
-0.00109259 -0.00299656 0.000623876
-0.00166545 -0.00410263 0.00135329
-0.00112999 -0.00307546 0.00101971
-0.01708 -0.00675338 -0.00770847
-0.0190541 -0.0072734 -0.006313
-0.0197453 -0.0063088 -0.00638445
-0.0242382 0.00454101 -0.00228524
-0.0244045 0.00344681 -0.00234357
-0.0238459 0.00575867 6.1907e-05
-0.0174874 -0.00807847 -0.00302177
-0.00531997 -0.00554921 0.00113124
-0.0053928 -0.00554286 4.69247e-05
-0.00297338 -0.00458478 0.000959922
-0.0089957 -0.00746545 0.00117962
-0.00828172 -0.00252318 0.00650659
-0.0085032 -0.00503812 0.00513255
-0.0122014 -0.00684351 0.0056182
-0.00586033 -0.00425977 0.00437083
-0.00758587 -0.00253777 0.00412476
-0.00807039 -0.0037334 0.00529686
-0.00766767 -0.00256536 0.00538299
-0.00281539 -0.000862857 0.00354817
-0.00213159 -0.00216474 0.00197441
0 0 0
-0.00754404 -0.00538514 0.0011685
-0.00218641 -0.00308716 0.000927508
-0.00788478 -0.00650096 0.00112828
-0.00247563 -0.00273458 0.00263503
-0.00209778 -0.00306081 0.00174952
0 0 0
-0.00233421 -0.00375372 0.00191203
-0.00569726 -0.00550258 0.00329036
-0.00528693 -0.00568006 0.00226672
-0.000936491 -0.0022417 0.000898527
-0.0242803 0.00214314 0.00591154
-0.0175862 0.00143729 0.00872629
-0.0245943 0.000896922 0.00620363
-0.0215067 0.00262395 0.00677024
-0.03 0 0
-0.0289031 -0.000133809 0.003187
-0.0288832 0.000241515 0.00337405
-0.028338 0.000321154 0.00441893
-0.0247331 -0.00357685 0.00617951
-0.0254477 -0.00473122 0.00521551
-0.0263963 -0.0024778 0.00450102
-0.0244404 -0.00579338 0.00523963
-0.0200744 0.00637576 0.00629136
-0.0227783 0.00544509 0.00589969
-0.0201279 0.00520727 0.00750202
-0.0288645 0.000677358 0.003223
-0.0258653 0.00146658 0.00609711
-0.0268348 0.00150045 0.00498358
-0.0285845 0.00135281 0.00295411
-0.0260299 -0.00379186 0.00499038
-0.0286794 -0.00160959 0.00303223
-0.0283791 -0.00313384 0.00295288
-0.03 0 0
-0.0281853 -0.00419999 0.00194783
-0.0286933 -0.00318478 0.00220616
-0.03 0 0
-0.0288025 -0.00231746 0.00240744
-0.0288341 -0.00304319 0.00167624
-0.0128207 0.00800037 0.00559998
-0.0124434 0.00687544 0.00700406
-0.00563507 0.00319419 0.00560749
-0.000943278 0.000817525 0.00231313
-0.00272029 0.00177976 0.00358877
-0.00766622 0.00387486 0.00543133
-0.00754011 0.00383079 0.00413282
-0.00766688 0.00252863 0.00410098
-0.00907553 0.00247072 0.00751552
-0.00534386 0.002176 0.00568844
-0.00303584 0.000910942 0.00471986
-0.01161 0.0013897 0.00835555
-0.00543755 0.00106308 0.00556942
-0.0053689 1.43768e-05 0.0056325
-0.00758543 0.0012573 0.00551257
-0.00264923 0.00108171 0.00295928
-0.00788213 0.00125959 0.00653871
-0.00296677 1.78921e-05 0.0030749
-0.00209339 0.00313625 0.00187762
0 0 0
-0.00232596 0.00380029 0.00195726
-0.00235714 0.00282981 0.00276045
-0.0176789 0.0068649 0.00684703
-0.015136 0.00722872 0.00734261
-0.0176225 0.00778571 0.00561392
-0.00983886 0.00512732 0.00750217
-0.007112 0.00532695 0.00575605
-0.00899428 0.00511687 0.00643412
-0.00989526 0.00632519 0.00636321
-0.00706509 0.00543947 -0.00548797
-0.00972136 0.0054312 -0.00722589
-0.00981159 0.00651544 -0.0059488
-0.0175375 -0.00173176 0.0086571
-0.0180435 -0.00432719 0.00726423
-0.0147382 -0.0043843 0.00762184
-0.0199759 -0.00531332 0.00756034
-0.0226866 -0.00578009 0.00612911
-0.0200218 -0.0063662 0.00633305
-0.0212056 -0.00525894 0.00546288
-0.0178071 -0.00816795 0.00296989
-0.0179895 -0.00291785 0.00734187
-0.0182795 -0.0057499 0.00457067
-0.0147251 -0.00593912 0.00443138
-0.0121406 0.00689533 0.0057467
-0.00811603 0.00509274 0.00535077
-0.0055352 0.00554521 0.00333742
-0.00554108 0.00435843 0.00449028
-0.00293776 0.00460293 0.000971768
-0.00525395 0.00553387 0.000131721
-0.00884353 0.00750955 0.00128093
-0.0265507 0.00466485 -0.000966871
-0.0258263 0.00587942 -0.000889165
-0.0287792 0.00314206 -0.00070533
-0.00791433 0.00261027 0.00268163
-0.0214044 0.00541563 0.00389697
-0.018283 0.00584632 0.00277359
-0.0203595 0.00783208 0.00139349
-0.0240362 0.00325627 0.005726
-0.0266446 0.00343329 0.00397592
-0.0208302 0.00518137 0.00651064
-0.0239929 0.0044777 0.00474294
-0.0182228 0.00683821 0.0057701
-0.0181715 0.00449852 0.00723163
-0.0147059 0.00450027 0.00759808
-0.011998 -0.00811889 -0.00303946
-0.006285 -0.00520945 -0.0031948
-0.00590713 -0.00544551 -0.00211812
-0.024332 -0.00579346 -0.00537958
-0.026324 -0.00243531 -0.00460124
-0.003854 0.00574889 -0.000667505
-0.00108079 0.00290684 0.000124989
-0.00302769 0.00461022 -0.000709304
-0.00113306 0.00311824 -0.000386657
-0.0219145 -0.00266272 0.00427574
-0.024601 -0.000131773 0.00603124
-0.0181979 -0.00284469 0.00596139
-0.0270069 -0.00402999 0.00185132
-0.0207153 -0.00763801 0.0014537
-0.0245893 -0.00465064 0.00237261
-0.0247368 -0.00240754 0.00368114
-0.0213633 -0.00528486 0.00424478
-0.027078 -0.00189172 0.00385115
-0.0268088 -0.000794493 0.00492672
-0.0268709 -0.00277971 0.00388262
-0.0289734 -0.00105888 0.00235626
-0.0266621 -0.00373695 0.00399127
-0.00533783 0.00551745 -0.000911454
-0.00576493 0.00549764 -0.00202364
-0.00103979 0.00235658 -0.000653311
-0.0258734 0.00582927 0.000973877
-0.028633 0.00295256 1.26121e-05
-0.0265514 0.00458976 0.000958747
-0.0146129 0.00597729 0.00445163
-0.0178929 0.00826535 0.00304161
-0.0181007 0.0058745 0.0043219
-0.0180633 0.00580911 0.00576954
-0.0282922 0.00400372 0.00158251
-0.0288721 0.00289024 0.00120652
-0.03 0 0
-0.0288255 0.00291173 0.000736328
-0.0277699 0.00091615 0.00247116
-0.0219738 0.00276375 0.00265056
-0.0218509 0.00407692 0.00263715
-0.0288429 -0.000522715 -0.00348944
-0.0257755 -0.0015326 -0.00631043
-0.0216495 0.00411196 -0.00251965
-0.0273927 0.000967885 -0.00241804
-0.0266017 0.00292624 3.0809e-05
-0.0227575 0.00550251 -0.00584407
-0.0250547 0.00340712 -0.00615419
-0.0261913 0.00363187 -0.00508424
-0.0253748 0.00451152 -0.00533069
-0.00511386 -0.00311644 0.00569814
-0.00721916 -0.00525154 0.00572608
-0.00380473 -0.00334315 0.00450269
-0.00448417 -0.00425707 0.00482718
-0.00726156 0.00136961 -0.00543706
-0.028563 0.00329657 -0.00234758
-0.03 0 0
-0.0287285 0.00239004 -0.00254951
-0.0253414 -0.00471297 -0.00533731
-0.0225095 -0.00574835 -0.00620015
-0.0246809 -0.00350759 -0.00630158
-0.0202235 0.00785134 -0.00119682
-0.0278541 0.000572663 0.00352121
-0.0276118 0.000523802 0.00418397
-0.03 0 0
-0.00771421 0.00277471 -0.00258236
-0.021759 0.00278504 -0.00259223
-0.014855 0.0024571 2.01101e-05
-0.0267875 0.00187023 -0.0053955
-0.026191 0.00173535 -0.00636468
-0.0285007 0.00158983 -0.00329069
-0.0288094 0.000855705 -0.00363628
-0.03 0 0
-0.0234971 0.00565719 -0.00335728
-0.0213437 0.00536912 -0.00500552
-0.0209011 0.00528812 -0.00617797
-0.0207502 0.00662382 -0.00373318
-0.0220055 -0.00263516 0.00294714
-0.014963 2.14575e-05 0.00250962
-0.00789998 -0.00257475 0.0026728
-0.0254693 0.00435274 0.005188
-0.0244646 0.00548594 0.00531635
-0.0284007 0.0029125 0.00302515
-0.0264595 0.00221129 0.00454406
-0.0287375 0.0032905 -0.00121617
-0.0287022 0.00314505 -0.00177509
-0.03 0 0
-0.0178847 0.00726735 -0.00413547
-0.0174641 0.00844786 -0.00287792
-0.0200058 0.00646955 -0.00603685
-0.0171795 0.00725055 -0.00749888
-0.0190373 0.00744505 -0.00591306
-0.00291341 -0.00287709 -0.000125392
-0.00753862 -0.00402654 -0.00261878
-0.0288873 0.00241467 -0.00133374
-0.0287833 0.00169092 -0.00222486
-0.0266299 0.00370195 -0.00407993
-0.0267492 0.00366575 -0.00302276
-0.0273581 -0.00210337 0.00110438
-0.0248776 -0.00477567 0.00121375
-0.0289365 -0.00273284 0.00117346
-0.03 0 0
-0.0290076 -0.00178296 0.00178726
-0.0290575 -0.00208675 0.00117549
-0.0177731 0.00719691 -0.00541828
-0.014941 0.00764475 -0.00702518
-0.0175006 0.00708867 -0.00656594
-0.0171464 0.00816393 -0.00534852
-0.0289036 0.00197606 0.00132459
-0.0243748 0.003397 0.00476166
-0.0277025 0.00155146 0.00332029
-0.0248774 0.00350711 0.00371743
-0.00575432 0.00441739 -0.00422164
-0.00317348 0.00334904 -0.00338884
-0.00891005 0.00531988 -0.0061362
-0.00835299 0.0052505 -0.00499603
-0.0145679 0.00778682 -0.00429961
-0.00826555 0.00642455 -0.00246272
-0.00571203 -0.0020437 -0.0056039
-0.00319701 -0.00132686 -0.00473032
-0.00923535 -0.0026375 -0.00746231
-0.00898478 0.00268758 -0.00755099
-0.00285851 0.00104305 -0.00457539
-0.00744306 0.00420705 -0.00251865
-0.00283263 0.00295855 9.29538e-06
-0.00794711 0.00535156 -0.00372272
-0.00758866 0.00539119 -0.00252472
-0.00283746 0.00348275 -0.000709602
-0.00207116 0.00193373 -0.00214108
-0.00204964 0.00100608 -0.00303322
0 0 0
-0.00242079 0.00262951 -0.00263265
-0.00203035 0.0017788 -0.0030077
0 0 0
-0.00502135 0.00232368 -0.00567298
-0.00544659 0.00335333 -0.00542385
-0.00221731 0.00192768 -0.00370904
-0.000860282 0.000895314 -0.00216805
0 0 0
-0.00208389 -0.000809365 -0.00232765
-0.00210628 0.000179263 -0.0031768
-0.00201473 -0.000548115 -0.00327178
-0.0210087 0.00286135 -0.00751252
-0.0245189 0.00349878 -0.00457206
-0.0270915 0.00191857 -0.00436791
-0.0290514 0.00107992 -0.00255479
-0.0289896 0.000392266 -0.00316723
-0.03 0 0
-0.0290766 -0.0019968 -0.000609725
-0.0176021 -0.0077731 0.00557003
-0.0151463 -0.00718599 0.0072219
-0.0181074 -0.00685098 0.0057015
-0.0176218 -0.00673105 0.00677665
-0.0049838 0.000166667 -0.00569785
-0.0117464 0.00147509 -0.0084591
-0.00768469 0.00131534 -0.00661285
-0.00513188 0.00123108 -0.00557737
-0.0179928 0.00154721 -0.00822584
-0.024771 0.00115105 -0.00508592
-0.0218411 0.00279311 -0.00523258
-0.0247373 0.00239486 -0.00481357
-0.00754037 -0.00273855 -0.00260364
-0.014769 2.03974e-05 -0.00243302
-0.0217197 -0.00259616 -0.00271851
-0.0147868 -0.0024336 6.18092e-05
-0.0247342 -0.0023352 -0.00248201
-0.0248091 -0.00464107 0.000135607
-0.00614834 -0.00308398 -0.00538616
-0.00621133 -0.00414876 -0.00427084
-0.00928734 -0.0049147 -0.00611383
-0.0034471 -0.00329045 -0.00347613
-0.0148218 -0.00713408 -0.00701458
-0.0169821 -0.00779886 -0.00557574
-0.017283 -0.00666539 -0.00677766
-0.0290546 0.000481594 -0.00260236
-0.029136 0.000619301 -0.00197168
-0.03 0 0
-0.03 0 0
-0.0288045 -0.000854328 -0.00326299
-0.0181157 0.00592887 -0.00259211
-0.0146935 0.00469178 -0.00576122
-0.0185154 0.00453646 -0.00555061
-0.0179133 0.00730145 -0.00270183
-0.03 0 0
-0.0206826 -0.00392026 -0.00658995
-0.0207378 -0.00515849 -0.00532459
-0.0174414 -0.00678025 -0.00564823
-0.0118741 0.00840022 0.00280699
-0.0051985 0.00572175 0.00231031
-0.00775394 0.00656011 0.00130229
-0.00523594 0.0055954 0.00119663
-0.00846299 -0.00632347 -0.00264512
-0.00786364 -0.00400214 -0.00383064
-0.0235711 -0.00343227 -0.00621597
-0.0268568 -0.000820184 -0.00524493
-0.03 0 0
-0.0281938 -0.00436422 -0.00152033
-0.0205043 -0.00521564 0.00656767
-0.0236771 -0.00354492 0.00621842
-0.0202651 -0.00285038 0.00792236
-0.020877 -0.00403545 0.00675161
-0.03 0 0
-0.0287947 -0.00305227 -0.00169544
-0.0287869 -0.00336437 -0.00114636
-0.0270101 -0.00400888 -0.000874814
-0.0273147 -0.00210035 -0.0019268
-0.0291232 -0.00118201 -0.00123505
-0.0271646 -0.00188448 -0.00296967
-0.0269531 -0.00180004 -0.00401662
-0.0290585 -4.7129e-05 -0.00232014
-0.0281924 -0.00444852 0.00152593
-0.03 0 0
-0.0287887 -0.00347595 0.00114407
-0.00843088 -0.00383738 -0.00506008
-0.00876862 -0.00499643 -0.00495197
-0.00837442 -0.00255604 -0.00642093
-0.0209924 -0.0052168 -0.00403457
-0.0213721 -0.00516387 -0.00273173
-0.0239297 -0.00468443 -0.00356014
-0.0205741 -0.0075391 -0.00123073
-0.0179263 -0.00563151 -0.00434757
-0.0145886 -0.00601218 -0.00442894
-0.0182188 -0.00289118 -0.00564286
-0.0178794 -0.002901 -0.00699111
-0.0146854 -0.00449537 -0.00730399
-0.0177888 -0.00426421 -0.0069724
-0.0178096 -0.00164127 -0.00825275
-0.0290474 -0.00234615 0.000429551
-0.0291009 -0.00225333 -0.000110327
-0.03 0 0
-0.0291695 -0.0018146 0.000480525
-0.0260505 -0.00617216 -0.000834876
-0.0287752 -0.00339644 -0.000629354
-0.0266988 -0.00514723 -0.000848004
-0.0287838 -0.00348102 0.00065642
-0.0287414 -0.00327923 3.5108e-05
-0.0267999 -0.0052031 0.000951358
-0.0260256 -0.00623868 0.000992488
-0.0289153 -0.0010312 -0.00253016
-0.0267278 -0.00271487 -0.00401214
-0.03 0 0
-0.0288886 -0.000122265 -0.00354017
-0.0283294 0.000438069 -0.00463874
-0.0288504 0.000295744 -0.00377095
-0.0290155 -0.00180873 -0.00117948
-0.0289075 -0.00175508 -0.00187062
-0.0289398 -0.00256312 -0.00117199
-0.03 0 0
-0.0259608 -0.0037497 -0.00512121
-0.0265161 -0.00372267 -0.00410427
-0.0286419 -0.00155821 -0.00320912
-0.0287518 -0.00231189 -0.00250321
-0.03 0 0
-0.0281397 -0.00423637 -0.00200486
-0.0283438 -0.00311976 -0.00302916
-0.0286522 -0.00321309 -0.00225627
-0.0262959 0.00398555 -0.0049469
-0.0132052 -0.00721625 0.00631176
-0.0289083 0.00284131 -0.00200592
-0.02494 -0.00180853 0.00301081
-0.000784296 -0.00208028 -0.00144243
-0.0292763 -0.000854721 0.00217062
-0.00124094 -0.000762667 -0.0026079
-0.00548632 0.00577614 -0.000652626
-0.00462188 0.00267244 0.00374666
-0.0287056 0.000360756 0.00236893
-0.0114002 0.00717308 -0.00642751
-0.0293143 0.000372225 0.00235351
-0.0278034 -0.000954066 0.00440815
-0.00357824 -0.00379528 -0.00449204
-0.00760318 -0.00183772 -0.00662073
-0.0206689 -0.0055956 -0.00666505
-0.0114715 -0.00667938 -0.00649405
-0.0020515 0.00415104 0.000653532
-0.00926147 0.00406794 0.00310003
-0.00232024 -0.00255283 -0.00327612
-0.00900582 -0.00530537 -0.00624318
-0.000632182 0.000781153 -0.00197016
-0.0291827 -0.000403314 0.00279865
-0.00481625 0.00404193 -0.00512132
-0.0224739 -0.00183624 -0.00402289
-0.000984719 -0.00268446 -0.00171428
-0.0129589 0.00756331 -0.00604247
-0.0281458 -0.00342042 0.00114122
-0.00490938 -0.00339008 -0.0025375
-0.0291803 0.00206313 0.00174309
-0.00368219 -0.00422308 -0.00114325
-0.00825457 -0.00533786 -0.00451466
-0.000780108 0.000449639 -0.00265511
-0.0246045 0.00432048 0.00271344
-0.000738229 -0.00204136 0.00142388
-0.0211241 0.00565392 -0.00631914
-0.022373 0.00489545 0.00192651
-0.00740598 -0.00656016 0.00181421
-0.0249888 0.0040618 0.00564377
-0.0185867 0.006904 0.00674534
-0.0079457 0.00559511 -0.00444534
-0.00231764 -0.00119976 -0.00422175
-0.00486208 0.00395755 0.0052904
-0.00435386 0.000956257 -0.00463565
-0.000753332 0.0019647 -0.00140486
-0.000936595 -0.00262584 0.00167008
-0.0294471 -0.00111698 -0.000709182
-0.00353696 0.00374951 -0.00436689
-0.000949619 0.00258435 -0.00164925
-0.000675102 0.000745611 0.00213506
-0.00565934 0.00403976 0.00505838
-0.00207785 0.00256859 -0.0031847
-0.000706344 0.0019094 0.00143352
-0.000646852 -0.000241429 -0.00217343
-0.000775906 -2.11666e-05 -0.00270357
-0.000849337 0.000410886 0.00285048
-0.0129366 -0.0071309 -0.00610023
-0.00353605 0.00368214 0.00442021
-0.0240637 0.00243779 0.00614354
-0.000749845 0.00224768 -0.000674432
-0.000889702 0.00288488 -0.000550041
-0.0268029 0.000446379 0.00487678
-0.000908762 -0.0029348 -0.000579693
-0.00472662 0.00454346 0.00087115
-0.00209769 0.000956622 0.00436139
-0.00211961 -0.00428107 -0.000397125
-0.00228762 -0.00131806 0.0042374
-0.00319359 0.00442657 0.00216036
-0.000818645 0.00270677 0.00074304
-0.000678643 0.00209737 0.000823293
-0.00562981 -0.00579827 -0.00075474
-0.00201245 0.00105858 -0.00412967
-0.00206198 0.00252912 0.00329994
-0.000898061 0.00250392 0.00165007
-0.00222711 -0.00259035 0.00324889
-0.00356978 -0.00377771 0.0044504
-0.0221274 0.00386712 0.00587916
-0.0292995 0.00193993 0.00104455
-0.00125186 0.002126 0.00124875
-0.0276938 0.00259118 0.00369986
-0.00504791 -0.00392222 -0.00528128
-0.0185875 -0.00681416 0.00673231
-0.00341255 -0.000595179 0.0043294
-0.0268487 0.000780059 -0.00359112
-0.000683815 -0.000345211 0.00223573
-0.0291543 -0.00038397 -0.00303096
-0.003027 -0.000403635 -0.0045438
-0.00792081 0.00641158 -0.00269483
-0.00594072 -0.00236126 0.00581235
-0.000762301 -0.00228247 -0.000698517
-0.0292428 -0.00240672 0.000969489
-0.0290784 0.00286214 -0.000838677
-0.024391 0.00428619 -0.00346364
-0.00206994 -0.00415483 0.000642949
-0.0115686 -0.00675881 0.00676574
-0.000682681 -0.00209139 0.000812678
-0.00902482 -0.00535956 0.0064148
-0.00765859 -0.0018336 0.00658824
-0.00597677 -0.00395254 0.00492856
-0.0260359 0.00438089 -0.00233531
-0.0289926 0.00268149 0.00192781
-0.0212537 -0.00379963 -0.00678851
-0.000827772 -0.000118718 0.00282918
-0.0114973 0.00692115 0.00690089
-0.000823034 -0.00269487 0.000735501
-0.0183023 -0.00674427 -0.00681581
-0.0224309 0.00395482 -0.00376005
-0.0221952 0.00491656 -0.00180709
-0.019347 -0.00602676 -0.00422004
-0.00550925 -0.00579628 0.000865941
-0.00977857 -0.00397996 0.00618902
-0.00794891 -0.00546991 0.00465254
-0.00925946 -0.00405979 0.00305547
-0.0047419 -0.00172631 0.00372665
-0.00503138 -0.00249734 0.00429886
-0.00123482 -0.00205554 0.00114318
-0.00476732 -0.00451768 0.000706144
-0.0013257 -0.00246005 0.00161657
-0.00324372 -0.00437796 0.0021361
-0.0221894 0.00186166 0.00695644
-0.0291691 0.000118734 0.00291607
-0.0248685 -0.00444993 0.00577363
-0.0263322 -0.00412086 0.00476767
-0.0210471 0.00557354 0.00654852
-0.027719 0.0013084 0.00443853
-0.0276993 -0.00288526 0.00371435
-0.029002 -0.00277346 0.00184275
-0.029209 -0.00214937 0.00165636
-0.0131512 0.00729807 0.00645585
-0.00336642 0.00199158 0.00435955
-0.00488884 0.00340785 0.00440352
-0.00916277 0.00293954 0.00530814
-0.00559379 0.00158943 0.0058899
-0.00741979 0.000897508 0.00654068
-0.00498679 0.000890266 0.00452654
-0.00131491 0.00251138 0.0017327
-0.0171794 0.00720032 0.00638217
-0.00887187 0.00551625 0.00652727
-0.00876521 0.0057156 -0.00619319
-0.0196312 -0.0051345 0.00634949
-0.0171064 -0.00333973 0.00774767
-0.0208747 -0.00568133 0.00664789
-0.0197639 -0.00612632 0.00437981
-0.0173324 -0.00433918 0.00564336
-0.00767103 0.00555104 0.0047743
-0.00541463 0.00582604 0.000920053
-0.0276626 0.00423987 -0.000616729
-0.0149329 0.00193555 0.00193815
-0.0197055 0.0063014 0.00311475
-0.0239661 0.00411709 0.00529478
-0.0173575 0.00556173 0.00657548
-0.0080868 -0.00630868 -0.00285426
-0.0262563 -0.00409601 -0.00488423
-0.00207253 0.00420423 -0.000358819
-0.0225233 -0.00196581 0.0051266
-0.0244908 -0.00526072 0.00179387
-0.024652 -0.00355437 0.00364616
-0.0262553 -0.00223629 0.00471856
-0.028033 -0.00232051 0.00302416
-0.00357045 0.00422071 -0.00109031
-0.0276759 0.00412736 0.000655809
-0.0172598 0.00656184 0.00441615
-0.0291693 0.00256297 0.000890042
-0.0276732 0.00286689 -0.00388092
-0.0248926 0.00280011 0.00187369
-0.0277906 -0.000928752 -0.0047051
-0.0280923 0.00174892 -0.00367642
-0.0246404 0.00280927 -0.00180047
-0.0250029 0.00424593 -0.0057532
-0.00500798 -0.00395306 0.00529512
-0.00905601 0.00325888 -0.00405347
-0.0291192 0.00224885 -0.00177393
-0.0247709 -0.00440993 -0.00588917
-0.0193047 0.00729959 -0.00296815
-0.0286671 0.000780244 0.00283166
-0.0147984 0.00197922 -0.00189038
-0.0277269 0.0015881 -0.00485334
-0.0292421 0.000452252 -0.0027724
-0.0216808 0.00577735 -0.0045373
-0.0149235 -0.00189244 0.00203243
-0.0263781 0.003807 0.0048184
-0.0292126 0.00227627 -0.00105614
-0.0170197 0.00771997 -0.0041947
-0.0184668 0.00708698 -0.00649091
-0.00471937 -0.00272262 -0.0018419
-0.0278968 0.00289568 -0.0026582
-0.026864 -0.00326431 0.000808476
-0.0293659 -0.00163004 0.00106653
-0.0168373 0.00756244 -0.00608115
-0.0267165 0.00280428 0.00327534
-0.00569 0.00414425 -0.00483515
-0.00964855 0.00625658 -0.00394132
-0.00597545 -0.00230648 -0.00583135
-0.0053321 0.00175011 -0.005872
-0.00466471 0.00370447 -0.00170149
-0.00499443 0.00428112 -0.00244418
-0.00119133 0.00114392 -0.00201608
-0.0012837 0.00160942 -0.00241041
-0.00305031 0.00213737 -0.00433461
-0.00119124 -0.000301718 -0.002216
-0.0245537 0.00272289 -0.00528696
-0.0293704 0.00059149 -0.00212232
-0.0281438 -0.00334152 -0.000588591
-0.017109 -0.00717172 0.00631878
-0.00722001 0.000992389 -0.00662296
-0.0225546 0.00204546 -0.0058026
-0.0146753 -0.00193555 -0.00190686
-0.0247853 -0.00359051 -0.00172383
-0.00619903 -0.00387521 -0.00485814
-0.0166019 -0.00713164 -0.00627125
-0.0294231 0.000300939 -0.00174705
-0.0292467 -0.000812282 -0.00233381
-0.0173742 0.00570875 -0.00409563
-0.0291816 -0.0021606 -0.00170197
-0.0192098 -0.00504512 -0.00616469
-0.00730638 0.0066139 0.00192023
-0.00968575 -0.00513969 -0.0040404
-0.0261514 -0.00213859 -0.0048604
-0.0290912 -0.0029504 -0.000809231
-0.0213565 -0.0039219 0.00688765
-0.0292529 -0.00229241 -0.000963371
-0.0265214 -0.00314295 -0.00227054
-0.0282619 -0.00114033 -0.00259979
-0.0290792 -0.00304423 0.000805913
-0.0099722 -0.004072 -0.00595483
-0.0217686 -0.00567363 -0.00293942
-0.0171707 -0.00435931 -0.00538211
-0.0170613 -0.00333049 -0.00739914
-0.0294479 -0.00162025 0.000189962
-0.0277348 -0.00463968 -0.000531651
-0.0277616 -0.00470262 0.000626014
-0.0279227 -0.00228262 -0.0031686
-0.0291292 0.000168579 -0.00319469
-0.0293619 -0.00147908 -0.00108301
-0.0276212 -0.0028513 -0.00385868
-0.0289745 -0.00278872 -0.00189327

CELL_DATA 236
TENSORS stress float
-7991.65 -337.917 52.1206
-337.917 -1970.36 341.128
52.1206 341.128 135.808

-7104.96 85.0608 144.037
85.0608 -248.725 427.708
144.037 427.708 176.494

-8801.16 -1632.3 1556.44
-1632.3 -4399.06 -595.047
1556.44 -595.047 -5143.32

-7800.76 -5.92757 -429.225
-5.92757 -1489.77 172.584
-429.225 172.584 -1749.16

-8359.41 -1608.04 -1255.96
-1608.04 -4405.3 646.909
-1255.96 646.909 -5228.81

-8777.66 653.658 -1525.1
653.658 -5990.66 -258.121
-1525.1 -258.121 -5339.59

-10060.6 -114.746 -575.433
-114.746 -6385.19 -125.778
-575.433 -125.778 -6580.58

-6762.61 -126.749 69.8147
-126.749 -433.136 31.9678
69.8147 31.9678 -335.958

-8383.95 262.477 416.063
262.477 -1762.59 -96.3751
416.063 -96.3751 -2415.41

-10985 -412.717 -573.2
-412.717 -7560.09 31.5204
-573.2 31.5204 -7190.82

-6165.54 -264.33 49.7827
-264.33 593.046 124.592
49.7827 124.592 350.139

-8112.05 -432.147 -1798.76
-432.147 -6031.01 13.0513
-1798.76 13.0513 -4440.55

-6648.07 351.14 -1008.76
351.14 -1678.86 59.5947
-1008.76 59.5947 -256.893

-8090.22 -305.295 37.75
-305.295 -1947.09 -243.597
37.75 -243.597 -39.0311

-6966.77 76.268 186.391
76.268 487.036 -174.292
186.391 -174.292 -560.35

-6535.16 -211.022 -282.919
-211.022 1030.84 -208.51
-282.919 -208.51 606.965

-6232.54 170.016 80.4082
170.016 394.897 -80.8801
80.4082 -80.8801 239.156

-7123.7 773.807 113.025
773.807 -1461.4 187.009
113.025 187.009 -2591.77

-8331.07 328.042 174.227
328.042 -599.578 -38.9934
174.227 -38.9934 -421.312

-7853.07 -694.117 -863.121
-694.117 -2291.66 222.966
-863.121 222.966 -2445.12

-6568.99 75.1447 298.005
75.1447 960.984 -16.401
298.005 -16.401 549.214

-8053.23 667.24 -1510.14
667.24 -5732.71 -152.81
-1510.14 -152.81 -4862.94

-8225.7 161.185 -1932.77
161.185 -6148.28 -305.556
-1932.77 -305.556 -3586.28

-6958.78 -5.65631 93.223
-5.65631 -1104.81 -166.397
93.223 -166.397 -88.1019

-7760.78 -3.24184 122.849
-3.24184 -268.09 -99.2026
122.849 -99.2026 -509.469

-8838.17 -1566.04 -1351.84
-1566.04 -4481.25 537.046
-1351.84 537.046 -5422.36

-6723.46 -39.2492 -115.959
-39.2492 162.428 401.317
-115.959 401.317 519.908

-8243.26 745.621 -237.574
745.621 -3732.33 79.6494
-237.574 79.6494 -3855.23

-7606.91 -147.288 -123.417
-147.288 -1270.17 -353.382
-123.417 -353.382 -1700.13

-8330.44 -1687.54 -1543.71
-1687.54 -4620.12 666.711
-1543.71 666.711 -5390.15

-7794.4 -487.574 -182.395
-487.574 -1607.64 -172.888
-182.395 -172.888 -2401.1

-6836.25 -145.247 -119.801
-145.247 46.5733 -30.4333
-119.801 -30.4333 93.6462

-7712.54 297.884 -1881.57
297.884 -5627.78 -309.894
-1881.57 -309.894 -3208.18

-7973.6 -281.721 -228.937
-281.721 -1058.49 -102.903
-228.937 -102.903 -1249.32

-7843.82 -1678 1292.05
-1678 -4023.19 -672.336
1292.05 -672.336 -4917.39

-6626.99 315.564 -209.472
315.564 971.031 203.917
-209.472 203.917 555.056

-7677.16 -183.512 -87.086
-183.512 -315.909 -100.496
-87.086 -100.496 -279.323

-6069.42 348.794 96.8797
348.794 391.445 -58.1841
96.8797 -58.1841 1593.78

-7024.2 -80.7241 172.045
-80.7241 -717.081 12.4568
172.045 12.4568 -105.837

-6059.94 240.718 13.821
240.718 462.002 -254.586
13.821 -254.586 416.708

-6844.84 -96.6391 -135.514
-96.6391 131.964 55.8538
-135.514 55.8538 199.323

-7586.72 -342.988 -660.703
-342.988 -2190.16 -226.264
-660.703 -226.264 -1863.63

-7016.44 -34.2978 -129.292
-34.2978 -1038.4 91.8858
-129.292 91.8858 -49.6059

-7774.59 90.2657 -429.615
90.2657 -1681.71 149.647
-429.615 149.647 -2115.1

-8016.07 1582.71 -1266.43
1582.71 -4018.92 -555.118
-1266.43 -555.118 -4854.63

-8720.71 -1577.76 1332.21
-1577.76 -4441.78 -531.221
1332.21 -531.221 -5415.16

-7626.84 879.979 581.155
879.979 -4732.2 -65.5975
581.155 -65.5975 -4961.83

-8086.33 291.778 51.9887
291.778 -1924.37 194.733
51.9887 194.733 -149.306

-8825.09 1537.92 -1305.84
1537.92 -4442.93 -504.56
-1305.84 -504.56 -5465.29

-8778.43 595.081 1499.43
595.081 -6496.17 145.389
1499.43 145.389 -5466.68

-6937.58 188.09 166.914
188.09 -286.156 -45.0103
166.914 -45.0103 -227.38

-7076.78 633.524 -1009.56
633.524 -1965.81 -250.561
-1009.56 -250.561 -1882.7

-7521.21 1643.04 1341.79
1643.04 -3702.57 585.48
1341.79 585.48 -4528.1

-7733.11 -299.086 -1733.53
-299.086 -5509.16 56.3254
-1733.53 56.3254 -4172.92

-7539.88 -3.07025 -1989.72
-3.07025 -5516.48 185.589
-1989.72 185.589 -3038.01

-8106.83 235.095 1901.29
235.095 -6011.04 322.006
1901.29 322.006 -3453.54

-6448.61 2.32872 -48.0047
2.32872 174.948 -306.789
-48.0047 -306.789 433.475

-8128.94 288.382 -91.893
288.382 -2032.93 -210.456
-91.893 -210.456 -85.3372

-7135.59 -267.334 110.007
-267.334 -403.977 -87.1109
110.007 -87.1109 -517.135

-8487.67 1708.54 -581.27
1708.54 -4741.61 -198.424
-581.27 -198.424 -6203.64

-7961.98 1893.69 -439.25
1893.69 -3420.77 -582.414
-439.25 -582.414 -5532.38

-7899.21 -117.269 -262.806
-117.269 -3008.28 341.218
-262.806 341.218 -2759.24

-8100.66 -1892.45 -468.272
-1892.45 -3495.83 597.306
-468.272 597.306 -5682.54

-8076.88 471.39 347.389
471.39 -2322.66 97.4742
347.389 97.4742 -1733.84

-7042.34 466.411 762.176
466.411 -2779.12 -112.378
762.176 -112.378 -1067.95

-7332.78 -751.165 -18.5466
-751.165 -1553.18 226.836
-18.5466 226.836 -2689.52

-7653.39 -439.108 657.13
-439.108 -2520.67 258.238
657.13 258.238 -1899.97

-7721.37 65.1584 427.991
65.1584 -3118.3 -454.928
427.991 -454.928 -2838.63

-7681.69 1887.79 625.112
1887.79 -3282.15 600.131
625.112 600.131 -5367.78

-7476.74 1784.45 786.213
1784.45 -3901.8 225.992
786.213 225.992 -5187.71

-6952.74 93.2629 8.86507
93.2629 -490.525 -65.2691
8.86507 -65.2691 -394.235

-6768.59 514.489 -754.506
514.489 -2532.79 110.669
-754.506 110.669 -974.075

-7184.02 646.125 987.531
646.125 -2035.99 118.257
987.531 118.257 -2023.42

-8679.11 1544.61 1327.97
1544.61 -4434.33 508.543
1327.97 508.543 -5403.74

-7777.95 -681.379 806.852
-681.379 -2372.9 -232.431
806.852 -232.431 -2502.46

-8137.58 -293.889 -89.0553
-293.889 -2035.15 238.62
-89.0553 238.62 -48.2008

-8035.88 -301.297 -294.936
-301.297 -1391.01 -547.558
-294.936 -547.558 -1287.11

-8361.39 -1599.53 -884.076
-1599.53 -4374.75 251.459
-884.076 251.459 -5426.4

-10157.9 550.139 461.933
550.139 -6483.81 -14.551
461.933 -14.551 -6605.64

-7804.69 -676.808 -862.195
-676.808 -2325.38 362.283
-862.195 362.283 -2645.66

-7141.56 -36.9968 127.846
-36.9968 -903.917 91.3983
127.846 91.3983 -131.546

-6036.77 -267.215 32.0797
-267.215 561.658 144.687
32.0797 144.687 421.994

-7593.09 -233.226 431.645
-233.226 -2487.22 316.916
431.645 316.916 -1972.3

-9130.27 -170.887 160.573
-170.887 -4016.42 -102.396
160.573 -102.396 -3647.4

-8423.49 -383.207 1635.33
-383.207 -6142.47 -13.9735
1635.33 -13.9735 -4757.32

-8023.26 138.616 2140.5
138.616 -6010.69 233.828
2140.5 233.828 -3547.3

-7243.44 -135.038 -132.586
-135.038 -2502.28 -127.674
-132.586 -127.674 -2668.08

-6928.82 -196.519 -21.8852
-196.519 -563.74 107.654
-21.8852 107.654 -49.5871

-7196.89 -179.664 -124.859
-179.664 -718.257 122.633
-124.859 122.633 -611.476

-8642.72 -1708.33 -599.384
-1708.33 -4856.38 225.823
-599.384 225.823 -6322.03

-8037.18 1952.63 -888.64
1952.63 -4314.51 -72.9768
-888.64 -72.9768 -5431.32

-8266.12 -1841.59 640.766
-1841.59 -3574.4 -682.094
640.766 -682.094 -5711.02

-7193.26 -311.87 236.762
-311.87 -294.104 -2.86932
236.762 -2.86932 -411.065

-7229.23 -762.203 111.505
-762.203 -1491.04 -129.934
111.505 -129.934 -2662.98

-6259.98 204.75 -65.851
204.75 535.658 118.855
-65.851 118.855 264.804

-7409.45 -1782.77 781.575
-1782.77 -3789.55 -286.534
781.575 -286.534 -5094.04

-6645.55 162.576 -319.642
162.576 992.046 26.7883
-319.642 26.7883 523.113

-6940.42 -35.4693 -114.497
-35.4693 178.925 66.7896
-114.497 66.7896 -565.774

-6954.79 -292.654 154.899
-292.654 -127.506 -203.442
154.899 -203.442 91.12

-7893.58 -213.231 143.212
-213.231 -1473.16 71.1984
143.212 71.1984 -1868.08

-8762.01 -1601.9 -1499.38
-1601.9 -4483.59 532.149
-1499.38 532.149 -5240.41

-6929.71 -27.5717 -304.149
-27.5717 590.493 -98.3188
-304.149 -98.3188 538.698

-7852.94 -88.3913 1986.09
-88.3913 -5817.7 -166.095
1986.09 -166.095 -3261.14

-6187.25 -277.323 -39.9276
-277.323 583.816 -148.568
-39.9276 -148.568 329.309

-7733.52 -1874.75 611.781
-1874.75 -3287.23 -609.056
611.781 -609.056 -5430.79

-6121.16 -260.064 33.0726
-260.064 530.436 -85.7661
33.0726 -85.7661 434.795

-7927.76 -362.325 298.766
-362.325 -935.217 101.018
298.766 101.018 -846.948

-7585.38 -220.6 2.99322
-220.6 -284.271 126.616
2.99322 126.616 -280.97

-7259.58 63.571 66.0922
63.571 218.105 -81.1574
66.0922 -81.1574 701.14

-6756.66 114.38 21.844
114.38 -314.829 -48.7014
21.844 -48.7014 -191.2

-7937.12 31.5013 33.0679
31.5013 -790.688 128.387
33.0679 128.387 -1332.33

-6930.74 153.045 -318.388
153.045 -30.71 317.243
-318.388 317.243 35.2659

-8255.22 -296.695 214.696
-296.695 -317.422 99.0765
214.696 99.0765 -196.849

-8397.68 -236.368 436.243
-236.368 -2025.43 181.322
436.243 181.322 -2534.11

-7104.42 -221.113 64.6224
-221.113 -1250.27 569.973
64.6224 569.973 -1009.31

-9848.63 -554.843 404.529
-554.843 -6165.35 101.749
404.529 101.749 -6231.29

-7796.95 -415.947 413.507
-415.947 -2011.36 -152.775
413.507 -152.775 -1200.7

-9868.81 -631.542 257.702
-631.542 -6457.84 64.7918
257.702 64.7918 -6281.38

-7390.73 -57.8938 333.75
-57.8938 -2520.21 418.35
333.75 418.35 -2345.13

-6795.5 -78.3895 239.561
-78.3895 1084.97 -164.896
239.561 -164.896 83.8915

-7939.33 -116.422 -2098.24
-116.422 -5948.28 216.207
-2098.24 216.207 -3352.17

-7208.42 160.826 62.2837
160.826 -932.082 2.26937
62.2837 2.26937 -201.139

-8021.45 444.992 35.0095
444.992 -2077.45 276
35.0095 276 113.976

-6400.81 160.47 274.537
160.47 1274.83 -343.097
274.537 -343.097 701.731

-7595.6 -493.967 -736.505
-493.967 -2532.54 -250.641
-736.505 -250.641 -1899.48

-7559.98 749.751 -1010.64
749.751 -2202.07 -305.143
-1010.64 -305.143 -2362.38

-8818.71 1689.25 -1429.32
1689.25 -4543.83 -632.825
-1429.32 -632.825 -5451.8

-7917.72 1827.03 -1494.03
1827.03 -4102.7 -663.576
-1494.03 -663.576 -4836.06

-7329.43 -128.736 146.68
-128.736 -480.027 -376.983
146.68 -376.983 -53.4766

-7698.41 382.246 450.93
382.246 -2505.97 -260.021
450.93 -260.021 -2006.55

-7439.95 269.906 211.544
269.906 -1594.24 -327.779
211.544 -327.779 -1440.77

-8256.08 133.604 211.933
133.604 -748.661 -5.29252
211.933 -5.29252 -316.015

-6528.81 251.495 -202.077
251.495 223.372 30.6274
-202.077 30.6274 145.834

-6206.63 20.3176 -103.011
20.3176 1147.59 -54.0666
-103.011 -54.0666 226.901

-7471.44 187.99 513.441
187.99 -777.577 -117.754
513.441 -117.754 -1616.77

-9582.93 681.589 412.642
681.589 -6191.07 -64.2547
412.642 -64.2547 -5996.34

-6083.29 94.2119 80.6121
94.2119 851.789 -339.27
80.6121 -339.27 1234.9

-6684.39 -288.938 -315.653
-288.938 965.973 -31.2325
-315.653 -31.2325 491.322

-6651.09 -218.463 322.829
-218.463 981.897 53.0891
322.829 53.0891 539.417

-6652.81 -0.451063 271.712
-0.451063 893.844 342.504
271.712 342.504 787.872

-6556.01 175.157 -74.6798
175.157 2681.97 -161.093
-74.6798 -161.093 2185.65

-6324.83 -137.22 363.022
-137.22 1134.13 260.363
363.022 260.363 651.072

-7015.6 215.634 -282.72
215.634 459.114 336.787
-282.72 336.787 940.893

-7861.31 174.131 -25.1368
174.131 590.098 -41.7901
-25.1368 -41.7901 467.739

-6461.88 -393.046 -388.001
-393.046 590.748 -412.533
-388.001 -412.533 509.549

-6675.38 -95.8094 43.0268
-95.8094 -362.979 51.7102
43.0268 51.7102 -235.463

-7752.28 -783.922 123.663
-783.922 -1513.99 -197.845
123.663 -197.845 -2444.27

-8352.23 80.8669 -6.32107
80.8669 -759.267 303.885
-6.32107 303.885 -769.182

-7538.87 184.431 -102.599
184.431 196.449 180.928
-102.599 180.928 842.533

-6912.67 -264.598 -259.471
-264.598 205.073 65.2497
-259.471 65.2497 -110.428

-6258.8 -381.234 -523.972
-381.234 1858.74 -119.029
-523.972 -119.029 2739.02

-6961.41 111.285 -65.6373
111.285 -446.15 -195.692
-65.6373 -195.692 -9.93973

-8092.17 427.778 -34.1965
427.778 -2099.82 -321.65
-34.1965 -321.65 188.045

-7201.42 747.422 3.45253
747.422 -1473.96 -193.926
3.45253 -193.926 -2621.64

-7305.59 -329.902 27.1358
-329.902 -124.21 89.0251
27.1358 89.0251 34.0104

-7364.14 -71.8943 -51.0013
-71.8943 -707.38 82.7833
-51.0013 82.7833 -502.558

-7630.8 183.072 -333.225
183.072 -1111.31 47.0037
-333.225 47.0037 -694.982

-8054.62 344.513 -453.637
344.513 -2454.96 107.903
-453.637 107.903 -1697.53

-7426.73 736.627 -934.353
736.627 -2734.3 -211.382
-934.353 -211.382 -2275.37

-7614.27 425.387 -171.666
425.387 -1734.77 241.712
-171.666 241.712 -2183.16

-8038.97 -918.249 -137.43
-918.249 -1830.95 91.0331
-137.43 91.0331 -2910.01

-7123.54 -311.529 -306.163
-311.529 801.274 -49.0661
-306.163 -49.0661 1528.06

-8347.19 -1743.78 -688.539
-1743.78 -3757.2 641.347
-688.539 641.347 -5857.2

-7736.29 -661.427 954.677
-661.427 -2631.91 -93.8294
954.677 -93.8294 -2586.8

-8413.54 -302.392 -298.924
-302.392 -2339.83 -202.565
-298.924 -202.565 -1591.14

-6518.1 283.378 1098.72
283.378 -1846.39 -225.372
1098.72 -225.372 -185.121

-7570.66 -614.171 743.476
-614.171 -3043.59 288.533
743.476 288.533 -2909.33

-8332.34 -286.106 191.791
-286.106 -2163.93 238.431
191.791 238.431 -1657.7

-6753.85 84.6522 -150.475
84.6522 -604.808 16.7384
-150.475 16.7384 64.282

-7155.26 -6.04859 -179.66
-6.04859 -960.876 -100.072
-179.66 -100.072 -103.25

-8266.05 202.596 -233.601
202.596 -202.586 -42.7558
-233.601 -42.7558 -181.501

-8251.62 -1750.1 1554.44
-1750.1 -4379.96 -669.08
1554.44 -669.08 -5147.42

-7209.59 107.148 -66.8182
107.148 -792.13 -69.3503
-66.8182 -69.3503 -90.9611

-7388.38 264.132 92.2095
264.132 -115.649 29.1083
92.2095 29.1083 496.444

-10156 -265.287 -649.519
-265.287 -6342.09 -87.5656
-649.519 -87.5656 -6554.24

-8347.68 55.7213 -59.7915
55.7213 -657.241 -334.85
-59.7915 -334.85 -818.035

-7508.04 -595.998 968.039
-595.998 -2394.31 316.391
968.039 316.391 -2241.7

-8234.82 -511.013 2099.76
-511.013 -5951.42 -97.2521
2099.76 -97.2521 -4732.4

-6784.89 296.561 -24.4186
296.561 699.007 229.971
-24.4186 229.971 785.39

-8306.74 -57.3959 29.8068
-57.3959 -706.826 -341.117
29.8068 -341.117 -575.631

-8026.17 -347.112 26.7919
-347.112 -1958.28 -323.581
26.7919 -323.581 86.5897

-8255.78 -1752.34 934.683
-1752.34 -4380.82 -265.317
934.683 -265.317 -5552.35

-6280.64 -234.016 264.859
-234.016 2049.39 43.7987
264.859 43.7987 2544.23

-6202.08 290.194 77.7908
290.194 602.055 162.317
77.7908 162.317 368.686

-8125.49 -430.173 -277.991
-430.173 -2212.55 -245.012
-277.991 -245.012 -1612.48

-7650.76 -858.452 745.278
-858.452 -2625.34 -8.43395
745.278 -8.43395 -2833.38

-8851.56 178.81 -269.298
178.81 -3338.44 29.129
-269.298 29.129 -3503.82

-7867.5 1279.46 -918.547
1279.46 -4942.54 -18.1616
-918.547 -18.1616 -5221.62

-6558.25 -4.14167 155.699
-4.14167 213.123 461.511
155.699 461.511 580.431

-7513.06 -469.695 -337.229
-469.695 -1775.98 -249.013
-337.229 -249.013 -2230.87

-7031.65 125.124 -287.27
125.124 -475.11 28.0416
-287.27 28.0416 -217.7

-7714.85 45.191 -16.3432
45.191 -1093.62 126.796
-16.3432 126.796 -528.445

-7170.16 -121.201 147.41
-121.201 -658.914 -188.897
147.41 -188.897 -586.316

-6192.64 303.327 349.73
303.327 612.21 39.6914
349.73 39.6914 245.079

-8362.61 424.337 -213.328
424.337 -2649.22 141.734
-213.328 141.734 -1990.38

-6821.03 74.1696 -271.862
74.1696 -829.34 586.19
-271.862 586.19 -943.466

-9355.16 399.427 -613.144
399.427 -5817.83 55.5961
-613.144 55.5961 -5676.46

-9414.06 285.244 -708.641
285.244 -5818.14 103
-708.641 103 -5949.12

-6811.1 381.774 -315.604
381.774 -1639.94 473.156
-315.604 473.156 -1717.09

-10232.8 -252.65 -623.549
-252.65 -6830.04 -70.2175
-623.549 -70.2175 -6515.76

-7452.24 -272.786 7.91854
-272.786 -848.524 207.572
7.91854 207.572 -949.545

-8723.24 -617.797 1592.09
-617.797 -6505.31 -190.696
1592.09 -190.696 -5974.94

-7538.91 804.193 11.9266
804.193 -2665.99 -191.441
11.9266 -191.441 -3332.04

-6127.81 68.3818 100.543
68.3818 713.265 475.294
100.543 475.294 1126.07

-5866.91 -129.795 307.75
-129.795 1781.68 -58.8092
307.75 -58.8092 656.645

-7233.81 -193.231 105.12
-193.231 733.501 211.711
105.12 211.711 -278.286

-8303.3 -41.1805 -89.5834
-41.1805 -586.063 357.792
-89.5834 357.792 -568.606

-7808.26 133.42 38.7045
133.42 -1279.59 -114.688
38.7045 -114.688 -994.326

-7049.56 -380.937 -322.029
-380.937 -170.356 213.329
-322.029 213.329 158.049

-6599.08 71.9055 143.569
71.9055 161.521 -343.356
143.569 -343.356 468.141

-10247.2 -362.483 1079.4
-362.483 -8342.87 -212.241
1079.4 -212.241 -7813.74

-9033.06 606.411 1577.01
606.411 -6253.3 203.485
1577.01 203.485 -5457.81

-7746.49 -148.767 296.83
-148.767 936.91 -217.864
296.83 -217.864 1254.57

-8114.84 1809.99 1518.31
1809.99 -4246.59 652.255
1518.31 652.255 -4945.26

-7051.12 -39.3118 -50.7998
-39.3118 519.555 -112.524
-50.7998 -112.524 519.118

-6191.99 -307.35 143.398
-307.35 193.139 -56.417
143.398 -56.417 1272.15

-7607.19 -47.2347 51.0077
-47.2347 -517.456 -179.208
51.0077 -179.208 -203.546

-8080.88 218.234 426.702
218.234 -2422.48 -164.14
426.702 -164.14 -1568.86

-8069.83 2027.26 636.234
2027.26 -3469.42 578.889
636.234 578.889 -5540.1

-6580.22 45.9591 429.173
45.9591 975.911 184.791
429.173 184.791 809.745

-7930.41 1918.24 884.378
1918.24 -4093.32 145.86
884.378 145.86 -5184.19

-7929.94 299.424 178.695
299.424 -2196.57 -236.876
178.695 -236.876 -1969.99

-7545.53 254.823 829.44
254.823 -3156.36 -234.402
829.44 -234.402 -2803.08

-7998.63 2055.63 -668.618
2055.63 -3397.83 -586.528
-668.618 -586.528 -5576.06

-7581.89 -48.3024 -148.833
-48.3024 -328.833 -267.759
-148.833 -267.759 -569.029

-7536.24 -127.789 -63.9642
-127.789 -104.123 -2.26818
-63.9642 -2.26818 225.07

-7508.59 31.9512 -27.3231
31.9512 903.847 77.6382
-27.3231 77.6382 923.701

-6945.89 110.534 290.573
110.534 1740.83 107.436
290.573 107.436 1159.92

-9358.53 1014.35 -243.516
1014.35 -6890.18 -121.153
-243.516 -121.153 -7225.72

-7185.89 987.774 -15.8589
987.774 -1544.31 174.335
-15.8589 174.335 -2142.23

-7083.48 929.076 -108.283
929.076 -1514.1 -321.63
-108.283 -321.63 -2279.33

-7476.38 730.754 1001.03
730.754 -2789.95 147.197
1001.03 147.197 -2202.21

-7491.62 -163.699 2394.2
-163.699 -5502.72 -349.093
2394.2 -349.093 -3078.86

-7999.99 1153.53 882.965
1153.53 -4799.23 147.309
882.965 147.309 -5006.94

-7740.58 714.797 1036.81
714.797 -2261.17 209.871
1036.81 209.871 -2447.6

-8906.29 1667.65 1454.6
1667.65 -4599.22 623.003
1454.6 623.003 -5416.69

