# vtk DataFile Version 3.0
vtk output at time 0.4
ASCII
DATASET UNSTRUCTURED_GRID
POINTS 1331 float
0 0 0 0 0 0.05 0 0 0.1 
0 0 0.15 0 0 0.2 0 0.05 0 
0 0.05 0.05 0 0.05 0.1 0 0.05 0.15 
0 0.05 0.2 0 0.1 0 0 0.1 0.05 
0 0.1 0.1 0 0.1 0.15 0 0.1 0.2 
0 0.15 0 0 0.15 0.05 0 0.15 0.1 
0 0.15 0.15 0 0.15 0.2 0 0.2 0 
0 0.2 0.05 0 0.2 0.1 0 0.2 0.15 
0 0.2 0.2 0.0438497 -0.00455578 -0.00437241 0.0449744 -0.00441275 0.047818 
0.0457585 -0.0046112 0.100037 0.0452072 -0.00459015 0.15224 0.0437404 -0.00456174 0.204484 
0.0452849 0.0478935 -0.00463515 0.0453243 0.0478945 0.204637 0.0455542 0.100123 -0.0046006 
0.0454369 0.100018 0.204498 0.0456223 0.152305 -0.004615 0.0455761 0.152175 0.204681 
0.0437386 0.204712 -0.0043117 0.0449817 0.204443 0.0479008 0.045826 0.204589 0.100072 
0.0452901 0.204588 0.152221 0.0436937 0.204642 0.204484 0.0899546 -0.00563873 -0.00541293 
0.0901463 -0.00618454 0.0469009 0.0903712 -0.00636076 0.0998967 0.0894023 -0.00621433 0.152936 
0.089887 -0.00568008 0.205546 0.0898309 0.0468015 -0.00594021 0.0897867 0.046889 0.206229 
0.0901692 0.099935 -0.00641809 0.0905213 0.0999853 0.206471 0.0896879 0.153279 -0.00650487 
0.0899127 0.153101 0.206434 0.0899877 0.205946 -0.00540664 0.0899043 0.206351 0.0470642 
0.0905949 0.206399 0.100079 0.0895372 0.206182 0.153015 0.0899767 0.205746 0.205623 
0.136205 -0.00496927 -0.00460242 0.134874 -0.00498927 0.0477835 0.134092 -0.00477185 0.100153 
0.134703 -0.00483879 0.152226 0.13611 -0.00499837 0.204521 0.13481 0.047741 -0.00524015 
0.134871 0.0476728 0.205266 0.13402 0.100097 -0.00505968 0.134376 0.100034 0.205071 
0.134111 0.152303 -0.00487469 0.134606 0.152232 0.204783 0.136094 0.204728 -0.00449044 
0.135208 0.204788 0.0478743 0.134483 0.204849 0.100053 0.134963 0.204952 0.152145 
0.136135 0.204742 0.204453 0.18 0 0 0.18 0 0.05 
0.18 0 0.1 0.18 0 0.15 0.18 0 0.2 
0.18 0.05 0 0.18 0.05 0.05 0.18 0.05 0.1 
0.18 0.05 0.15 0.18 0.05 0.2 0.18 0.1 0 
0.18 0.1 0.05 0.18 0.1 0.1 0.18 0.1 0.15 
0.18 0.1 0.2 0.18 0.15 0 0.18 0.15 0.05 
0.18 0.15 0.1 0.18 0.15 0.15 0.18 0.15 0.2 
0.18 0.2 0 0.18 0.2 0.05 0.18 0.2 0.1 
0.18 0.2 0.15 0.18 0.2 0.2 0 0 0.025 
0 0.025 0 0.0215507 -0.00276332 -0.00391496 0.0229739 -0.00343707 0.0227682 
0 0 0.075 0 0.025 0.025 0 0.025 0.05 
0 0.025 0.075 0.0233535 -0.00355215 0.0485267 0 0 0.125 
0 0.025 0.1 0.0232231 -0.00365125 0.0741889 0.0233591 -0.00348975 0.100076 
0.0232837 -0.00355035 0.125941 0 0 0.175 0 0.025 0.125 
0 0.025 0.15 0 0.025 0.175 0.0234215 -0.00349455 0.15152 
0 0.025 0.2 0.0230181 -0.00340378 0.177216 0.0214988 -0.00274511 0.203925 
0 0.05 0.025 0 0.075 0 0 0.075 0.025 
0.0222175 0.0230111 -0.00352446 0.0234432 0.022575 0.0227713 0.022897 0.0487005 -0.00332449 
0.0234131 0.0748222 -0.00361462 0 0.05 0.075 0 0.075 0.05 
0.0235122 0.0226102 0.0487124 0.0234543 0.048694 0.0226802 0.0238495 0.0746227 0.0224201 
0.0459106 0.0217198 0.047773 0.0463732 0.0215018 0.0738778 0.0460007 0.0478252 0.0216257 
0.0466173 0.0739338 0.0212991 0 0.05 0.125 0 0.075 0.075 
0 0.075 0.1 0 0.075 0.125 0.0236617 0.0224891 0.0743739 
0.0237858 0.0225362 0.100071 0.0238196 0.0225705 0.125761 0.0465125 0.0214165 0.0999192 
0.0467946 0.0213029 0.126261 0.0469647 0.0739151 0.047361 0 0.05 0.175 
0 0.075 0.15 0.0237214 0.0226454 0.151399 0.0235367 0.0486629 0.177295 
0.0237734 0.0745188 0.177546 0.046522 0.0214946 0.152356 0.0461433 0.0478125 0.178412 
0.0464552 0.0738839 0.178592 0 0.075 0.175 0 0.075 0.2 
0.0235087 0.0225885 0.177234 0.0222012 0.023036 0.203529 0.0229605 0.0486855 0.203331 
0.0233912 0.0747399 0.203628 0 0.1 0.025 0 0.125 0 
0.0234409 0.100221 -0.00348883 0 0.1 0.075 0 0.125 0.025 
0 0.125 0.05 0 0.125 0.075 0.0238339 0.100195 0.0226272 
0.0239141 0.125786 0.0225841 0.0469961 0.100006 0.0212222 0.0469205 0.126335 0.0213138 
0 0.1 0.125 0 0.125 0.1 0.0465882 0.047388 0.0999468 
0.0469203 0.0473934 0.126226 0.0469301 0.100027 0.0473103 0.0465146 0.10001 0.152723 
0.0470331 0.12629 0.0474129 0.046728 0.126212 0.152601 0.0466086 0.152626 0.100035 
0.046853 0.152555 0.126304 0.0900449 0.100003 0.100014 0 0.1 0.175 
0 0.125 0.125 0 0.125 0.15 0 0.125 0.175 
0.0237346 0.100114 0.177478 0.0238204 0.125719 0.177521 0.0467997 0.0475032 0.152387 
0.0465562 0.0999734 0.178695 0.0465617 0.126195 0.17863 0.0468802 0.15254 0.152442 
0 0.125 0.2 0.0233873 0.10014 0.203611 0 0.15 0.025 
0 0.175 0 0 0.175 0.025 0.0232952 0.125656 -0.00349829 
0.0232623 0.151439 -0.00321833 0.0222829 0.176961 -0.00342141 0.0234637 0.177364 0.0228164 
0 0.15 0.075 0 0.175 0.05 0.0237525 0.151376 0.0227355 
0.0235278 0.177347 0.0487535 0.0466159 0.152415 0.0215457 0.0461368 0.178401 0.0478395 
0.046472 0.178524 0.0739358 0 0.15 0.125 0 0.175 0.075 
0 0.175 0.1 0 0.175 0.125 0.0236896 0.177484 0.0743966 
0.0238094 0.177437 0.100082 0.0238293 0.177449 0.125768 0.0468712 0.152405 0.0475211 
0.046614 0.178589 0.100014 0.0468235 0.178711 0.126309 0 0.15 0.175 
0 0.175 0.15 0.0237064 0.151319 0.177412 0.0237365 0.177304 0.151396 
0.0464561 0.152281 0.178591 0.0466673 0.178579 0.152397 0 0.175 0.175 
0 0.175 0.2 0.023232 0.125592 0.203654 0.023218 0.151367 0.203362 
0.0235323 0.177334 0.177241 0.0222336 0.17691 0.2035 0 0.2 0.025 
0.0215364 0.202749 -0.00384599 0.0229704 0.203409 0.022843 0 0.2 0.075 
0.0233589 0.203521 0.0485597 0 0.2 0.125 0.0232396 0.20361 0.0742303 
0.0233811 0.203458 0.100094 0.023294 0.203548 0.125952 0 0.2 0.175 
0.0234528 0.203421 0.151533 0.0230399 0.203334 0.177189 0.0214894 0.2027 0.203905 
0.0445724 -0.00454196 0.0215671 0.0448912 0.0216852 -0.00467027 0.0668966 -0.00525355 -0.0049445 
0.0674231 0.0208367 -0.00517163 0.0454511 -0.00458075 0.0739227 0.0456861 0.0217222 0.0215239 
0.0672866 -0.00516759 0.0210532 0.0676492 -0.0052963 0.0471823 0.0678895 -0.00542472 0.073423 
0.0679401 0.0209098 0.0209647 0.0455241 -0.00460901 0.126132 0.0682027 -0.00552771 0.0999025 
0.0445771 -0.00458745 0.178527 0.0457501 0.021684 0.178528 0.0679999 -0.00561009 0.12635 
0.0674513 -0.00549492 0.15279 0.0672339 -0.00525203 0.179133 0.0679166 0.0208819 0.179195 
0.0448569 0.0216845 0.204746 0.0668035 -0.00527001 0.205139 0.0673622 0.0208519 0.205329 
0.0455009 0.0739061 -0.00466708 0.067626 0.047172 -0.00535973 0.0455051 0.0738935 0.204642 
0.0676283 0.0472384 0.205477 0.0456587 0.126146 -0.00466027 0.0680426 0.0734751 -0.00557574 
0.0680955 0.100015 -0.00567728 0.0680755 0.126439 -0.00571386 0.0456016 0.126051 0.204693 
0.0680647 0.0735622 0.205584 0.0681402 0.0999577 0.205547 0.0681322 0.12635 0.205623 
0.0450183 0.178542 -0.0046075 0.0458688 0.178456 0.0216095 0.0677793 0.153051 -0.00554679 
0.0458668 0.178385 0.178555 0.0449359 0.178405 0.20478 0.0678377 0.15284 0.205575 
0.0445156 0.204647 0.0216601 0.0674792 0.179524 -0.00518472 0.0668472 0.205627 -0.0048414 
0.0454918 0.204564 0.0740022 0.0680774 0.179351 0.0209584 0.0672816 0.205463 0.0211444 
0.0675827 0.205464 0.0473325 0.0679643 0.205461 0.0736073 0.045584 0.20463 0.12614 
0.0683387 0.205539 0.100025 0.044569 0.204623 0.178525 0.0679954 0.179211 0.179282 
0.068108 0.205633 0.126418 0.0675743 0.205511 0.152846 0.0672708 0.205336 0.179183 
0.0674188 0.179274 0.205425 0.0668312 0.205393 0.205177 0.0901266 -0.00563614 0.0205814 
0.0899768 0.0204279 -0.00567818 0.113075 -0.00526264 -0.00519263 0.11287 -0.00523584 0.0208383 
0.0902905 -0.00626168 0.0733137 0.0901847 0.0204101 0.0204834 0.0902527 0.0468929 0.0203913 
0.112535 -0.00534826 0.0471175 0.112042 0.047168 0.0206942 0.0901617 -0.00640883 0.12644 
0.0902512 0.0468818 0.0470048 0.0902518 0.0469468 0.153043 0.11232 -0.00546191 0.0734971 
0.112042 -0.00546749 0.10004 0.11223 -0.00573684 0.126508 0.111778 0.0471719 0.0471088 
0.111587 0.0471337 0.153093 0.133403 0.0474137 0.10011 0.133372 0.0474748 0.126332 
0.0898441 -0.00566535 0.179444 0.0898723 0.020427 0.179664 0.0901105 0.0469922 0.179737 
0.111953 -0.00528674 0.152903 0.111815 0.0471026 0.179496 0.0899039 0.0204209 0.205875 
0.112629 -0.00523563 0.179086 0.112969 -0.00534367 0.205106 0.090162 0.0733044 -0.00620652 
0.112627 0.0208332 -0.00535377 0.112373 0.0208768 0.0207651 0.112429 0.0470833 -0.00547278 
0.112149 0.0734399 -0.00558961 0.0902793 0.0733772 0.206357 0.112122 0.0208315 0.179272 
0.112507 0.0207578 0.205342 0.112449 0.0469961 0.205584 0.112291 0.0733907 0.205832 
0.0899924 0.126646 -0.00640663 0.090262 0.153163 0.0471292 0.111943 0.0999108 -0.00564468 
0.11162 0.153004 0.0472637 0.133463 0.100085 0.0472595 0.133475 0.126214 0.0473628 
0.0903544 0.126618 0.20643 0.0902306 0.153068 0.152973 0.0902464 0.15311 0.179711 
0.112193 0.0998428 0.205944 0.111575 0.153021 0.152783 0.111847 0.153007 0.179346 
0.133316 0.100007 0.152778 0.133326 0.0998761 0.178876 0.133231 0.126122 0.152773 
0.133455 0.126018 0.178903 0.0899592 0.179837 -0.00581187 0.090046 0.179901 0.0204462 
0.0901791 0.179836 0.0470188 0.111974 0.126589 -0.00545774 0.111807 0.152986 -0.00539625 
0.112453 0.179415 -0.00519136 0.112075 0.179362 0.0209248 0.111817 0.179455 0.0472784 
0.133643 0.152417 0.0476146 0.0897767 0.179559 0.179732 0.0899665 0.179615 0.205989 
0.11224 0.126438 0.205838 0.112206 0.152897 0.205611 0.112043 0.179346 0.179214 
0.112504 0.17928 0.205332 0.133842 0.152271 0.178663 0.0900334 0.205989 0.0206595 
0.113094 0.205565 -0.00492174 0.11284 0.205441 0.0210785 0.090321 0.206362 0.0735013 
0.112413 0.205562 0.0472011 0.0902507 0.206373 0.126564 0.112429 0.205714 0.0735927 
0.112363 0.205859 0.100071 0.112254 0.205609 0.12657 0.133761 0.152617 0.100022 
0.133973 0.178675 0.100032 0.0898308 0.205732 0.179511 0.111964 0.20531 0.152935 
0.112619 0.205297 0.179075 0.113047 0.205408 0.205073 0.135493 -0.00495871 0.0213543 
0.135225 0.021361 -0.00507543 0.158578 -0.0029119 -0.00416936 0.15787 0.0228198 -0.00384924 
0.134428 -0.00492602 0.0739632 0.134494 0.0213534 0.0211539 0.134092 0.0475693 0.0211795 
0.15705 -0.00355733 0.0225951 0.156605 -0.00358889 0.0483671 0.156797 -0.00378013 0.0740516 
0.156599 0.0223932 0.0224352 0.156421 0.0224717 0.0483208 0.156362 0.0222735 0.0742099 
0.156329 0.04842 0.0483276 0.156206 0.0482812 0.0742171 0.134363 -0.00491357 0.126259 
0.133741 0.047565 0.0475171 0.156693 -0.00368326 0.100046 0.156264 0.0222122 0.10002 
0.156103 0.0480358 0.100001 0.156114 0.0479378 0.125693 0.135365 -0.00492277 0.178585 
0.13437 0.0213458 0.178848 0.133987 0.0475125 0.178845 0.15681 -0.00385857 0.125994 
0.156551 -0.00355496 0.151632 0.157008 -0.00355071 0.177347 0.15632 0.0221981 0.125807 
0.156352 0.0224883 0.151655 0.156559 0.0223902 0.177511 0.156225 0.0484242 0.15163 
0.135165 0.0212831 0.205035 0.158522 -0.00293623 0.204079 0.157832 0.022782 0.203774 
0.134408 0.0739523 -0.005174 0.156976 0.0485103 -0.0036306 0.156444 0.0485137 0.0223074 
0.156329 0.0743048 0.0223232 0.13458 0.0738892 0.20521 0.156396 0.048476 0.17759 
0.156974 0.0484537 0.20353 0.156292 0.0742804 0.177521 0.134088 0.126347 -0.00496717 
0.156789 0.074454 -0.00388447 0.156499 0.0999377 -0.00379757 0.156218 0.0999598 0.0220732 
0.156176 0.100094 0.0479361 0.15651 0.12541 -0.00389193 0.156235 0.125702 0.0219334 
0.156124 0.125731 0.0476827 0.134548 0.126238 0.204947 0.156799 0.0744684 0.203703 
0.156301 0.100051 0.177543 0.15657 0.0998814 0.203643 0.15617 0.125504 0.177733 
0.156607 0.125252 0.203767 0.134945 0.178492 -0.00479381 0.134287 0.178494 0.021369 
0.133979 0.178593 0.0476673 0.156899 0.151485 -0.00364234 0.156454 0.151566 0.0222211 
0.156333 0.151587 0.0480803 0.134269 0.178504 0.178641 0.135068 0.178462 0.204834 
0.156437 0.151347 0.177502 0.157034 0.151314 0.203498 0.135543 0.204731 0.0215127 
0.157734 0.177144 -0.00382525 0.158476 0.202833 -0.00419 0.134756 0.204863 0.0739976 
0.156609 0.177559 0.022403 0.156435 0.177534 0.0482533 0.156376 0.177496 0.0740723 
0.157103 0.203552 0.0225034 0.156722 0.203722 0.0483524 0.156845 0.203686 0.0740156 
0.134674 0.205061 0.126009 0.156618 0.177342 0.100004 0.156823 0.2035 0.100024 
0.135449 0.204726 0.178509 0.156373 0.177286 0.125876 0.156437 0.17733 0.151751 
0.156533 0.177457 0.177504 0.156777 0.203504 0.12604 0.156611 0.203496 0.151602 
0.157022 0.203436 0.177402 0.157756 0.177025 0.203746 0.15849 0.20276 0.204109 
0.18 0 0.025 0.18 0.025 0 0.18 0 0.075 
0.18 0.025 0.025 0.18 0.025 0.05 0.18 0.025 0.075 
0.18 0 0.125 0.18 0.025 0.1 0.18 0 0.175 
0.18 0.025 0.125 0.18 0.025 0.15 0.18 0.025 0.175 
0.18 0.025 0.2 0.18 0.05 0.025 0.18 0.075 0 
0.18 0.075 0.025 0.18 0.05 0.075 0.18 0.075 0.05 
0.18 0.05 0.125 0.18 0.075 0.075 0.18 0.075 0.1 
0.18 0.075 0.125 0.18 0.05 0.175 0.18 0.075 0.15 
0.18 0.075 0.175 0.18 0.075 0.2 0.18 0.1 0.025 
0.18 0.125 0 0.18 0.1 0.075 0.18 0.125 0.025 
0.18 0.125 0.05 0.18 0.125 0.075 0.18 0.1 0.125 
0.18 0.125 0.1 0.18 0.1 0.175 0.18 0.125 0.125 
0.18 0.125 0.15 0.18 0.125 0.175 0.18 0.125 0.2 
0.18 0.15 0.025 0.18 0.175 0 0.18 0.175 0.025 
0.18 0.15 0.075 0.18 0.175 0.05 0.18 0.15 0.125 
0.18 0.175 0.075 0.18 0.175 0.1 0.18 0.175 0.125 
0.18 0.15 0.175 0.18 0.175 0.15 0.18 0.175 0.175 
0.18 0.175 0.2 0.18 0.2 0.025 0.18 0.2 0.075 
0.18 0.2 0.125 0.18 0.2 0.175 0.150254 0.203931 0.0129239 
0.165529 0.184999 -0.00324629 0.0747507 -0.00552822 0.170507 0.164504 0.203012 0.0318789 
0.18 0.183333 0.0166667 0.164348 0.185461 0.0145194 0 0.0333333 0.0333333 
0.18 0.0666667 0.166667 0 0.0666667 0.0666667 0.0606982 0.205196 0.0825192 
0.18 0.116667 0.116667 0.14835 0.0998704 0.152219 0.0595473 0.205253 0.0126397 
0.0748452 0.18846 -0.00524653 0.18 0.133333 0.166667 0.149445 0.0655713 0.204285 
0.164065 0.0660414 0.185473 0.0298077 -0.00379225 0.0131876 0.014511 0.0150578 -0.00302517 
0.0755395 0.0822097 -0.0058887 0.119998 0.029742 -0.00527954 0.074815 0.0119272 -0.0052368 
0.0595781 -0.00497124 0.0125334 0.0308082 0.204046 0.117331 0.015934 0.0318065 0.0319418 
0.0600937 0.0298436 -0.00504175 0.0601001 0.0124033 0.012445 0 0.133333 0.0333333 
0.164042 0.0829865 0.185572 0.18 0.0833333 0.183333 0.164366 0.0829145 0.203038 
0.0302034 0.168934 -0.00391316 0 0.0166667 0.0166667 0.0156927 0.0146192 0.0147452 
0.0155598 -0.00288219 0.0320796 0.0158604 0.014519 0.0319624 0.0749 0.205685 0.0296919 
0.0751145 0.188303 0.0120896 0.0318059 0.0656037 0.0479592 0.18 0.166667 0.166667 
0.0313334 0.0308935 0.0828234 0 0.116667 0.0166667 0.0156781 0.117149 -0.0029019 
0 0.0333333 0.166667 0.119631 0.170355 -0.00508809 0.133561 0.152365 0.135045 
0.0752799 -0.00586767 0.135171 0.149936 0.168917 0.204214 0.120382 0.205107 0.187573 
0.105129 0.18819 0.205404 0.0753677 0.188295 0.0295907 0.0306357 0.065711 -0.00410345 
0.0157076 0.049064 0.0147164 0.0301362 0.168859 0.204015 0 0.166667 0.0333333 
0.0155975 -0.00282728 0.167918 0 0.0166667 0.183333 0.0159028 0.0145603 0.168024 
0.18 0.0833333 0.0833333 0.0304729 0.18632 0.0133957 0.0297629 0.203804 0.0132746 
0.014549 0.184903 -0.00295441 0.0157049 0.185327 0.0147991 0.0155756 0.20282 0.0321248 
0.0158758 0.185397 0.032004 0 0.183333 0.0166667 0 0.133333 0.166667 
0.0159431 0.151004 0.0147776 0.0159604 0.168105 0.031966 0.030969 0.169059 0.0135969 
0 0.166667 0.166667 0 0.0666667 0.0333333 0.0159486 0.0662607 0.0144991 
0 0.0833333 0.0166667 0.0159922 0.0832576 0.0144728 0.0159936 0.100165 0.0145651 
0.0156895 0.0832005 -0.00293939 0 0.116667 0.183333 0.0156223 0.117118 0.203065 
0.0749689 -0.00541579 0.0295771 0.0753626 0.0119411 0.0295459 0.0750935 0.0120008 0.0121062 
0.0145198 0.184863 0.202972 0.0304915 0.186278 0.186696 0.0297718 0.203746 0.186811 
0.119587 0.13522 0.205491 0 0.166667 0.0666667 0.0159124 0.185424 0.0490409 
0 0.183333 0.0833333 0.0158906 0.185656 0.0660693 0.0155827 0.203033 0.0658428 
0.163946 0.116905 0.168443 0 0.0166667 0.0833333 0.0155694 -0.0030701 0.0658097 
0.061572 0.170416 0.117559 0.0307817 0.134404 0.204161 0.0159582 0.133936 0.185498 
0.0159475 0.117038 0.185608 0.0307724 -0.00411886 0.0828234 0.01593 0.0144183 0.083049 
0.0306693 0.0656542 0.204121 0 0.183333 0.116667 0.0159761 0.18546 0.1171 
0.015646 0.202885 0.134281 0 0.166667 0.133333 0.0159603 0.185511 0.134051 
0.0160571 0.168273 0.133963 0.0159767 0.185311 0.151029 0.0463339 0.0127734 0.082622 
0.0606206 -0.00518983 0.0823829 0.0312867 0.0133706 0.0828093 0.0308033 0.134501 -0.00401055 
0.0159926 0.13397 0.0146464 0.0159901 0.117073 0.0145337 0.0309642 0.169 0.1865 
0.0159228 0.150973 0.185337 0.0313153 0.16898 0.169156 0.0159952 0.168084 0.168074 
0 0.183333 0.183333 0.0157372 0.18527 0.185198 0.0156254 0.202739 0.167906 
0.0159239 0.185342 0.168017 0.0159737 0.031818 0.168056 0.0157597 0.0490361 0.185264 
0.0157212 0.0146609 0.185218 0.0144978 0.0150848 0.203 0.0297872 -0.00378115 0.186833 
0.164085 0.185358 0.151185 0.18 0.166667 0.133333 0.0318315 0.152181 0.117398 
0 0.116667 0.116667 0.0318539 0.134884 0.134774 0.14914 0.169048 0.186746 
0.164086 0.168185 0.168364 0.0300098 0.0311599 -0.00401196 0.0308081 0.0310186 0.0135008 
0.0452712 0.0130107 0.0127236 0.0304274 0.0136944 0.0133007 0.120336 -0.00510619 0.187625 
0.1051 0.0118905 0.205373 0.133521 0.10007 0.0298918 0.0159383 0.0661824 0.185525 
0.0160183 0.0831437 0.168326 0 0.0666667 0.166667 0.164359 0.0829276 -0.00316474 
0.18 0.0833333 0.0166667 0.0465057 0.08273 0.0125376 0.0318766 0.0828768 0.0305607 
0.0160847 0.0832132 0.0316923 0.0459466 0.187069 0.0478555 0.075377 0.205798 0.064725 
0.0605407 0.0648664 0.205262 0.0312217 0.065657 0.186652 0 0.0333333 0.0666667 
0.0159654 0.0316579 0.066189 0.0159032 0.0145341 0.0490158 0.0158844 0.0143197 0.0660515 
0.18 0.0333333 0.133333 0.18 0.183333 0.0833333 0.164458 0.203055 0.0656428 
0.0307926 -0.00404889 0.117324 0.015961 0.0145665 0.100076 0.0595213 -0.00502194 0.187645 
0.0750091 0.011978 0.188101 0.074743 0.0119128 0.205435 0.0159589 0.0146316 0.151022 
0 0.0333333 0.133333 0.0600684 0.0123683 0.187712 0.060048 0.0298715 0.20517 
0.0461893 0.0652211 0.187253 0.0463609 0.0826524 0.187315 0.0755865 0.0823091 0.205889 
0.0460167 0.0478169 0.187122 0.0605357 0.0298864 0.187744 0.0312041 0.0310052 0.169123 
0.14875 0.169176 0.0652525 0.164436 0.202877 0.16804 0.18 0.183333 0.183333 
0.164143 0.18549 0.168222 0.119749 0.0297664 0.0121253 0.119656 0.0647857 -0.00543559 
0 0.0833333 0.183333 0.0156517 0.0831077 0.203029 0.0159516 0.10011 0.185569 
0.0159626 0.0831871 0.185594 0.0747932 0.188206 0.205535 0.0595334 0.205124 0.187683 
0 0.0166667 0.116667 0.0159694 0.0145471 0.117096 0.0156366 -0.00289175 0.134268 
0.0159541 0.0145002 0.134043 0.10522 0.0119578 -0.00538585 0.120511 -0.00509656 0.0122709 
0.120069 0.0122665 0.0122131 0.133825 0.169842 0.065089 0.133738 0.152402 0.0650452 
0.134077 0.187377 0.100037 0.104973 -0.00566073 0.0645775 0.0464389 0.012751 0.117445 
0.0464027 0.0127553 0.100027 0.0313648 0.013423 0.117327 0.0606617 -0.00526611 0.117481 
0.0611322 0.0649233 0.187891 0.0609777 0.0298341 0.170247 0.0751928 0.011909 0.170574 
0.0461038 0.0303638 0.169727 0.0615335 0.0649139 0.152866 0.0612484 0.0474172 0.170363 
0.0615012 0.0649023 0.170424 0.0314442 0.0827411 0.169167 0.0318585 0.0651588 0.134706 
0 0.0833333 0.116667 0.0615685 0.0295753 0.117467 0.0318341 0.0478298 0.117312 
0.0613743 0.0121009 0.117441 0.0316568 0.0480885 0.151844 0.0319163 0.0478453 0.134564 
0 0.0666667 0.133333 0.0317801 0.0306814 0.134671 0.0462077 0.0127978 0.152298 
0.0464671 0.0126633 0.134911 0.0160575 0.0317437 0.133966 0.133805 0.134836 0.187468 
0.104927 0.117669 0.206101 0.133597 0.117296 0.187682 0.119005 0.135166 0.188053 
0.18 0.116667 0.183333 0.164029 0.09992 0.185575 0.164033 0.11685 0.185706 
0.164355 0.116889 0.203114 0.150056 0.0308617 0.20433 0.149559 0.0133877 0.186947 
0.165545 0.0149286 0.203161 0.150225 -0.00402767 0.186981 0.119858 0.187781 0.187696 
0.134698 0.187153 0.187417 0.119843 0.170298 0.205226 0.164053 0.133815 0.185602 
0.149366 0.13438 0.204288 0.148752 0.13439 0.186825 0.164234 0.150951 0.185412 
0.149222 0.0307194 0.186808 0.164165 0.048897 0.185449 0.164312 0.0145093 0.185373 
0.18 0.0166667 0.183333 0.164426 -0.0029197 0.168004 0.164123 0.0144608 0.168179 
0.18 0.0333333 0.166667 0.164078 0.0317333 0.168321 0.164053 0.0145354 0.151151 
0.0747971 0.205588 0.170554 0.0750474 0.188119 0.188208 0.0462517 0.15222 0.187267 
0.0160463 0.133907 0.1683 0.0315079 0.134567 0.169191 0.0614969 0.152674 0.17045 
0.0615695 0.152656 0.152861 0.0614906 0.135085 0.152846 0.0606243 0.135047 0.205287 
0.0464336 0.134841 0.18733 0.0313326 0.117297 0.18666 0.0755861 0.11763 0.205856 
0.0463762 0.117402 0.187257 0.046414 0.100009 0.1873 0.0615465 0.117536 0.170503 
0.0315333 0.117418 0.152074 0.0613844 0.117534 0.187913 0.0313285 0.100014 0.15216 
0.0319211 0.152205 0.134651 0 0.133333 0.133333 0.0317858 0.169349 0.134696 
0.0317401 0.151984 0.151932 0.104832 0.188106 0.188074 0.0898906 0.188341 0.188411 
0.104858 0.205425 0.170541 0.0601522 0.170238 0.205263 0.0453348 0.187068 0.187364 
0.0606826 0.170228 0.187835 0.0601214 0.187752 0.18779 0.0453611 0.187154 0.0128188 
0.0602117 0.17046 -0.00508641 0.0601709 0.18789 0.0124901 0.104964 0.0821328 0.206057 
0.104628 0.0470091 0.188395 0.0901637 0.0469771 0.188625 0.119938 0.0296421 0.205293 
0.134753 0.012642 0.187596 0.119896 0.0122338 0.187752 0.119167 0.0296765 0.170468 
0.104756 -0.00571631 0.135384 0.104676 0.0646556 0.188452 0.104479 0.0293369 0.153167 
0.0901554 0.0292175 0.153065 0.07522 0.188134 0.170655 0.0612275 0.170206 0.170393 
0.0463146 0.187232 0.152324 0.0463087 0.169709 0.169806 0.0313877 0.186591 0.117332 
0.0464871 0.187236 0.100081 0.0607585 0.205294 0.117545 0.148928 0.186621 0.0826783 
0.149394 0.204154 0.0827304 0.164108 0.18554 0.082857 0.0613248 0.135145 0.135188 
0.119068 0.170442 0.152686 0.104482 0.170735 0.13524 0.119714 0.205497 0.117618 
0.133958 0.152275 0.187326 0.148857 0.16907 0.169414 0.119395 0.170276 0.187852 
0.133977 0.169795 0.169947 0.104478 0.188084 0.170651 0.104544 0.153115 0.188352 
0.0901669 0.153106 0.188606 0.0753397 -0.0056904 0.0645582 0.0458335 0.0130012 0.0477754 
0.046077 0.0128292 0.0651909 0.150291 -0.00402768 0.0129334 0.165582 0.0149577 -0.00322286 
0.0307951 0.204068 0.0828657 0.0159744 0.185408 0.100084 0.0313333 0.186589 0.0828427 
0.0159455 0.185535 0.0830689 0.118758 0.0648284 0.152972 0.133601 0.099918 0.187565 
0.104544 0.064702 0.170813 0.148637 0.0305276 0.134615 0.119482 -0.00536826 0.117672 
0.133604 0.03009 0.134982 0.133529 0.0650022 0.152566 0.119084 0.0296509 0.152949 
0.148598 0.0653676 0.169361 0.148765 0.0827906 0.186794 0.148721 0.0480841 0.169371 
0.163997 0.0659424 0.168311 0.148838 0.0307492 0.16943 0.0464339 0.187218 0.0826942 
0.0461593 0.187201 0.0652548 0.0159823 0.168328 0.066207 0.149361 0.204121 0.11732 
0.164206 0.185429 0.100006 0.148937 0.186571 0.117306 0.0902262 0.170812 0.153073 
0.104707 0.205771 0.135425 0.104594 0.17075 0.152985 0.104605 0.170697 0.170658 
0.164388 0.202826 0.1344 0.164044 0.18537 0.134153 0.18 0.183333 0.116667 
0.164085 0.185386 0.117161 0.148215 0.117302 0.135035 0.118725 0.135248 0.135162 
0.118798 0.152835 0.135146 0.16405 0.0829815 0.014239 0.149409 0.0656162 -0.00441516 
0.118918 0.152857 0.0649253 0.148432 0.117345 0.0649935 0.148929 0.152051 0.100018 
0.134699 0.187186 0.0126138 0.149825 0.169033 -0.0042804 0.149095 0.169181 0.0131477 
0.149591 0.186475 0.0129963 0.0300196 0.0311619 0.204022 0.0452743 0.0129934 0.187345 
0.0308579 0.0310126 0.186498 0.0304529 0.0136956 0.186714 0.0617371 0.117603 0.0295242 
0.164196 0.185617 0.0317405 0.18 0.166667 0.0333333 0.164113 0.168323 0.0315965 
0.149623 0.0134017 0.0129826 0.134862 0.0126628 0.012363 0.150081 0.0309131 -0.00439766 
0.119803 0.20551 0.0825024 0.148108 0.117076 0.152458 0.14825 0.117035 0.169598 
0.18 0.133333 0.133333 0.061444 0.135255 0.0648619 0.118854 0.135261 0.0648686 
0.0900719 0.135036 0.100006 0.148748 0.134639 0.012917 0.14911 0.13455 -0.00444092 
0.164254 0.151106 0.0143779 0.164064 0.133937 0.0141369 0.18 0.133333 0.0333333 
0.13427 0.187306 0.0476876 0.11906 0.170406 0.0298557 0.119324 0.17034 0.0123548 
0.119451 0.187964 0.0474132 0.118708 0.0648446 0.135375 0.0899962 0.100016 0.13507 
0.0613334 0.0648792 0.135188 0.149547 0.186391 0.18691 0.150217 0.203847 0.187008 
0.164304 0.185361 0.185406 0.165505 0.184915 0.203171 0.164115 0.185628 0.0658356 
0.16413 0.185536 0.0487928 0.18 0.166667 0.0666667 0.104707 0.188389 0.047135 
0.104975 0.205896 0.0646682 0.119897 0.187843 0.0124539 0.105144 0.188368 -0.0052435 
0.120505 0.205212 0.0125418 0.0313653 0.0479723 0.0999124 0.0615692 0.047185 0.0648532 
0.164045 0.168347 0.0657605 0.164109 0.151176 0.0484717 0.148845 0.16924 0.0305282 
0.148788 0.169231 0.0479315 0.148448 0.0652015 0.117429 0.133415 0.0300011 0.117511 
0.164008 0.0314415 0.134146 0.18 0.0666667 0.133333 0.163972 0.0487671 0.15124 
0.163942 0.0485476 0.13415 0.104772 0.188335 0.0295706 0.0900119 0.188622 0.0117857 
0.10494 0.188256 0.0120922 0.105164 0.205691 0.0296139 0.164046 0.168064 0.134231 
0.133749 0.152372 0.169975 0.14823 0.134428 0.152304 0.13345 0.152446 0.152562 
0.0461682 0.16976 0.0303731 0.031241 0.169013 0.0309556 0.0607299 0.170376 0.0123583 
0.0610638 0.170324 0.0298432 0.0902491 0.188727 0.0470179 0.0611297 0.18783 0.0649478 
0.0461943 0.0652234 0.0127149 0.0312197 0.0657174 0.0133267 0.0605259 0.0648123 -0.00525964 
0.0606558 0.135193 -0.0053405 0.0314364 0.117384 0.0134188 0.0616111 0.152917 0.0649161 
0.0314092 0.15208 0.100004 0.0613169 0.170395 0.0474072 0.0615391 0.170424 0.0649177 
0.0314257 0.169122 0.0828372 0.0318972 0.134679 0.0651637 0.0319237 0.117363 0.0478526 
0 0.116667 0.0833333 0.0316909 0.151839 0.0481472 0.0319602 0.134579 0.047868 
0 0.133333 0.0666667 0.0466329 0.134948 0.0126531 0.046363 0.152339 0.0128399 
0.0318525 0.13468 0.0307025 0.016104 0.133963 0.0317889 0 0.0833333 0.0833333 
0.031877 0.0827638 0.0650396 0.0318893 0.100116 0.0477512 0.0319698 0.0829384 0.0476894 
0.119272 0.135313 -0.00526725 0.133622 0.15244 0.0301616 0.148571 0.134669 0.0303036 
0.163938 0.134087 0.0482399 0.163965 0.116947 0.0311452 0.18 0.133333 0.0666667 
0.163939 0.0486179 0.0829182 0.104876 -0.005414 0.170525 0.0898945 0.0116929 0.188339 
0.104565 0.0119055 0.17062 0.104879 0.0119859 0.188045 0.0466561 0.100102 0.0126319 
0.0754691 0.117681 -0.00595899 0.0614926 0.117565 0.0120052 0.0465529 0.117509 0.0127134 
0.104638 0.117735 -0.00576301 0.133478 0.117464 0.0297859 0.118778 0.135274 0.029693 
0.133499 0.134999 0.0299815 0.061557 0.0647594 0.0648519 0.0901218 0.100011 0.0649674 
0.118869 0.0648676 0.064782 0.090106 0.064978 0.100043 0.133524 0.065046 0.0649468 
0.133465 0.0300893 0.100097 0.0459259 0.0478304 0.0128835 0.045894 0.0304187 0.0303467 
0.0605126 0.0298948 0.0123871 0.0310761 0.0310219 0.0309037 0.0901074 0.0117182 0.0117961 
0.105283 -0.00545077 0.0294634 0.105092 0.0120196 0.0119464 0.163942 0.117002 0.0482027 
0.163906 0.117085 0.0653006 0.18 0.116667 0.0833333 0.18 0.0666667 0.0333333 
0.164083 0.0660797 0.0143972 0.104581 0.170787 0.0648752 0.0901592 0.153237 0.0293231 
0.104309 0.153142 0.0294759 0.104701 0.188418 0.064798 0.18 0.0333333 0.0333333 
0.119496 0.0472767 0.0120633 0.119467 0.029739 0.0296302 0.104999 0.0119416 0.0294104 
0.0753952 0.205888 0.135263 0.0465241 0.187364 0.134935 0.0614543 0.187936 0.117555 
0.0464903 0.187279 0.117486 0.0610124 0.012233 0.0648261 0.0613703 0.0472035 0.0473374 
0.134223 0.0476215 0.0123391 0.148713 0.0827681 0.0130064 0.18 0.0166667 0.0833333 
0.164429 -0.00304776 0.065633 0.119602 0.0297128 0.187922 0.134163 0.047549 0.187682 
0.119783 0.0646941 0.205561 0.11938 0.0472045 0.188053 0.18 0.0333333 0.0666667 
0.164078 0.0145325 0.0488451 0.164079 0.0143339 0.0658873 0.148642 0.0305401 0.0827378 
0.148464 0.065218 0.0653273 0.163913 0.0658455 0.0658187 0.148551 0.0653649 0.0479415 
0.14867 0.0654264 0.0305436 0.163949 0.0999672 0.0483897 0.164424 -0.00310621 0.134377 
0.18 0.0166667 0.116667 0.164074 0.0142525 0.134119 0.0610134 0.0473207 0.0298009 
0.0608206 0.0298426 0.0298816 0.0610617 0.0648711 0.01216 0.119316 0.0296935 0.0472012 
0.119075 0.0297314 0.0647761 0.134011 0.0300691 0.0475396 0.11957 -0.00529547 0.0824879 
0.104703 0.0294139 0.0469875 0.0902531 0.0291643 0.0469267 0.104514 0.0646646 0.0294035 
0.104732 0.0646621 0.011784 0.0901926 0.0468926 0.0115843 0.104784 0.0470454 0.0118022 
0.104768 0.0821936 -0.00578233 0.163952 0.0483709 0.116969 0.163924 0.0484346 0.0999291 
0.18 0.0833333 0.116667 0.163889 0.0654108 0.116996 0.149228 -0.00433261 0.08277 
0.1641 0.0142943 0.0829109 0.148826 0.0130706 0.0827634 0.16409 0.0142362 0.117111 
0.16412 0.0143542 0.100026 0.148755 0.0130288 0.117314 0.149242 -0.00438194 0.117344 
0.164031 0.065965 0.0315862 0.148811 0.0481288 0.0305595 0.18 0.116667 0.0166667 
0.164019 0.0999269 0.0141941 0.164334 0.116969 -0.00323437 0.164028 0.116884 0.0140486 
0.163973 0.0487502 0.0658586 0.164037 0.0487897 0.048718 0.16401 0.0315661 0.0658679 
0.18 0.0666667 0.0666667 0.149261 0.0307506 0.0131181 0.148932 0.0307615 0.0305091 
0.164181 0.048933 0.0144418 0.164108 0.0317379 0.031625 0.18 0.0166667 0.0166667 
0.164452 -0.00294515 0.0319688 0.164332 0.0145186 0.0145832 0.164147 0.0144415 0.0317949 
0.157297 0.190271 0.00909045 0.0787043 0.00748644 0.179389 0.168125 0.189458 0.023641 
0.133419 0.0737524 0.139592 0.012019 0.0235446 0.0365057 0.167951 0.0619141 0.176516 
0.0241663 0.0744631 0.0481523 0.0463409 0.191572 0.0870391 0.0468515 0.139348 0.152608 
0.155878 0.112752 0.139163 0.0674415 0.192508 0.00799538 0.167926 0.125266 0.176655 
0.156427 0.074345 0.190593 0.0227429 0.00984105 0.00936107 0.0574145 0.0737012 0.00783877 
0.123622 0.0211046 0.00784914 0.067414 0.00782716 0.00796093 0.0236562 0.190441 0.112945 
0.0687598 0.152824 0.139639 0.0234998 0.0357146 0.0227027 0.056559 0.0212815 0.00812845 
0.0120977 0.138046 0.0236009 0.167993 0.0872373 0.189463 0.0343603 0.177833 0.00890129 
0.122526 0.0737282 0.0472044 0.0119195 0.0106378 0.0238169 0.0788531 0.192757 0.0207895 
0.156213 0.0351212 0.12579 0.0466721 0.0476192 0.0607408 0.167993 0.176445 0.163683 
0.0350564 0.0220195 0.0742036 0.0570143 0.0212614 0.0343539 0.0120235 0.112796 0.0106249 
0.133615 0.165517 0.139363 0.0120469 0.0235747 0.163484 0.123323 0.178935 0.00809045 
0.122603 0.165913 0.12632 0.0575368 0.00788551 0.126253 0.145727 0.177849 0.191412 
0.112528 0.192311 0.192179 0.0571895 0.178909 0.0343948 0.0234878 0.061642 0.0095172 
0.0343356 0.177766 0.19121 0.0470242 0.113151 0.0342369 0.0120342 0.176377 0.0365289 
0.0119457 0.0106817 0.176157 0.167863 0.061724 0.0745128 0.0227565 0.190134 0.00944239 
0.0119345 0.189297 0.0238595 0.0120743 0.138021 0.17651 0.0462411 0.165314 0.178543 
0.0236467 0.164293 0.0227607 0.0120641 0.176339 0.163489 0.0120912 0.0748191 0.02346 
0.012026 0.0874776 0.0105904 0.0119886 0.112771 0.189504 0.0788898 0.00753414 0.0207565 
0.0227593 0.190081 0.190595 0.13394 0.139208 0.191798 0.0120287 0.176587 0.0620266 
0.0119641 0.189524 0.074617 0.144619 0.112816 0.17842 0.0119558 0.0104449 0.0745976 
0.0467892 0.165682 0.113097 0.0236378 0.125663 0.190573 0.0236185 0.00947742 0.0872284 
0.0235122 0.0615779 0.190489 0.0353786 0.178124 0.139005 0.0120042 0.189403 0.125513 
0.0120739 0.176483 0.138074 0.0462571 0.00840916 0.0869728 0.023681 0.125733 0.00957297 
0.0236614 0.164263 0.177311 0.0119643 0.189241 0.17614 0.0235574 0.0357022 0.177282 
0.0227445 0.00986616 0.190622 0.122746 0.152695 0.179084 0.167939 0.17637 0.138212 
0.024148 0.139004 0.125878 0.15648 0.164313 0.177566 0.03423 0.022248 0.00880128 
0.112536 0.00775269 0.192192 0.0352228 0.087087 0.178052 0.144604 0.11304 0.0474995 
0.0120697 0.0747542 0.176583 0.167996 0.0872508 0.0103884 0.03548 0.0872055 0.0217824 
0.0572095 0.191997 0.0606187 0.0460582 0.0608618 0.19159 0.0120232 0.023391 0.0620112 
0.16796 0.0233274 0.13817 0.16805 0.189496 0.0744249 0.133713 0.165496 0.0476066 
0.0236442 0.0095592 0.11294 0.0673463 0.00779176 0.192233 0.012071 0.0235216 0.138068 
0.0565411 0.0212679 0.191997 0.0573935 0.0737321 0.192127 0.0460396 0.0347512 0.178456 
0.1451 0.178079 0.0609032 0.168085 0.189365 0.176306 0.123271 0.0473618 0.00775601 
0.0119987 0.0874173 0.189495 0.0673833 0.19233 0.192322 0.0120009 0.0106065 0.12551 
0.112716 0.00779141 0.00774704 0.122548 0.152751 0.047394 0.122711 0.165925 0.0737528 
0.112078 0.0207935 0.0470733 0.0463215 0.00840676 0.113094 0.0684509 0.0472483 0.179315 
0.0571971 0.021187 0.165749 0.0687605 0.047183 0.139617 0.04677 0.0738083 0.152599 
0.0466031 0.0607768 0.165509 0.0241589 0.0610419 0.125805 0.0467676 0.0343319 0.112987 
0.0241141 0.0482594 0.138634 0.0353456 0.0219087 0.138994 0.122708 0.126305 0.192362 
0.167999 0.112589 0.189548 0.1458 0.0219215 0.191519 0.157284 0.00964099 0.190811 
0.123387 0.178889 0.192046 0.15648 0.138427 0.190615 0.156471 0.0355134 0.177576 
0.168077 0.0105866 0.176263 0.167974 0.0235077 0.163634 0.0787271 0.192577 0.17948 
0.0352544 0.138884 0.178066 0.0466985 0.152362 0.165577 0.0688271 0.139533 0.166182 
0.046279 0.126102 0.191647 0.0575412 0.11312 0.192095 0.0466313 0.113116 0.165666 
0.0241236 0.151776 0.138714 0.101006 0.192501 0.17941 0.0566308 0.178849 0.192074 
0.0566922 0.178995 0.00814884 0.111888 0.033938 0.179422 0.101093 0.0601971 0.192899 
0.123495 0.0210512 0.192144 0.111811 0.0207298 0.153038 0.100944 0.0469956 0.166416 
0.0573729 0.178873 0.165826 0.0463801 0.191613 0.113127 0.156521 0.19049 0.0870849 
0.0900239 0.12634 0.126335 0.11186 0.179394 0.139643 0.133987 0.165374 0.178674 
0.100908 0.166351 0.179554 0.0571155 0.00806737 0.0605128 0.157328 0.00965824 0.00911932 
0.0236456 0.190473 0.0872524 0.122508 0.0736455 0.166073 0.133658 0.0213232 0.126244 
0.13357 0.0475343 0.152539 0.144969 0.0609617 0.178298 0.156284 0.0484032 0.164599 
0.0351193 0.177976 0.0742372 0.156517 0.190415 0.112936 0.100976 0.17956 0.153048 
0.168006 0.189303 0.125604 0.156468 0.164487 0.0223261 0.133454 0.139444 0.126288 
0.156418 0.0743596 0.00921965 0.156234 0.138719 0.0349586 0.133605 0.139451 0.0737554 
0.145696 0.177951 0.00852065 0.0342509 0.0222473 0.191217 0.0688751 0.139752 0.0471737 
0.168022 0.176561 0.0362982 0.145857 0.021951 0.00841639 0.112095 0.192596 0.0604465 
0.155886 0.125547 0.151984 0.0901055 0.126367 0.0736813 0.156439 0.138613 0.00912565 
0.16795 0.125319 0.0230792 0.122989 0.179033 0.0343498 0.0900278 0.0736898 0.126408 
0.157261 0.190175 0.190824 0.167982 0.176587 0.0617766 0.101118 0.192868 0.0470928 
0.112599 0.192433 0.0079702 0.0467758 0.060596 0.0737193 0.156358 0.164516 0.0481812 
0.144597 0.0477216 0.11306 0.167902 0.0488716 0.138243 0.101225 0.192751 0.0207719 
0.144707 0.151963 0.152265 0.0462155 0.165397 0.0216012 0.0685201 0.179354 0.0472565 
0.0460306 0.0608714 0.00838931 0.04643 0.126209 0.00833954 0.0468121 0.152581 0.0738164 
0.046621 0.165495 0.0608005 0.0241867 0.125803 0.0610602 0.0241409 0.138627 0.0482857 
0.0354641 0.138992 0.0219299 0.0241854 0.0872842 0.0609235 0.133601 0.139396 0.0213166 
0.167892 0.125414 0.0485365 0.156222 0.0351785 0.087103 0.101061 0.007519 0.179383 
0.0576499 0.113176 0.00782021 0.122459 0.12642 0.0209522 0.0901784 0.0736562 0.0736751 
0.133489 0.0475034 0.073808 0.0459077 0.0347794 0.0215969 0.10139 0.00753205 0.0206417 
0.167875 0.112703 0.0612885 0.167964 0.0619433 0.0233818 0.100898 0.166459 0.0471614 
0.16799 0.0235005 0.036342 0.112156 0.0339918 0.0207043 0.057599 0.192149 0.126319 
0.068501 0.0339184 0.0471916 0.145026 0.0610237 0.0216233 0.168037 0.0104518 0.0744478 
0.123215 0.0472843 0.192321 0.167957 0.0234113 0.0618418 0.144812 0.0478218 0.0609292 
0.156153 0.0742138 0.0482013 0.16804 0.010386 0.125554 0.0683285 0.0471637 0.0208429 
0.122962 0.0210346 0.0604678 0.101042 0.0469784 0.0337574 0.101108 0.0601973 0.00733354 
0.167862 0.0613742 0.112633 0.156457 0.00925068 0.0871461 0.156435 0.00920615 0.112924 
0.156354 0.0484307 0.0353209 0.168004 0.112623 0.01028 0.167907 0.0489828 0.0617577 
0.156518 0.0355383 0.0223403 0.168091 0.0105755 0.02371 

CELLS 236 3776
15 69 93 88 68 456 511 453 449 451 450 532 527 528 888 1095 
15 28 47 45 44 260 323 259 258 319 318 690 731 989 529 1096 
15 93 69 88 94 456 453 511 523 457 512 532 530 894 531 1097 
15 43 49 86 85 310 349 317 316 348 503 850 916 538 937 1098 
15 5 1 26 6 103 106 124 120 104 129 562 533 682 551 1099 
15 82 86 81 63 495 494 493 423 424 422 534 543 861 769 1100 
15 7 11 48 6 137 169 145 127 128 135 980 535 674 565 1101 
15 37 17 54 38 212 216 289 285 213 291 863 848 825 536 1102 
15 55 13 12 51 191 171 180 361 190 178 658 782 792 783 1103 
15 90 86 49 85 506 349 350 504 503 348 901 537 538 877 1104 
15 37 52 50 36 287 352 286 282 284 283 564 539 540 808 1105 
15 91 92 65 86 519 438 437 507 508 435 764 541 755 618 1106 
15 82 65 86 63 434 435 495 423 421 424 555 542 859 543 1107 
15 25 5 0 26 123 99 100 243 124 101 545 664 560 544 1108 
15 46 32 6 48 269 131 134 326 270 135 957 546 673 1054 1109 
15 57 46 58 62 327 328 383 384 329 388 720 547 706 898 1110 
15 26 41 25 46 249 245 243 252 300 246 549 608 548 553 1111 
15 22 38 39 17 237 290 238 210 213 214 550 847 824 629 1112 
15 55 49 12 54 344 176 180 373 343 179 784 869 830 621 1113 
15 26 5 6 30 124 120 129 248 125 130 551 662 579 1009 1114 
15 25 30 26 46 244 248 243 246 265 252 663 552 1008 553 1115 
15 11 15 16 34 164 194 165 168 198 203 554 639 594 976 1116 
15 82 65 87 86 434 436 496 495 435 505 557 555 754 556 1117 
15 15 34 36 37 198 276 199 200 277 282 558 596 806 586 1118 
15 43 85 64 48 316 429 314 309 340 338 1004 1002 667 1061 1119 
15 1 5 26 0 103 124 106 98 99 101 562 559 560 561 1120 
15 52 37 50 53 287 286 352 368 288 353 564 563 577 944 1121 
15 60 80 59 86 410 401 398 413 492 403 1075 942 1066 853 1122 
15 48 7 6 43 145 127 135 309 143 133 565 932 567 1031 1123 
15 92 71 96 91 465 467 521 519 464 520 705 660 654 566 1124 
15 26 7 43 6 140 143 251 129 127 133 635 681 567 843 1125 
15 6 26 46 42 129 252 134 132 250 304 1007 842 607 1053 1126 
15 32 15 10 11 197 161 162 167 164 160 569 640 568 602 1127 
15 90 71 70 49 463 459 460 350 347 346 868 950 831 572 1128 
15 28 9 8 3 156 146 148 116 115 114 649 584 570 692 1129 
15 68 69 50 66 449 358 357 439 440 356 928 885 914 571 1130 
15 49 90 54 70 350 378 343 346 460 375 879 572 723 832 1131 
15 28 43 7 44 257 143 142 258 308 144 725 573 741 747 1132 
15 92 72 71 67 469 462 465 448 446 445 919 574 762 659 1133 
15 71 56 51 72 381 362 365 462 382 366 799 575 576 761 1134 
15 50 37 16 53 286 204 205 353 288 206 951 577 676 954 1135 
15 5 6 30 32 120 130 125 126 131 264 579 599 958 578 1136 
15 39 19 35 40 228 227 279 292 229 280 641 610 580 803 1137 
15 12 11 50 48 163 170 177 175 169 336 968 979 994 893 1138 
15 21 15 37 16 196 200 234 202 194 204 591 581 595 614 1139 
15 28 4 9 3 118 117 156 116 112 115 651 582 583 584 1140 
15 80 84 58 85 490 396 395 491 499 397 1083 585 1045 987 1141 
15 15 36 20 37 199 231 195 200 282 232 588 586 587 589 1142 
15 15 20 21 37 195 230 196 200 232 234 592 589 590 591 1143 
15 19 18 35 13 218 220 227 185 184 187 642 593 780 623 1144 
15 39 51 35 18 293 281 279 221 222 220 804 823 779 643 1145 
15 15 34 37 16 198 277 200 194 203 204 596 594 952 595 1146 
15 19 23 39 18 224 240 228 218 219 221 648 597 634 644 1147 
15 5 6 32 11 120 131 126 122 128 167 599 598 675 601 1148 
15 10 5 32 11 121 126 162 160 122 167 603 600 601 602 1149 
15 19 33 14 13 226 193 192 185 186 182 605 624 710 604 1150 
15 26 41 46 42 249 300 252 250 299 304 608 606 1010 607 1151 
15 24 19 39 40 225 228 241 242 229 292 646 609 610 611 1152 
15 51 91 67 65 367 447 364 363 437 433 834 749 766 612 1153 
15 17 21 37 16 209 234 212 201 202 204 616 613 614 865 1154 
15 37 22 21 17 236 233 234 212 210 209 617 849 615 616 1155 
15 49 91 65 86 351 437 345 349 507 435 751 902 618 851 1156 
15 7 1 26 2 105 106 140 108 102 109 683 619 620 626 1157 
15 17 55 12 54 217 180 172 216 373 179 656 1028 621 963 1158 
15 19 33 13 35 226 186 185 227 272 187 624 622 787 623 1159 
15 7 2 26 27 108 109 140 141 110 247 626 688 625 637 1160 
15 33 9 8 31 159 146 150 266 158 149 668 627 650 679 1161 
15 55 18 39 17 223 221 295 217 208 214 822 797 633 1027 1162 
15 23 22 39 17 235 238 240 211 210 214 630 628 629 632 1163 
15 18 23 39 17 219 240 221 208 211 214 634 631 632 633 1164 
15 26 7 27 43 140 141 247 251 143 254 637 635 726 636 1165 
15 32 15 11 34 197 164 167 268 198 168 640 638 639 961 1166 
15 39 19 18 35 228 218 221 279 227 220 644 641 642 643 1167 
15 23 19 39 24 224 228 240 239 225 241 648 645 646 647 1168 
15 28 9 31 8 156 158 256 148 146 149 891 649 650 701 1169 
15 28 4 29 9 118 119 255 156 117 157 653 651 652 892 1170 
15 51 91 49 71 367 351 342 365 464 347 752 837 948 839 1171 
15 96 71 90 91 467 463 518 520 464 515 874 654 947 655 1172 
15 13 55 12 17 191 180 171 183 217 172 658 795 656 657 1173 
15 92 71 91 67 465 464 519 448 445 447 660 659 835 767 1174 
15 25 5 26 30 123 124 243 244 125 248 664 661 662 663 1175 
15 47 61 45 60 333 325 323 332 404 324 666 814 665 991 1176 
15 33 49 8 13 274 153 150 186 189 147 697 790 736 669 1177 
15 85 90 64 48 504 432 429 340 341 338 1014 883 997 667 1178 
15 13 9 8 33 154 146 147 186 159 150 670 711 668 669 1179 
15 78 64 84 83 426 428 486 485 427 497 880 671 1080 672 1180 
15 6 32 11 48 131 167 128 135 270 169 675 673 992 674 1181 
15 16 37 54 53 204 289 207 206 288 371 864 676 677 956 1182 
15 47 33 8 31 273 150 152 267 266 149 696 678 679 699 1183 
15 1 7 26 6 105 140 106 104 127 129 683 680 681 682 1184 
15 76 80 60 81 480 410 408 481 489 411 1051 684 939 776 1185 
15 90 94 69 95 516 457 455 517 524 458 923 685 686 829 1186 
15 90 50 70 66 360 359 460 444 356 441 721 982 913 702 1187 
15 7 2 27 28 108 110 141 142 111 253 688 715 687 727 1188 
15 29 28 47 45 255 260 263 262 259 323 694 689 690 691 1189 
15 3 7 8 28 113 136 114 116 142 148 693 717 748 692 1190 
15 29 28 31 47 255 256 261 263 260 267 890 694 700 695 1191 
15 47 33 49 8 273 274 331 152 150 153 698 696 697 729 1192 
15 28 8 31 47 148 149 256 260 152 267 701 732 699 700 1193 
15 90 70 69 66 460 452 455 444 441 440 827 702 912 936 1194 
15 71 97 92 96 468 522 465 467 526 521 921 703 704 705 1195 
15 58 46 64 62 328 330 389 388 329 417 1023 706 707 1032 1196 
15 13 9 33 14 154 159 186 182 155 193 711 708 709 710 1197 
15 39 56 40 51 296 298 292 293 362 297 713 778 712 805 1198 
15 3 7 28 2 113 142 116 107 108 111 717 714 715 716 1199 
15 46 57 58 41 327 383 328 300 301 302 720 718 719 1012 1200 
15 90 50 48 70 360 336 341 460 359 339 998 721 1020 722 1201 
15 90 54 70 48 378 375 460 341 337 339 723 882 1018 722 1202 
15 58 43 64 42 311 314 389 306 303 307 1055 724 1059 1024 1203 
15 28 43 27 7 257 254 253 142 143 141 728 725 726 727 1204 
15 8 49 47 44 153 331 152 151 320 319 729 734 811 730 1205 
15 28 8 47 44 148 152 260 258 151 319 732 746 730 731 1206 
15 43 49 12 44 310 176 173 308 320 174 918 819 733 739 1207 
15 12 49 13 44 176 189 171 174 320 188 794 733 735 737 1208 
15 49 8 13 44 153 147 189 320 151 188 736 734 742 735 1209 
15 12 13 7 44 171 139 138 174 188 144 738 737 743 740 1210 
15 43 12 7 44 173 138 143 308 174 144 931 739 740 741 1211 
15 13 8 7 44 147 136 139 188 151 144 744 742 745 743 1212 
15 7 8 28 44 136 148 142 144 151 258 748 745 746 747 1213 
15 91 51 49 65 367 342 351 437 363 345 752 749 750 751 1214 
15 92 87 65 86 509 436 438 508 505 435 756 753 754 755 1215 
15 63 61 60 82 414 404 405 423 416 412 813 757 758 768 1216 
15 60 61 77 82 404 415 409 412 416 483 760 758 759 770 1217 
15 67 51 72 71 364 366 446 445 365 462 763 836 761 762 1218 
15 91 92 67 65 519 448 447 437 438 433 767 764 765 766 1219 
15 63 60 81 82 405 411 422 423 412 493 862 768 775 769 1220 
15 76 60 77 82 408 409 479 482 412 483 772 773 770 771 1221 
15 60 76 81 82 408 481 411 412 482 493 776 773 774 775 1222 
15 39 56 51 55 296 362 293 295 379 361 778 777 800 820 1223 
15 18 35 13 51 220 187 184 222 281 190 780 779 786 781 1224 
15 55 13 51 18 191 190 361 223 184 222 782 798 781 821 1225 
15 49 55 12 51 344 180 176 342 361 178 784 840 783 791 1226 
15 35 33 13 51 272 186 187 281 275 190 787 785 789 786 1227 
15 33 49 13 51 274 189 186 275 342 190 790 788 793 789 1228 
15 49 12 13 51 176 171 189 342 178 190 794 791 792 793 1229 
15 55 13 18 17 191 184 223 217 183 208 798 795 796 797 1230 
15 71 56 55 51 381 379 380 365 362 361 801 799 800 838 1231 
15 51 40 39 35 297 292 293 281 280 279 805 802 803 804 1232 
15 37 36 50 34 282 283 286 277 276 278 808 806 807 953 1233 
15 47 60 44 65 332 321 319 335 406 322 990 1039 815 810 1234 
15 49 47 44 65 331 319 320 345 335 322 811 809 810 817 1235 
15 47 61 60 63 333 404 332 334 414 405 814 812 813 1036 1236 
15 43 44 60 65 308 321 313 315 322 406 816 818 815 857 1237 
15 43 49 44 65 310 320 308 315 345 322 819 852 817 818 1238 
15 39 51 18 55 293 222 221 295 361 223 823 820 821 822 1239 
15 54 39 38 17 294 290 291 216 214 213 826 1029 824 825 1240 
15 90 70 95 69 460 461 517 455 452 458 867 827 828 829 1241 
15 49 12 54 85 176 179 343 348 181 377 830 917 906 878 1242 
15 71 49 54 70 347 343 376 459 346 375 871 831 832 833 1243 
15 51 91 71 67 367 464 365 364 447 445 837 834 835 836 1244 
15 49 55 51 71 344 361 342 347 380 365 840 872 838 839 1245 
15 6 43 26 42 133 251 129 132 303 250 843 1030 841 842 1246 
15 73 58 78 57 390 393 472 385 383 386 1093 844 897 845 1247 
15 37 22 17 38 236 210 212 285 237 213 849 846 847 848 1248 
15 43 49 65 86 310 345 315 317 349 435 852 850 851 856 1249 
15 59 43 60 86 312 313 398 403 317 413 854 938 855 853 1250 
15 60 43 65 86 313 315 406 413 317 435 857 855 856 858 1251 
15 63 60 65 86 405 406 421 424 413 435 1037 860 858 859 1252 
15 60 63 81 86 405 422 411 413 424 494 862 860 861 941 1253 
15 37 17 16 54 212 201 204 289 216 207 865 863 966 864 1254 
15 71 95 90 70 466 517 463 459 461 460 876 866 867 868 1255 
15 49 55 71 54 344 380 347 343 373 376 872 869 870 871 1256 
15 95 71 90 96 466 463 517 525 467 518 876 873 874 875 1257 
15 88 69 66 89 453 440 442 510 454 443 887 896 935 909 1258 
15 90 49 54 85 350 343 378 504 348 377 879 877 878 884 1259 
15 78 64 62 84 426 417 418 486 428 420 881 880 1033 1017 1260 
15 90 66 89 64 444 443 513 432 425 431 934 983 907 984 1261 
15 54 90 85 48 378 504 377 337 341 340 884 882 883 905 1262 
15 69 68 88 66 449 450 453 440 439 442 888 885 886 887 1263 
15 9 29 28 31 157 255 156 158 261 256 892 889 890 891 1264 
15 54 12 50 48 179 177 354 337 175 336 962 904 893 1019 1265 
15 88 69 89 94 453 454 510 512 457 514 896 894 924 895 1266 
15 78 58 62 57 393 388 418 386 383 384 1087 897 898 899 1267 
15 69 54 50 70 374 354 358 452 375 359 926 900 1021 915 1268 
15 90 86 91 49 506 507 515 350 349 351 903 901 902 949 1269 
15 12 54 85 48 179 377 181 175 337 340 906 904 905 1001 1270 
15 89 66 88 64 443 442 510 431 425 430 909 907 908 910 1271 
15 88 84 89 64 500 501 510 430 428 431 911 1082 985 910 1272 
15 69 70 50 66 452 359 358 440 441 356 915 912 913 914 1273 
15 49 43 12 85 310 173 176 348 316 181 918 916 1003 917 1274 
15 92 72 97 71 469 470 522 465 462 468 922 919 920 921 1275 
15 90 94 89 69 516 514 513 455 457 454 925 923 924 933 1276 
15 69 54 53 50 374 371 372 358 354 353 927 926 955 943 1277 
15 68 69 52 50 449 370 369 357 358 352 930 928 945 929 1278 
15 48 7 43 12 145 143 309 175 138 173 932 978 931 1000 1279 
15 69 90 66 89 455 444 440 454 513 443 936 933 934 935 1280 
15 59 43 86 85 312 317 403 402 316 503 938 1005 937 1069 1281 
15 60 80 86 81 410 492 413 411 489 494 942 939 940 941 1282 
15 69 53 52 50 372 368 370 358 353 352 946 943 944 945 1283 
15 90 71 49 91 463 347 350 515 464 351 950 947 948 949 1284 
15 50 37 34 16 286 277 278 205 204 203 953 951 952 974 1285 
15 54 16 53 50 207 206 371 354 205 353 956 964 954 955 1286 
15 46 32 30 6 269 264 265 134 131 130 959 957 958 1006 1287 
15 32 34 11 50 268 168 167 271 278 170 961 960 973 995 1288 
15 12 17 54 50 172 216 179 177 215 354 963 967 965 962 1289 
15 17 16 54 50 201 207 216 215 205 354 966 970 964 965 1290 
15 11 17 12 50 166 172 163 170 215 177 969 971 967 968 1291 
15 11 16 17 50 165 201 166 170 205 215 972 975 970 971 1292 
15 11 34 16 50 168 203 165 170 278 205 976 973 974 975 1293 
15 11 7 48 12 137 145 169 163 138 175 980 977 978 979 1294 
15 64 50 90 66 355 360 432 425 356 444 999 981 982 983 1295 
15 90 89 84 64 513 501 502 432 431 428 986 984 985 1013 1296 
15 85 59 58 80 402 387 397 491 401 395 1043 1067 1072 987 1297 
15 60 45 47 44 324 323 332 321 318 319 991 988 989 990 1298 
15 11 32 50 48 167 271 170 169 270 336 995 992 993 994 1299 
15 50 64 90 48 355 432 360 336 338 341 999 996 997 998 1300 
15 43 12 85 48 173 181 316 309 175 340 1003 1000 1001 1002 1301 
15 59 43 85 64 312 316 402 399 314 429 1005 1056 1004 1044 1302 
15 30 6 26 46 130 129 248 265 134 252 1009 1006 1007 1008 1303 
15 46 41 58 42 300 302 328 304 299 306 1012 1010 1011 1025 1304 
15 90 84 85 64 502 499 504 432 428 429 1015 1013 1048 1014 1305 
15 84 62 78 79 420 418 486 488 419 484 1017 1077 1089 1016 1306 
15 70 54 50 48 375 354 359 339 337 336 1021 1018 1019 1020 1307 
15 78 74 79 58 474 475 484 393 391 394 1022 1094 1041 1090 1308 
15 58 46 42 64 328 304 306 389 330 307 1025 1023 1064 1024 1309 
15 54 39 17 55 294 214 216 373 295 217 1029 1026 1027 1028 1310 
15 43 6 48 42 133 135 309 303 132 305 1031 1030 1052 1060 1311 
15 84 64 62 58 428 417 420 396 389 388 1033 1047 1032 1078 1312 
15 58 80 75 74 395 478 392 391 476 473 1071 1042 1034 1035 1313 
15 47 60 65 63 332 406 335 334 405 421 1039 1036 1037 1038 1314 
15 58 80 74 79 395 476 391 394 487 475 1042 1085 1040 1041 1315 
15 85 59 64 58 402 399 429 397 387 389 1044 1043 1057 1046 1316 
15 84 85 64 58 499 429 428 396 397 389 1048 1045 1046 1047 1317 
15 60 75 80 76 407 478 410 408 477 480 1073 1049 1050 1051 1318 
15 48 6 46 42 135 134 326 305 132 304 1054 1052 1053 1063 1319 
15 58 43 59 64 311 312 387 389 314 399 1058 1055 1056 1057 1320 
15 64 43 48 42 314 309 338 307 303 305 1061 1059 1060 1062 1321 
15 64 48 46 42 338 326 330 307 305 304 1065 1062 1063 1064 1322 
15 86 59 85 80 403 402 503 492 401 491 1069 1066 1067 1068 1323 
15 59 58 80 75 387 395 401 400 392 478 1072 1070 1071 1074 1324 
15 60 75 59 80 407 400 398 410 478 401 1076 1073 1074 1075 1325 
15 62 84 58 79 420 396 388 419 488 394 1078 1077 1084 1088 1326 
15 88 84 64 83 500 428 430 498 497 427 1082 1079 1080 1081 1327 
15 80 84 79 58 490 488 487 395 396 394 1086 1083 1084 1085 1328 
15 78 58 79 62 393 394 484 418 388 419 1090 1087 1088 1089 1329 
15 78 74 58 73 474 391 393 472 471 390 1094 1091 1092 1093 1330 

CELL_TYPES 236
24
24
24
24
24
24
24
24
24
24
24
24
24
24
24
24
24
24
24
24
24
24
24
24
24
24
24
24
24
24
24
24
24
24
24
24
24
24
24
24
24
24
24
24
24
24
24
24
24
24
24
24
24
24
24
24
24
24
24
24
24
24
24
24
24
24
24
24
24
24
24
24
24
24
24
24
24
24
24
24
24
24
24
24
24
24
24
24
24
24
24
24
24
24
24
24
24
24
24
24
24
24
24
24
24
24
24
24
24
24
24
24
24
24
24
24
24
24
24
24
24
24
24
24
24
24
24
24
24
24
24
24
24
24
24
24
24
24
24
24
24
24
24
24
24
24
24
24
24
24
24
24
24
24
24
24
24
24
24
24
24
24
24
24
24
24
24
24
24
24
24
24
24
24
24
24
24
24
24
24
24
24
24
24
24
24
24
24
24
24
24
24
24
24
24
24
24
24
24
24
24
24
24
24
24
24
24
24
24
24
24
24
24
24
24
24
24
24
24
24
24
24
24
24
24
24
24
24
24
24
24
24
24
24
24
24

POINT_DATA 1331
VECTORS displacement float
0 0 0
0 0 0
0 0 0
0 0 0
0 0 0
0 0 0
0 0 0
0 0 0
0 0 0
0 0 0
0 0 0
0 0 0
0 0 0
0 0 0
0 0 0
0 0 0
0 0 0
0 0 0
0 0 0
0 0 0
0 0 0
0 0 0
0 0 0
0 0 0
0 0 0
-0.00615033 -0.00455578 -0.00437241
-0.00502561 -0.00441275 -0.00218197
-0.00424153 -0.0046112 3.67179e-05
-0.00479283 -0.00459015 0.00223971
-0.00625956 -0.00456174 0.00448396
-0.00471511 -0.00210647 -0.00463515
-0.0046757 -0.00210547 0.00463689
-0.00444584 0.000123229 -0.0046006
-0.00456309 1.80473e-05 0.00449787
-0.00437766 0.00230525 -0.004615
-0.00442393 0.0021754 0.00468138
-0.00626139 0.00471241 -0.0043117
-0.0050183 0.00444341 -0.00209919
-0.00417396 0.00458921 7.15341e-05
-0.00470991 0.00458799 0.00222132
-0.00630635 0.00464151 0.00448439
-0.0100454 -0.00563873 -0.00541293
-0.00985366 -0.00618454 -0.00309915
-0.00962885 -0.00636076 -0.000103292
-0.0105977 -0.00621433 0.00293567
-0.010113 -0.00568008 0.00554559
-0.0101691 -0.00319848 -0.00594021
-0.0102133 -0.003111 0.00622877
-0.00983083 -6.50238e-05 -0.00641809
-0.0094787 -1.46752e-05 0.00647149
-0.0103121 0.00327865 -0.00650487
-0.0100873 0.00310078 0.00643443
-0.0100124 0.00594639 -0.00540664
-0.0100957 0.00635125 -0.0029358
-0.00940506 0.00639887 7.8875e-05
-0.0104628 0.00618194 0.00301542
-0.0100233 0.00574608 0.00562322
-0.0137947 -0.00496927 -0.00460242
-0.015126 -0.00498927 -0.00221654
-0.0159085 -0.00477185 0.000153188
-0.0152967 -0.00483879 0.00222649
-0.0138901 -0.00499837 0.00452119
-0.0151897 -0.00225901 -0.00524015
-0.0151294 -0.00232718 0.0052656
-0.0159799 9.70073e-05 -0.00505968
-0.0156241 3.38201e-05 0.005071
-0.0158894 0.00230293 -0.00487469
-0.0153937 0.00223227 0.00478347
-0.0139058 0.00472806 -0.00449044
-0.0147917 0.00478788 -0.00212573
-0.0155168 0.00484901 5.32761e-05
-0.0150372 0.00495248 0.00214504
-0.0138653 0.00474241 0.00445288
-0.02 0 0
-0.02 0 0
-0.02 0 0
-0.02 0 0
-0.02 0 0
-0.02 0 0
-0.02 0 0
-0.02 0 0
-0.02 0 0
-0.02 0 0
-0.02 0 0
-0.02 0 0
-0.02 0 0
-0.02 0 0
-0.02 0 0
-0.02 0 0
-0.02 0 0
-0.02 0 0
-0.02 0 0
-0.02 0 0
-0.02 0 0
-0.02 0 0
-0.02 0 0
-0.02 0 0
-0.02 0 0
0 0 0
0 0 0
-0.00344932 -0.00276332 -0.00391496
-0.00202606 -0.00343707 -0.00223185
0 0 0
0 0 0
0 0 0
0 0 0
-0.00164653 -0.00355215 -0.00147325
0 0 0
0 0 0
-0.00177688 -0.00365125 -0.000811064
-0.00164087 -0.00348975 7.64266e-05
-0.00171634 -0.00355035 0.00094089
0 0 0
0 0 0
0 0 0
0 0 0
-0.00157847 -0.00349455 0.00152014
0 0 0
-0.00198193 -0.00340378 0.00221632
-0.00350121 -0.00274511 0.00392452
0 0 0
0 0 0
0 0 0
-0.00278254 -0.00198886 -0.00352446
-0.00155675 -0.00242499 -0.00222866
-0.00210298 -0.00129952 -0.00332449
-0.00158687 -0.000177801 -0.00361462
0 0 0
0 0 0
-0.00148777 -0.00238984 -0.00128758
-0.00154572 -0.00130597 -0.00231976
-0.0011505 -0.000377286 -0.00257992
-0.00408943 -0.00328019 -0.00222703
-0.00362675 -0.00349824 -0.00112224
-0.00399928 -0.00217481 -0.00337433
-0.00338268 -0.00106624 -0.00370086
0 0 0
0 0 0
0 0 0
0 0 0
-0.00133828 -0.00251092 -0.000626066
-0.00121422 -0.00246378 7.09145e-05
-0.00118037 -0.00242948 0.000760926
-0.00348746 -0.00358348 -8.07669e-05
-0.00320537 -0.00369707 0.00126069
-0.00303529 -0.00108493 -0.00263899
0 0 0
0 0 0
-0.00127856 -0.00235458 0.00139871
-0.00146334 -0.00133706 0.00229512
-0.00122662 -0.000481231 0.00254632
-0.00347805 -0.00350537 0.00235554
-0.00385668 -0.0021875 0.00341208
-0.00354484 -0.00111606 0.00359203
0 0 0
0 0 0
-0.0014913 -0.00241146 0.00223441
-0.00279881 -0.00196402 0.00352906
-0.0020395 -0.00131452 0.00333064
-0.00160882 -0.000260118 0.00362837
0 0 0
0 0 0
-0.00155906 0.000221314 -0.00348883
0 0 0
0 0 0
0 0 0
0 0 0
-0.0011661 0.000194692 -0.00237282
-0.00108595 0.000785991 -0.00241589
-0.00300386 6.3841e-06 -0.00377779
-0.00307953 0.00133454 -0.0036862
0 0 0
0 0 0
-0.00341182 -0.00261198 -5.31652e-05
-0.00307968 -0.00260662 0.00122605
-0.00306993 2.73538e-05 -0.00268968
-0.00348536 1.01737e-05 0.00272317
-0.00296691 0.0012901 -0.00258713
-0.00327196 0.00121216 0.00260138
-0.00339141 0.00262593 3.50345e-05
-0.00314699 0.00255549 0.00130373
-0.00995512 3.30203e-06 1.41817e-05
0 0 0
0 0 0
0 0 0
0 0 0
-0.00126541 0.000114045 0.00247846
-0.00117956 0.000719181 0.00252082
-0.00320028 -0.00249678 0.00238743
-0.00344378 -2.66351e-05 0.00369518
-0.00343833 0.00119467 0.00363032
-0.00311983 0.00253956 0.00244246
0 0 0
-0.00161273 0.000140072 0.00361118
0 0 0
0 0 0
0 0 0
-0.00170481 0.000655636 -0.00349829
-0.00173767 0.00143885 -0.00321833
-0.00271713 0.00196112 -0.00342141
-0.00153633 0.00236403 -0.00218363
0 0 0
0 0 0
-0.00124753 0.00137579 -0.00226447
-0.00147217 0.00234657 -0.00124651
-0.00338413 0.00241471 -0.00345432
-0.00386325 0.00340064 -0.00216052
-0.00352804 0.00352397 -0.00106423
0 0 0
0 0 0
0 0 0
0 0 0
-0.00131041 0.00248449 -0.000603434
-0.00119063 0.00243687 8.1656e-05
-0.00117071 0.00244886 0.000768005
-0.00312884 0.00240467 -0.00247895
-0.00338599 0.00358896 1.38898e-05
-0.00317654 0.00371054 0.00130888
0 0 0
0 0 0
-0.0012936 0.00131949 0.00241194
-0.0012635 0.00230426 0.00139638
-0.00354386 0.00228065 0.00359134
-0.00333268 0.00357918 0.00239731
0 0 0
0 0 0
-0.00176798 0.000592136 0.00365382
-0.001782 0.00136719 0.00336243
-0.0014677 0.00233354 0.00224115
-0.00276645 0.00190964 0.00350044
0 0 0
-0.00346357 0.00274947 -0.00384599
-0.00202963 0.00340944 -0.00215704
0 0 0
-0.0016411 0.00352101 -0.00144029
0 0 0
-0.00176041 0.0036097 -0.000769716
-0.00161886 0.00345808 9.39925e-05
-0.00170598 0.0035483 0.000951953
0 0 0
-0.00154716 0.00342132 0.00153296
-0.00196006 0.00333419 0.00218859
-0.00351061 0.00270034 0.00390504
-0.00542762 -0.00454196 -0.00343287
-0.00510882 -0.00331476 -0.00467027
-0.0081034 -0.00525355 -0.0049445
-0.00757687 -0.00416329 -0.00517163
-0.00454889 -0.00458075 -0.00107727
-0.00431385 -0.0032778 -0.00347607
-0.00771345 -0.00516759 -0.00394677
-0.00735076 -0.0052963 -0.00281768
-0.0071105 -0.00542472 -0.00157696
-0.00705994 -0.00409021 -0.00403526
-0.0044759 -0.00460901 0.00113202
-0.00679734 -0.00552771 -9.75318e-05
-0.00542288 -0.00458745 0.00352736
-0.00424987 -0.00331598 0.00352793
-0.00700012 -0.00561009 0.00134995
-0.00754867 -0.00549492 0.00278969
-0.00776615 -0.00525203 0.00413317
-0.00708344 -0.00411815 0.00419454
-0.00514315 -0.00331555 0.00474586
-0.00819653 -0.00527001 0.00513948
-0.00763781 -0.00414814 0.00532856
-0.00449909 -0.00109386 -0.00466708
-0.00737398 -0.002828 -0.00535973
-0.00449492 -0.0011065 0.00464171
-0.00737172 -0.00276155 0.0054769
-0.00434129 0.00114597 -0.00466027
-0.00695742 -0.00152487 -0.00557574
-0.00690455 1.46404e-05 -0.00567728
-0.00692446 0.00143928 -0.00571386
-0.00439839 0.001051 0.00469312
-0.00693527 -0.00143785 0.00558399
-0.0068598 -4.23468e-05 0.00554687
-0.00686779 0.00134995 0.00562344
-0.00498166 0.0035418 -0.0046075
-0.00413117 0.00345582 -0.00339052
-0.00722072 0.00305149 -0.00554679
-0.00413319 0.00338468 0.00355453
-0.00506405 0.00340501 0.00477988
-0.00716232 0.00284039 0.00557471
-0.00548436 0.00464676 -0.00333991
-0.00752079 0.00452405 -0.00518472
-0.00815281 0.00562682 -0.0048414
-0.0045082 0.00456444 -0.000997777
-0.00692258 0.00435124 -0.00404163
-0.00771839 0.00546303 -0.00385555
-0.00741733 0.00546435 -0.0026675
-0.00703572 0.00546069 -0.00139275
-0.00441603 0.0046299 0.0011401
-0.00666132 0.00553899 2.53348e-05
-0.005431 0.0046227 0.00352485
-0.00700463 0.00421139 0.00428218
-0.006892 0.00563313 0.00141829
-0.00742573 0.00551113 0.0028461
-0.00772918 0.00533618 0.0041827
-0.00758119 0.0042737 0.00542506
-0.00816879 0.00539316 0.00517669
-0.00987339 -0.00563614 -0.00441861
-0.0100232 -0.00457208 -0.00567818
-0.0119252 -0.00526264 -0.00519263
-0.0121301 -0.00523584 -0.00416166
-0.00970947 -0.00626168 -0.00168626
-0.00981534 -0.0045899 -0.00451664
-0.00974732 -0.00310713 -0.00460867
-0.0124646 -0.00534826 -0.00288254
-0.0129584 -0.00283204 -0.00430577
-0.00983834 -0.00640883 0.00144028
-0.00974885 -0.00311824 -0.00299522
-0.00974818 -0.00305324 0.00304272
-0.0126802 -0.00546191 -0.00150292
-0.012958 -0.00546749 4.03042e-05
-0.0127701 -0.00573684 0.00150794
-0.0132221 -0.00282809 -0.00289116
-0.0134134 -0.00286633 0.00309256
-0.0165969 -0.00258628 0.000110099
-0.0166278 -0.0025252 0.00133231
-0.0101559 -0.00566535 0.0044444
-0.0101277 -0.00457296 0.0046638
-0.00988951 -0.00300783 0.00473676
-0.0130473 -0.00528674 0.00290348
-0.0131854 -0.00289739 0.00449637
-0.0100961 -0.00457911 0.00587518
-0.0123705 -0.00523563 0.004086
-0.0120307 -0.00534367 0.00510615
-0.00983802 -0.00169557 -0.00620652
-0.0123731 -0.00416681 -0.00535377
-0.0126272 -0.0041232 -0.00423494
-0.0125707 -0.0029167 -0.00547278
-0.0128509 -0.00156009 -0.00558961
-0.00972074 -0.00162278 0.00635654
-0.0128778 -0.00416853 0.00427246
-0.0124928 -0.00424218 0.00534185
-0.0125511 -0.00300392 0.00558395
-0.0127086 -0.00160933 0.00583168
-0.0100076 0.00164634 -0.00640663
-0.00973798 0.00316334 -0.0028708
-0.0130566 -8.9196e-05 -0.00564468
-0.0133796 0.00300433 -0.0027363
-0.016537 8.53462e-05 -0.00274048
-0.0165251 0.00121408 -0.00263722
-0.00964556 0.00161835 0.00643008
-0.00976942 0.00306769 0.00297291
-0.00975357 0.00311017 0.00471102
-0.0128073 -0.000157213 0.00594417
-0.0134254 0.00302066 0.0027826
-0.0131528 0.0030068 0.0043458
-0.0166845 7.29191e-06 0.00277794
-0.0166738 -0.000123876 0.00387571
-0.0167687 0.00112238 0.00277314
-0.016545 0.00101763 0.00390257
-0.0100408 0.00483674 -0.00581187
-0.00995398 0.00490078 -0.00455383
-0.00982091 0.00483617 -0.00298125
-0.0130263 0.00158893 -0.00545774
-0.0131928 0.00298642 -0.00539625
-0.0125467 0.00441474 -0.00519136
-0.0129247 0.00436174 -0.0040752
-0.0131833 0.00445511 -0.00272157
-0.0163569 0.00241651 -0.0023854
-0.0102233 0.00455945 0.00473205
-0.0100335 0.00461513 0.00598857
-0.0127596 0.00143808 0.00583772
-0.0127937 0.00289677 0.0056109
-0.0129567 0.00434629 0.0042144
-0.0124958 0.00427996 0.00533158
-0.0161576 0.00227098 0.00366333
-0.00996661 0.00598883 -0.00434048
-0.0119059 0.00556471 -0.00492174
-0.0121602 0.00544136 -0.00392147
-0.00967902 0.00636212 -0.0014987
-0.0125875 0.00556197 -0.0027989
-0.00974933 0.00637274 0.00156429
-0.0125708 0.00571389 -0.0014073
-0.0126372 0.00585935 7.06133e-05
-0.0127456 0.0056093 0.0015702
-0.0162392 0.00261687 2.1698e-05
-0.0160271 0.00367493 3.21814e-05
-0.0101692 0.00573164 0.00451107
-0.0130364 0.00530961 0.00293473
-0.0123814 0.00529656 0.00407471
-0.0119529 0.00540774 0.00507258
-0.0145065 -0.00495871 -0.00364573
-0.0147753 -0.003639 -0.00507543
-0.0164219 -0.0029119 -0.00416936
-0.0171299 -0.00218018 -0.00384924
-0.0155715 -0.00492602 -0.00103685
-0.0155057 -0.0036466 -0.00384606
-0.0159078 -0.0024307 -0.00382053
-0.0179502 -0.00355733 -0.00240495
-0.0183954 -0.00358889 -0.00163294
-0.0182025 -0.00378013 -0.000948448
-0.0184013 -0.00260684 -0.00256484
-0.0185789 -0.0025283 -0.00167921
-0.0186382 -0.00272654 -0.00079008
-0.018671 -0.00157996 -0.00167238
-0.0187941 -0.00171878 -0.000782859
-0.0156367 -0.00491357 0.00125893
-0.0162593 -0.00243501 -0.00248288
-0.0183074 -0.00368326 4.58462e-05
-0.018736 -0.0027878 2.02834e-05
-0.0188966 -0.00196421 7.33235e-07
-0.0188858 -0.00206221 0.000692894
-0.014635 -0.00492277 0.0035854
-0.0156295 -0.00365421 0.00384756
-0.0160128 -0.00248749 0.0038452
-0.0181897 -0.00385857 0.000993752
-0.018449 -0.00355496 0.00163186
-0.017992 -0.00355071 0.00234675
-0.0186798 -0.00280195 0.000806746
-0.0186484 -0.0025117 0.00165511
-0.0184413 -0.00260981 0.00251062
-0.0187746 -0.00157579 0.00163039
-0.0148354 -0.00371687 0.00503533
-0.0164779 -0.00293623 0.00407891
-0.0171678 -0.00221798 0.00377412
-0.0155924 -0.00104773 -0.005174
-0.0180244 -0.0014897 -0.0036306
-0.0185557 -0.00148626 -0.00269263
-0.0186707 -0.000695209 -0.00267684
-0.0154205 -0.00111077 0.00521042
-0.0186037 -0.00152398 0.00259034
-0.0180261 -0.00154627 0.00353019
-0.0187084 -0.000719556 0.00252128
-0.0159121 0.0013473 -0.00496717
-0.0182105 -0.000545978 -0.00388447
-0.0185013 -6.22913e-05 -0.00379757
-0.0187822 -4.0183e-05 -0.00292677
-0.0188236 9.37184e-05 -0.00206389
-0.0184899 0.000409535 -0.00389193
-0.0187649 0.000701678 -0.00306658
-0.0188765 0.000731241 -0.00231732
-0.0154519 0.00123842 0.00494704
-0.0182006 -0.000531598 0.00370341
-0.0186991 5.1495e-05 0.00254312
-0.01843 -0.000118552 0.00364259
-0.0188304 0.000504485 0.00273323
-0.0183927 0.00025239 0.00376725
-0.0150553 0.00349173 -0.00479381
-0.0157131 0.00349355 -0.00363098
-0.0160211 0.00359302 -0.00233274
-0.0181008 0.00148457 -0.00364234
-0.0185456 0.00156582 -0.00277888
-0.0186673 0.00158656 -0.00191974
-0.0157314 0.0035039 0.00364057
-0.0149319 0.00346208 0.00483352
-0.0185634 0.00134649 0.00250201
-0.0179657 0.00131392 0.00349803
-0.014457 0.00473093 -0.00348733
-0.0172665 0.00214431 -0.00382525
-0.0165239 0.00283281 -0.00419
-0.0152443 0.00486252 -0.00100244
-0.0183905 0.00255919 -0.00259699
-0.0185649 0.00253437 -0.00174665
-0.0186239 0.00249607 -0.000927744
-0.017897 0.00355224 -0.00249661
-0.0182776 0.00372155 -0.0016476
-0.0181551 0.00368594 -0.000984444
-0.0153263 0.00506129 0.00100872
-0.0183817 0.00234241 4.1502e-06
-0.018177 0.00349965 2.38567e-05
-0.0145509 0.00472555 0.00350943
-0.018627 0.00228622 0.000876327
-0.0185629 0.00233 0.00175059
-0.0184666 0.00245732 0.00250415
-0.0182234 0.00350434 0.00104035
-0.0183887 0.00349592 0.00160176
-0.0179778 0.00343629 0.00240202
-0.0172443 0.00202517 0.00374635
-0.0165102 0.00276001 0.00410882
-0.02 0 0
-0.02 0 0
-0.02 0 0
-0.02 0 0
-0.02 0 0
-0.02 0 0
-0.02 0 0
-0.02 0 0
-0.02 0 0
-0.02 0 0
-0.02 0 0
-0.02 0 0
-0.02 0 0
-0.02 0 0
-0.02 0 0
-0.02 0 0
-0.02 0 0
-0.02 0 0
-0.02 0 0
-0.02 0 0
-0.02 0 0
-0.02 0 0
-0.02 0 0
-0.02 0 0
-0.02 0 0
-0.02 0 0
-0.02 0 0
-0.02 0 0
-0.02 0 0
-0.02 0 0
-0.02 0 0
-0.02 0 0
-0.02 0 0
-0.02 0 0
-0.02 0 0
-0.02 0 0
-0.02 0 0
-0.02 0 0
-0.02 0 0
-0.02 0 0
-0.02 0 0
-0.02 0 0
-0.02 0 0
-0.02 0 0
-0.02 0 0
-0.02 0 0
-0.02 0 0
-0.02 0 0
-0.02 0 0
-0.02 0 0
-0.02 0 0
-0.02 0 0
-0.02 0 0
-0.02 0 0
-0.02 0 0
-0.02 0 0
-0.0164123 0.00393126 -0.00374277
-0.0178041 0.00166614 -0.00324629
-0.0085826 -0.00552822 0.00384017
-0.0188293 0.00301217 -0.00145443
-0.02 0 0
-0.0189849 0.0021279 -0.00214728
0 0 0
-0.02 0 0
0 0 0
-0.00596847 0.00519628 -0.000814155
-0.02 0 0
-0.0183168 -0.000129583 0.00221883
-0.00711939 0.00525262 -0.00402698
-0.00848813 0.00512661 -0.00524653
-0.02 0 0
-0.0172221 -0.00109542 0.00428536
-0.0192684 -0.000625261 0.00213961
-0.0035256 -0.00379225 -0.00347904
-0.00215572 -0.0016089 -0.00302517
-0.00779386 -0.00112366 -0.0058887
-0.0133349 -0.00359128 -0.00527954
-0.00851833 -0.00473947 -0.0052368
-0.00708854 -0.00497124 -0.00413328
-0.00252513 0.00404634 0.000664137
-0.000732701 -0.0015268 -0.00139156
-0.00657299 -0.00348978 -0.00504175
-0.00656661 -0.00426334 -0.00422167
0 0 0
-0.0192909 -0.000346864 0.00223864
-0.02 0 0
-0.0189671 -0.000418802 0.00303842
-0.00312989 0.0022671 -0.00391316
0 0 0
-0.000973955 -0.00204745 -0.00192143
-0.00110686 -0.00288219 -0.00125375
-0.000806275 -0.00214765 -0.00137095
-0.00843338 0.00568508 -0.00364143
-0.00821887 0.00496978 -0.00457702
-0.00152747 -0.00106302 -0.00204082
-0.02 0 0
-0.00199996 -0.00243982 -0.000509886
0 0 0
-0.000988612 0.000481847 -0.0029019
0 0 0
-0.0137026 0.00368815 -0.00508809
-0.0164386 0.00236469 0.00171203
-0.0080534 -0.00586767 0.00183722
-0.0167304 0.0022508 0.00421397
-0.0129515 0.00510696 0.00424001
-0.0115376 0.00485703 0.00540393
-0.00796562 0.00496146 -0.00374262
-0.00269761 -0.000955654 -0.00410345
-0.000959074 -0.000936032 -0.00195026
-0.00319713 0.00219203 0.00401516
0 0 0
-0.00106913 -0.00282728 0.00125159
0 0 0
-0.000763908 -0.00210636 0.00135743
-0.02 0 0
-0.00286042 0.00298646 -0.00327094
-0.00357043 0.00380404 -0.00339212
-0.00211767 0.00156974 -0.00295441
-0.000961795 0.00199375 -0.00186752
-0.00109106 0.00281988 -0.00120852
-0.000790848 0.00206378 -0.00132938
0 0 0
0 0 0
-0.000723595 0.00100436 -0.00188904
-0.000706298 0.00143825 -0.00136733
-0.0023643 0.00239217 -0.00306973
0 0 0
0 0 0
-0.000718115 -0.000406022 -0.00216758
0 0 0
-0.000674479 -7.56982e-05 -0.00219383
-0.000673067 0.000164657 -0.00210161
-0.000977186 -0.000132869 -0.00293939
0 0 0
-0.00104435 0.000451001 0.00306467
-0.0083644 -0.00541579 -0.00375628
-0.0079707 -0.00472556 -0.00378748
-0.00823986 -0.00466591 -0.00456045
-0.00214686 0.00152936 0.00297185
-0.00284184 0.0029442 0.00336223
-0.00356156 0.00374575 0.00347751
-0.0137464 0.00188644 0.00549132
0 0 0
-0.000754234 0.00209017 -0.000959104
0 0 0
-0.000776049 0.00232244 -0.000597334
-0.00108394 0.00303317 -0.000823834
-0.0193874 0.000238525 0.00177666
0 0 0
-0.00109726 -0.0030701 -0.000856936
-0.00509467 0.00374973 0.000892394
-0.00255158 0.00107065 0.00416078
-0.0007085 0.000602458 0.00216469
-0.000719142 0.000371751 0.00227426
-0.00256094 -0.00411886 -0.000509942
-0.000736697 -0.00224841 -0.000284349
-0.00266407 -0.00101249 0.0041212
0 0 0
-0.000690604 0.0021265 0.000433451
-0.00102069 0.0028846 0.00094783
0 0 0
-0.00070632 0.00217768 0.000717513
-0.000609584 0.0016063 0.000629871
-0.00068994 0.00197807 0.00102876
-0.00366614 -0.00389323 -0.000711376
-0.00604604 -0.00518983 -0.000950438
-0.00204666 -0.00329609 -0.000524011
-0.00253 0.00116739 -0.00401055
-0.000674042 0.000636905 -0.00202029
-0.000676565 0.000406353 -0.002133
-0.00236916 0.00233357 0.00316686
-0.000743916 0.00097345 0.00200355
-0.00201801 0.00231287 0.00248894
-0.000671471 0.00141705 0.00140742
0 0 0
-0.000929433 0.00193632 0.0018645
-0.00104127 0.00273891 0.00123883
-0.000742736 0.00200864 0.00135062
-0.000692933 -0.00151529 0.00138942
-0.000906946 -0.000963895 0.00193084
-0.000945477 -0.00200573 0.00188452
-0.00216883 -0.00158188 0.00300025
-0.00354618 -0.00378115 0.00349989
-0.019248 0.00202471 0.00118467
-0.02 0 0
-0.00150185 0.00218103 0.000731055
0 0 0
-0.00147947 0.00155031 0.00144116
-0.0175265 0.00238135 0.00341314
-0.0192477 0.00151864 0.00169716
-0.00332357 -0.00217344 -0.00401196
-0.00252519 -0.00231472 -0.00316586
-0.00472878 -0.00365599 -0.00394306
-0.00290597 -0.00297226 -0.00336594
-0.0129974 -0.00510619 0.00429188
-0.0115665 -0.00477619 0.00537268
-0.016479 7.01015e-05 -0.00344149
-0.000728382 -0.00048427 0.00219198
-0.000648375 -0.000189678 0.00165971
0 0 0
-0.0189743 -0.000405696 -0.00316474
-0.02 0 0
-0.00349428 -0.000603341 -0.00412903
-0.0014567 -0.000456559 -0.00277265
-0.00058199 -0.000120168 -0.00164102
-0.00405343 0.00373599 -0.00214455
-0.00795633 0.00579788 -0.00194171
-0.00612595 -0.00180031 0.0052619
-0.00211163 -0.0010097 0.00331863
0 0 0
-0.000701299 -0.00167542 -0.000477678
-0.000763417 -0.00213257 -0.000984236
-0.000782288 -0.00234695 -0.000615199
-0.02 0 0
-0.02 0 0
-0.0188753 0.00305486 -0.00102386
-0.00254076 -0.00404889 0.000657661
-0.000705698 -0.00210019 7.55371e-05
-0.00714538 -0.00502194 0.00431127
-0.00832423 -0.00468869 0.0047679
-0.00859038 -0.00475391 0.00543471
-0.000707727 -0.00203508 0.00102237
0 0 0
-0.00659831 -0.00429839 0.00437879
-0.00661866 -0.00346187 0.00517038
-0.00381067 -0.00144552 0.00391934
-0.00363912 -0.000680912 0.00398201
-0.00774681 -0.00102418 0.00588942
-0.00398325 -0.00218312 0.00378825
-0.00613098 -0.00344694 0.00441022
-0.0021292 -0.00232815 0.00245651
-0.0179167 0.00250926 -0.00141419
-0.0188975 0.00287691 0.00137336
-0.02 0 0
-0.0191901 0.0021567 0.00155582
-0.0135843 -0.0035669 -0.00454139
-0.0136769 -0.00188101 -0.00543559
0 0 0
-0.00101498 -0.00022567 0.00302875
-0.000715106 0.000110348 0.00223587
-0.000704098 -0.000146288 0.00226038
-0.00854012 0.00487255 0.00553548
-0.00713326 0.0051245 0.00434938
0 0 0
-0.000697276 -0.00211955 0.000428832
-0.00103005 -0.00289175 0.000934857
-0.000712537 -0.00216644 0.000709224
-0.0114465 -0.00470889 -0.00538585
-0.0128226 -0.00509656 -0.00439576
-0.0132647 -0.00440016 -0.00445354
-0.0161752 0.00317541 -0.00157772
-0.0162618 0.00240203 -0.00162144
-0.0159232 0.00404359 3.72597e-05
-0.0116932 -0.00566073 -0.00208917
-0.00356113 -0.00391566 0.000778697
-0.00359729 -0.00391139 2.67703e-05
-0.00196849 -0.0032437 0.000660436
-0.00600496 -0.00526611 0.000814747
-0.00553449 -0.00174342 0.00455767
-0.00568893 -0.0034992 0.00358021
-0.00814055 -0.00475767 0.0039077
-0.0038962 -0.0029695 0.00306079
-0.00513313 -0.00175275 0.00286624
-0.00541825 -0.00258283 0.00369584
-0.0051655 -0.00176435 0.00375775
-0.00188916 -0.00059226 0.00250005
-0.00147482 -0.00150783 0.00137242
0 0 0
-0.00509819 -0.00375807 0.000800016
-0.00149921 -0.00217017 0.000645742
-0.00529236 -0.00456577 0.000774383
-0.0016765 -0.00191147 0.00184427
-0.00141706 -0.00215475 0.00123032
0 0 0
-0.00155321 -0.00265194 0.00133728
-0.00379233 -0.00386892 0.00229835
-0.00353286 -0.00400338 0.00157729
-0.000609156 -0.00158965 0.000632628
-0.0161954 0.00150231 0.00413495
-0.0117394 0.00100273 0.00610145
-0.0164032 0.000629029 0.00434845
-0.0143288 0.00183279 0.00471958
-0.02 0 0
-0.0193045 -8.00446e-05 0.00224197
-0.0193005 0.000182852 0.00237258
-0.0189784 0.000222133 0.00311376
-0.016611 -0.00247161 0.00433013
-0.0171076 -0.00327897 0.00361326
-0.0177887 -0.00173807 0.00316127
-0.0164417 -0.00402767 0.0036476
-0.0134751 0.00444767 0.00436289
-0.0153023 0.0038195 0.00408401
-0.0134902 0.00363119 0.00522642
-0.0192807 0.000481958 0.0022686
-0.0173009 0.00104658 0.00428778
-0.0179149 0.00105626 0.0034917
-0.0190994 0.00095135 0.00207892
-0.0174451 -0.00261388 0.00347507
-0.0191687 -0.00110302 0.00211595
-0.0190211 -0.00215733 0.00203995
-0.02 0 0
-0.0189071 -0.0029197 0.00133707
-0.0192101 -0.00220587 0.00151283
-0.02 0 0
-0.0192554 -0.00160001 0.00165436
-0.0192806 -0.00213127 0.00115101
-0.00853622 0.00558752 0.00388691
-0.0082859 0.00478585 0.00487475
-0.00374835 0.00221994 0.00393377
-0.000620347 0.000573908 0.00163304
-0.00182542 0.00123339 0.00252466
-0.00516976 0.00267433 0.00378371
-0.00509712 0.00265577 0.00286138
-0.0051761 0.00175168 0.00284562
-0.00604233 0.00171415 0.00528739
-0.00356639 0.00150785 0.00399696
-0.00200071 0.000630157 0.00332703
-0.00774723 0.00096348 0.00585636
-0.00362383 0.000735464 0.0039232
-0.00358601 8.73133e-06 0.00396709
-0.00512022 0.000868882 0.00383683
-0.00180004 0.000751241 0.00207409
-0.00528229 0.000867791 0.00457987
-0.0020048 1.43898e-05 0.00215955
-0.00141228 0.00220522 0.00131808
0 0 0
-0.00154751 0.00268265 0.00136291
-0.00159322 0.00198415 0.00193177
-0.0118348 0.0047726 0.00474103
-0.0101094 0.00500778 0.00507721
-0.0118088 0.00542546 0.00387443
-0.00651444 0.00357154 0.00526323
-0.00466516 0.00373419 0.00403074
-0.0059841 0.00356146 0.00450215
-0.0065453 0.0044183 0.00445633
-0.0046389 0.00382052 -0.00384787
-0.00645496 0.00379343 -0.00508641
-0.00649574 0.0045562 -0.00417654
-0.0117023 -0.00120051 0.00605684
-0.012039 -0.00299088 0.00506126
-0.00983629 -0.00302289 0.00529185
-0.0133951 -0.00369122 0.00529342
-0.0152469 -0.0040247 0.00426294
-0.0134369 -0.00443287 0.00441849
-0.0141668 -0.00365686 0.00380109
-0.0119107 -0.00571631 0.00205089
-0.0119904 -0.00201108 0.00511855
-0.0121877 -0.00399647 0.00316722
-0.00984456 -0.00411585 0.00306538
-0.00811329 0.00480046 0.00398873
-0.00543916 0.00353966 0.00372676
-0.00368541 0.00389824 0.00232363
-0.00369135 0.00304271 0.00313889
-0.00194566 0.00325796 0.000665696
-0.0035129 0.00390288 8.1247e-05
-0.00590822 0.00529367 0.000877846
-0.0177385 0.00328786 -0.000655078
-0.0172732 0.00415373 -0.00060291
-0.0192253 0.00220707 -0.000476305
-0.0053419 0.00181174 0.00185455
-0.0142657 0.00377504 0.00268566
-0.0121845 0.00406815 0.00190666
-0.0136192 0.00549692 0.00095153
-0.0160415 0.00227468 0.00399263
-0.0178092 0.00240307 0.0027474
-0.013938 0.00360982 0.0045185
-0.0160228 0.00312788 0.00328038
-0.0121887 0.00475026 0.00398433
-0.0121229 0.00311535 0.00501819
-0.00983313 0.00310579 0.00527301
-0.00799364 -0.0056904 -0.00210849
-0.00416654 -0.00366549 -0.00222465
-0.00392298 -0.00383748 -0.00147581
-0.0163758 -0.00402768 -0.00373324
-0.0177516 -0.00170901 -0.00322286
-0.00253823 0.00406804 -0.000467618
-0.000692311 0.00207444 8.43406e-05
-0.00200006 0.00325571 -0.00049059
-0.000721147 0.00220214 -0.000264433
-0.014575 -0.00183826 0.00297242
-0.0163988 -8.19739e-05 0.00423191
-0.0121231 -0.0019647 0.00414642
-0.0180295 -0.00280578 0.00128208
-0.0138508 -0.00536826 0.00100574
-0.0163964 -0.00324332 0.00164846
-0.0164709 -0.00166451 0.00256579
-0.0142498 -0.0036824 0.00294899
-0.0180691 -0.0012991 0.00269387
-0.0179015 -0.000542747 0.00346093
-0.0179458 -0.00191588 0.00270401
-0.0193364 -0.000724282 0.001644
-0.0178282 -0.00258413 0.00276318
-0.00356609 0.00388466 -0.000639142
-0.00384072 0.00386728 -0.00141189
-0.000684404 0.00166106 -0.000459637
-0.0173061 0.00412091 0.000653776
-0.0191274 0.00209584 6.41758e-06
-0.0177296 0.00323729 0.000639792
-0.00977378 0.00414501 0.00307261
-0.0119599 0.0057711 0.00209185
-0.0120731 0.0040829 0.00298479
-0.0120619 0.00403036 0.00399105
-0.0189449 0.00282594 0.00106647
-0.0192889 0.00203647 0.000819498
-0.02 0 0
-0.019248 0.00205298 0.000494639
-0.0184518 0.000635159 0.00170122
-0.0146086 0.00191481 0.00182886
-0.0145353 0.00283548 0.00181307
-0.0192838 -0.000351881 -0.00242763
-0.0172576 -0.00105046 -0.00441516
-0.0144154 0.0028565 -0.00174142
-0.0182342 0.000677937 -0.00167313
-0.0177372 0.00205141 1.80386e-05
-0.0153012 0.00385252 -0.00405287
-0.0168421 0.00236672 -0.0042804
-0.0175714 0.00251391 -0.00351894
-0.0170758 0.00314204 -0.00367037
-0.00331378 -0.00217141 0.00402193
-0.0047257 -0.0036733 0.0040117
-0.00247539 -0.00232074 0.00316472
-0.00288042 -0.00297106 0.00338098
-0.00492958 0.000936447 -0.00380917
-0.0191372 0.00228325 -0.00159286
-0.02 0 0
-0.0192203 0.00165599 -0.00173681
-0.0170441 -0.00326496 -0.00368407
-0.015138 -0.00400387 -0.00430368
-0.0165853 -0.0024202 -0.00439766
-0.0135303 0.00551035 -0.000830942
-0.0185585 0.000409672 0.00245804
-0.0184171 0.000368597 0.0029317
-0.02 0 0
-0.00522269 0.00192158 -0.00180476
-0.0144796 0.0019279 -0.00179806
-0.00992811 0.00170241 5.62149e-06
-0.0179192 0.00130523 -0.00374969
-0.0175567 0.00121658 -0.00444092
-0.019079 0.00110556 -0.0022888
-0.0192694 0.00060404 -0.00252978
-0.02 0 0
-0.0157304 0.0039731 -0.00231242
-0.0142738 0.00373894 -0.00347764
-0.0140092 0.00367354 -0.00431192
-0.013882 0.0046307 -0.00258678
-0.0146258 -0.0018221 0.00204216
-0.0100038 1.57234e-05 0.00173685
-0.00533323 -0.00178743 0.00185453
-0.0171193 0.00305724 0.00357647
-0.0164501 0.00384732 0.003675
-0.0190296 0.00202742 0.00207239
-0.0178283 0.00158216 0.00317066
-0.0192183 0.00229509 -0.000831069
-0.0192033 0.00220259 -0.00120715
-0.02 0 0
-0.0119593 0.00505569 -0.00286498
-0.0116912 0.00589649 -0.00199851
-0.0134368 0.00450939 -0.00421278
-0.011523 0.00503433 -0.0052435
-0.0128282 0.00521225 -0.00412491
-0.00196805 -0.00202767 -8.76271e-05
-0.00509742 -0.002815 -0.00181347
-0.0192884 0.00167993 -0.000906201
-0.0192242 0.00117562 -0.0015283
-0.0178216 0.00257303 -0.00280513
-0.0178787 0.0025644 -0.00206847
-0.0182183 -0.0014652 0.000762819
-0.016585 -0.00333227 0.000844242
-0.0193254 -0.00189186 0.000812951
-0.02 0 0
-0.0193617 -0.00123287 0.00123965
-0.0193917 -0.00145242 0.000816844
-0.0118944 0.00500212 -0.00376273
-0.00998809 0.00528877 -0.00488093
-0.0117265 0.00492291 -0.00457449
-0.0115027 0.00569118 -0.00371941
-0.0192868 0.00139717 0.000898175
-0.0162512 0.00237174 0.00330796
-0.0184363 0.00109512 0.00230409
-0.0165499 0.00244636 0.00256168
-0.00383181 0.00309375 -0.00296026
-0.00209238 0.00234614 -0.00237772
-0.00593679 0.00370946 -0.00430839
-0.0056029 0.00365745 -0.00349012
-0.00975088 0.00539376 -0.00298206
-0.00553693 0.00449633 -0.00171887
-0.00380567 -0.00144326 -0.00395176
-0.0021136 -0.000949248 -0.00333999
-0.00614077 -0.00185434 -0.00525964
-0.0060109 0.00185993 -0.0053405
-0.0018969 0.000717217 -0.00324788
-0.00505559 0.00291711 -0.00175056
-0.00192416 0.00207951 4.17165e-06
-0.00534975 0.00372784 -0.00259279
-0.00512759 0.00375779 -0.00174895
-0.00190759 0.002455 -0.000496137
-0.00143617 0.00134529 -0.00150295
-0.00140963 0.000696562 -0.00214743
0 0 0
-0.00164239 0.00183919 -0.00185277
-0.00137311 0.00124616 -0.002132
0 0 0
-0.00336707 0.00161435 -0.00401359
-0.00363701 0.0023392 -0.00382678
-0.00148079 0.00134677 -0.00263087
-0.000562708 0.00063005 -0.00154447
0 0 0
-0.00145629 -0.000569506 -0.00162707
-0.00144401 0.000115906 -0.00224879
-0.0013635 -0.000394949 -0.00231056
-0.014061 0.00198009 -0.00526725
-0.0163777 0.00244014 -0.0031717
-0.0180952 0.00133566 -0.00302977
-0.0193954 0.000753602 -0.00176009
-0.0193684 0.000280829 -0.00218811
-0.02 0 0
-0.0193944 -0.00138213 -0.000415145
-0.0117907 -0.005414 0.00385799
-0.0101055 -0.00497377 0.00500517
-0.0121016 -0.00476117 0.00395319
-0.0117873 -0.00468076 0.00471134
-0.00334391 0.000101884 -0.00403476
-0.00786425 0.00101397 -0.00595899
-0.00517409 0.000898281 -0.00466144
-0.00344715 0.000842147 -0.00395331
-0.0120287 0.00106862 -0.00576301
-0.0165224 0.000797163 -0.00354748
-0.0145554 0.00194053 -0.00364034
-0.0165012 0.00166567 -0.0033518
-0.00510966 -0.00190722 -0.00181476
-0.0098782 1.06101e-05 -0.00169925
-0.0144645 -0.00179905 -0.00188464
-0.00989399 -0.00168864 4.27429e-05
-0.0164758 -0.00162069 -0.00171992
-0.0165352 -0.00324401 9.6907e-05
-0.00407411 -0.00216965 -0.00378317
-0.00410601 -0.0029146 -0.0029866
-0.0061541 -0.00343848 -0.00427957
-0.00225726 -0.00231146 -0.00242966
-0.00989264 -0.00494844 -0.00487061
-0.0113834 -0.00545077 -0.00386991
-0.0115744 -0.00464708 -0.00472023
-0.0193915 0.000335363 -0.00179731
-0.0194276 0.000417888 -0.00136607
-0.02 0 0
-0.02 0 0
-0.0192502 -0.000586925 -0.00226951
-0.0120854 0.00412021 -0.00179145
-0.0098408 0.00323695 -0.00401022
-0.0123577 0.00314218 -0.00385738
-0.011966 0.00508498 -0.00186867
-0.02 0 0
-0.0138377 -0.00272328 -0.00460339
-0.0138668 -0.00359431 -0.00370314
-0.0116679 -0.0047251 -0.00392295
-0.00793817 0.00588758 0.00193001
-0.00347586 0.004031 0.00160149
-0.00521236 0.00460224 0.000888025
-0.00350968 0.00394565 0.000818994
-0.00565428 -0.00443371 -0.00184055
-0.00529641 -0.00279651 -0.00266258
-0.015777 -0.00237855 -0.00432756
-0.0179532 -0.000565249 -0.00366022
-0.02 0 0
-0.0189046 -0.00304776 -0.00103362
-0.0137309 -0.00362057 0.00458819
-0.0158369 -0.00245096 0.00434825
-0.0135502 -0.00197259 0.00556055
-0.0139528 -0.00279549 0.00471999
-0.02 0 0
-0.0192556 -0.00213419 -0.00115487
-0.0192542 -0.00233278 -0.000779364
-0.0180251 -0.00279322 -0.000595489
-0.0182027 -0.00144868 -0.0013394
-0.0194208 -0.000821126 -0.000847946
-0.0181156 -0.00130178 -0.00205846
-0.0179968 -0.00124026 -0.00278973
-0.0193846 -3.28431e-05 -0.0016103
-0.0189092 -0.00310621 0.00104351
-0.02 0 0
-0.0192593 -0.00241418 0.000785751
-0.00565331 -0.00267931 -0.00353247
-0.00584605 -0.00349068 -0.0034517
-0.00560501 -0.0017956 -0.00450669
-0.0140171 -0.00363981 -0.00279884
-0.0142582 -0.00360196 -0.0018906
-0.0159894 -0.00326419 -0.00246041
-0.013763 -0.00529547 -0.00084541
-0.0119635 -0.00391941 -0.00301255
-0.00974695 -0.00416905 -0.00307332
-0.0121523 -0.00200202 -0.00392979
-0.0119343 -0.00200454 -0.00488264
-0.00980744 -0.00310739 -0.0050824
-0.0118827 -0.00295462 -0.00486442
-0.0118987 -0.00113977 -0.00578233
-0.0193808 -0.00162906 0.000302248
-0.0194098 -0.00156539 -7.09278e-05
-0.02 0 0
-0.0194446 -0.00125587 0.000329541
-0.0174387 -0.00433261 -0.000563286
-0.0192335 -0.00237235 -0.000422422
-0.0178405 -0.0035961 -0.000569962
-0.0192436 -0.0024305 0.00044448
-0.0192137 -0.00231243 2.58693e-05
-0.0179114 -0.00363782 0.000646848
-0.0174248 -0.00438194 0.000677067
-0.0193022 -0.000701625 -0.00174714
-0.017856 -0.00187123 -0.00277384
-0.02 0 0
-0.0193139 -7.31531e-05 -0.00247254
-0.0189992 0.000301996 -0.00323437
-0.0193053 0.000216855 -0.00261807
-0.01936 -0.00124985 -0.000808049
-0.0192965 -0.00121028 -0.00128198
-0.0193234 -0.00176728 -0.00079875
-0.02 0 0
-0.0174053 -0.0025827 -0.00354859
-0.0177345 -0.00257183 -0.00282424
-0.0191521 -0.00106699 -0.00222491
-0.0192255 -0.00159547 -0.00170831
-0.02 0 0
-0.0188813 -0.00294515 -0.00136457
-0.0190014 -0.00214806 -0.00208347
-0.0191865 -0.00222514 -0.00153846
-0.017703 0.00277149 -0.00340955
-0.00879569 -0.00501356 0.00438912
-0.0193754 0.00195847 -0.001359
-0.016581 -0.00124755 0.00209167
-0.000480998 -0.00145544 -0.000994279
-0.019549 -0.000585887 0.00151612
-0.000833706 -0.000536926 -0.00184773
-0.00365914 0.00407217 -0.000460874
-0.00314845 0.00184755 0.00260781
-0.0191215 0.000252095 0.00166315
-0.00755852 0.00500848 -0.00450462
-0.0195744 0.000265697 0.00165468
-0.0185734 -0.000655016 0.00309328
-0.00225707 -0.00265895 -0.00313893
-0.00508547 -0.00129884 -0.00466123
-0.013878 -0.00389535 -0.00465086
-0.00758603 -0.00467284 -0.00453907
-0.00134379 0.00294107 0.000445445
-0.00624022 0.00282402 0.00213906
-0.00150015 -0.00178539 -0.00229727
-0.00594099 -0.0037185 -0.00437155
-0.000402256 0.000545963 -0.00139912
-0.0195075 -0.000262733 0.00196275
-0.00313966 0.0028332 -0.00359871
-0.0149738 -0.00127185 -0.00279559
-0.000580502 -0.00186215 -0.00118306
-0.00864691 0.00525729 -0.00421049
-0.0187875 -0.0023788 0.000790311
-0.00332786 -0.00238079 -0.00175918
-0.0195069 0.0014446 0.0011828
-0.00244361 -0.00298054 -0.000796389
-0.00548566 -0.00373862 -0.00314611
-0.000476506 0.0002963 -0.00187512
-0.0163851 0.00301748 0.00186325
-0.000453106 -0.00142527 0.000984186
-0.0141767 0.0039353 -0.00440955
-0.0148973 0.00341337 0.00132018
-0.00496316 -0.00461449 0.00125254
-0.016773 0.0028488 0.00391227
-0.012472 0.0048108 0.00467931
-0.00531051 0.00390879 -0.00310518
-0.00151217 -0.000858049 -0.0029828
-0.00316444 0.00276589 0.0037102
-0.00297581 0.00065105 -0.00326308
-0.000465837 0.00137664 -0.000971101
-0.000554304 -0.00181826 0.00115742
-0.0196373 -0.000776031 -0.000487162
-0.00224346 0.00263447 -0.00305761
-0.000565519 0.00179678 -0.00114054
-0.000425736 0.000521344 0.0015097
-0.00375894 0.00281434 0.00354277
-0.00135331 0.00179285 -0.00223929
-0.000435852 0.00133879 0.000988722
-0.000408834 -0.000180878 -0.00154004
-0.000474027 -2.24353e-05 -0.00190962
-0.0005114 0.000270764 0.0020043
-0.00861022 -0.00496586 -0.00424345
-0.00224072 0.0025809 0.00309547
-0.0160599 0.00170807 0.00429831
-0.000471301 0.00158705 -0.000473381
-0.000535876 0.00202448 -0.000382998
-0.0178811 0.000316438 0.00341979
-0.00054421 -0.00205509 -0.000402433
-0.0032108 0.00318249 0.000596991
-0.00136217 0.000662626 0.00307282
-0.00138149 -0.00302258 -0.000271631
-0.00148778 -0.000922096 0.00298875
-0.00212138 0.00312397 0.0015052
-0.000495824 0.00190308 0.000513424
-0.00042615 0.00148329 0.000574178
-0.00374294 -0.00409084 -0.000527234
-0.00131897 0.000732911 -0.00292703
-0.00133859 0.00176313 0.00231149
-0.00053569 0.00174093 0.00114049
-0.00144259 -0.00179784 0.00228216
-0.00225555 -0.00263384 0.0031217
-0.014754 0.00269508 0.00408441
-0.0195614 0.00137036 0.00071207
-0.000851995 0.00150386 0.000877794
-0.0185202 0.0018132 0.00256639
-0.00327002 -0.00275204 -0.00369872
-0.0124638 -0.00474731 0.00469201
-0.00227716 -0.000413028 0.00305207
-0.0178962 0.0005398 -0.00250052
-0.000430267 -0.000245795 0.00158251
-0.0195036 -0.000249155 -0.00211161
-0.00201996 -0.000294531 -0.00321761
-0.00529049 0.00449693 -0.00188132
-0.0039418 -0.00163821 0.00409041
-0.000476848 -0.00160898 -0.000488846
-0.0195404 -0.00167255 0.000670423
-0.0194497 0.00199569 -0.000575071
-0.016287 0.00299608 -0.00239338
-0.00135579 -0.0029408 0.000440281
-0.00765371 -0.00470824 0.00473301
-0.000429029 -0.00147842 0.000568377
-0.00595893 -0.00373207 0.004497
-0.00510654 -0.00126794 0.0046275
-0.0039604 -0.00274885 0.00345594
-0.0174002 0.00307885 -0.00159678
-0.0194154 0.00186462 0.00130567
-0.0142289 -0.00263817 -0.00474399
-0.000501286 -8.27015e-05 0.00199505
-0.00761668 0.00482989 0.0048218
-0.000499109 -0.00189353 0.00050968
-0.0122843 -0.00470859 -0.00475296
-0.0149521 0.00275103 -0.00260598
-0.0147894 0.00342455 -0.00124716
-0.0129215 -0.00420646 -0.00292672
-0.00367851 -0.00409324 0.000593833
-0.00654913 -0.00275174 0.0043146
-0.00530288 -0.00381297 0.00324927
-0.0062395 -0.00281701 0.00211711
-0.00322995 -0.00119169 0.00259856
-0.00339686 -0.00172321 0.00300939
-0.000841093 -0.00145814 0.000805375
-0.00323236 -0.00316814 0.000486674
-0.000885881 -0.00174059 0.00113375
-0.00215436 -0.00309131 0.00149393
-0.0147917 0.00130458 0.00486215
-0.0195014 8.86385e-05 0.00204832
-0.0167003 -0.00307852 0.00401907
-0.0177156 -0.00285901 0.00331109
-0.0141126 0.00388877 0.00454633
-0.0185198 0.000926631 0.00311506
-0.0185293 -0.00198655 0.00257628
-0.0194235 -0.00191341 0.00126293
-0.019526 -0.00149231 0.00113427
-0.00877288 0.00507682 0.00448036
-0.00224562 0.00138373 0.00306612
-0.00330149 0.00236232 0.00307723
-0.00617294 0.00203332 0.00368246
-0.00372101 0.00110178 0.00414729
-0.00495883 0.000620054 0.00459454
-0.00336874 0.000616442 0.00316644
-0.000876356 0.00177591 0.00121352
-0.011494 0.00500137 0.00440961
-0.00586917 0.00384862 0.00457407
-0.00580779 0.0039952 -0.00435116
-0.0131125 -0.00356199 0.00442181
-0.0114074 -0.00230286 0.00539946
-0.0140048 -0.00394882 0.00464373
-0.0131893 -0.00427019 0.00303781
-0.0115556 -0.00300442 0.00391602
-0.0051271 0.00387334 0.00332624
-0.0036199 0.00411267 0.000626601
-0.0184788 0.00298957 -0.000415072
-0.00997611 0.00133981 0.00133462
-0.0131402 0.00439421 0.00214267
-0.0160126 0.00287428 0.0036739
-0.0115925 0.00385114 0.00455449
-0.00538454 -0.00443263 -0.00198723
-0.0176724 -0.00284176 -0.00338069
-0.00135441 0.00297316 -0.000247603
-0.0149924 -0.00135449 0.00357273
-0.0163415 -0.00367681 0.00124436
-0.0164301 -0.00246572 0.0025387
-0.0175311 -0.00153828 0.00329822
-0.0187162 -0.00159684 0.00209868
-0.00238067 0.00297592 -0.000762752
-0.0184827 0.00291468 0.000435766
-0.0115236 0.00455954 0.00304847
-0.0194939 0.00180255 0.000603665
-0.0185316 0.00198684 -0.00267387
-0.0165461 0.00194434 0.00128759
-0.0185818 -0.000640454 -0.00328035
-0.0187659 0.00121909 -0.00254144
-0.016395 0.00195138 -0.00124457
-0.0168041 0.0029509 -0.00397935
-0.00324914 -0.00275273 0.00371664
-0.00612489 0.00225161 -0.00282627
-0.0194775 0.00156093 -0.00120179
-0.0166429 -0.00304898 -0.00408361
-0.0129049 0.00509635 -0.00205348
-0.0191142 0.000547048 0.00198361
-0.00989451 0.00136712 -0.00131876
-0.018561 0.00111282 -0.00337435
-0.0195495 0.000319364 -0.00192077
-0.0145106 0.00403302 -0.00315021
-0.00997224 -0.0013102 0.00140756
-0.0177392 0.00267507 0.00332363
-0.0195176 0.00158699 -0.000723354
-0.0113822 0.00536769 -0.00290719
-0.0124007 0.00493269 -0.0045298
-0.00322415 -0.00190399 -0.00128071
-0.0186416 0.00201612 -0.00181875
-0.0179031 -0.00227839 0.000559924
-0.0195982 -0.00112835 0.000743066
-0.011275 0.00525112 -0.00422808
-0.0177929 0.00196343 0.0022649
-0.00378454 0.00289695 -0.00339876
-0.00647993 0.00435402 -0.00274349
-0.00396945 -0.00162862 -0.00411069
-0.00357004 0.0012091 -0.00416046
-0.00318794 0.00258101 -0.00118362
-0.00337903 0.00299455 -0.00169953
-0.000813289 0.000803005 -0.00143982
-0.000859149 0.00112712 -0.00171434
-0.00203586 0.00149181 -0.0030701
-0.000814582 -0.000215831 -0.00157653
-0.0163993 0.00189578 -0.00368336
-0.0196083 0.000413566 -0.00146347
-0.0187777 -0.00232154 -0.000396958
-0.0114389 -0.004981 0.00438253
-0.00485012 0.000675888 -0.00467979
-0.0150413 0.00142011 -0.00404782
-0.00982163 -0.00134379 -0.00132493
-0.0165111 -0.00249658 -0.00119202
-0.00409228 -0.00272063 -0.00340306
-0.0111104 -0.00496795 -0.0043583
-0.0196249 0.0002034 -0.00121146
-0.0195364 -0.000556654 -0.00161824
-0.0116023 0.0039592 -0.00283861
-0.0195103 -0.00149951 -0.00115798
-0.0128438 -0.00350823 -0.00429569
-0.004901 0.00464921 0.00131913
-0.006499 -0.0035816 -0.00280835
-0.0174739 -0.00147633 -0.00337665
-0.019463 -0.00204823 -0.000552217
-0.0142848 -0.00271572 0.00482135
-0.0195435 -0.0015887 -0.000658184
-0.0176876 -0.00217823 -0.00157081
-0.0188466 -0.000786164 -0.00179874
-0.01946 -0.00211402 0.000554124
-0.00667148 -0.00283628 -0.00415711
-0.0145377 -0.00396537 -0.00203217
-0.0114581 -0.00302158 -0.00374263
-0.0113919 -0.00230268 -0.00516646
-0.0196381 -0.00112583 0.000133341
-0.0185429 -0.00324932 -0.000353899
-0.018565 -0.00329385 0.000423772
-0.018646 -0.0015693 -0.00217907
-0.0194961 0.000122755 -0.00222005
-0.019593 -0.00101724 -0.000742345
-0.0184821 -0.0019617 -0.00265968
-0.0194086 -0.00192453 -0.00129

CELL_DATA 236
TENSORS stress float
-6292.91 -441.336 331.575
-441.336 -1484.97 227.712
331.575 227.712 -102.257

-5511.67 20.2997 139.121
20.2997 -187.007 285.854
139.121 285.854 73.8594

-6742.87 -1501.04 1373.24
-1501.04 -3402.24 -234.432
1373.24 -234.432 -3867.73

-6200.35 24.9838 -348.963
24.9838 -1265.63 121.884
-348.963 121.884 -1441.01

-6337.29 -1369.61 -1064.58
-1369.61 -3370.83 313.878
-1064.58 313.878 -3897.65

-6619.22 578.686 -1357.52
578.686 -4386.41 -112.766
-1357.52 -112.766 -3998.44

-7713.03 -141.351 -574.49
-141.351 -4869.19 -111.17
-574.49 -111.17 -5011.49

-5212.31 -1.36298 26.8518
-1.36298 -345.94 24.3868
26.8518 24.3868 -361.85

-6655.19 210.451 369.863
210.451 -1501.62 -84.8794
369.863 -84.8794 -1892.04

-8551.05 -340.026 -542.778
-340.026 -5811.07 12.9109
-542.778 12.9109 -5530.25

-4745.34 -129.818 -21.5142
-129.818 365.323 89.8246
-21.5142 89.8246 213.772

-6172.89 -355.132 -1518.15
-355.132 -4456.55 -10.2881
-1518.15 -10.2881 -3476.58

-5151.49 295.69 -886.253
295.69 -1363.14 76.8885
-886.253 76.8885 -437.56

-6359.94 -411.923 -258.463
-411.923 -1457.21 -161.947
-258.463 -161.947 -187.494

-5444.6 7.79327 54.1411
7.79327 157.25 -131.598
54.1411 -131.598 -457.874

-5065.37 -75.4885 -157.181
-75.4885 645.485 -149.482
-157.181 -149.482 370.023

-4784.63 72.844 4.84594
72.844 238.87 -61.9687
4.84594 -61.9687 138.228

-5437.04 720.973 100.193
720.973 -1192.17 108.789
100.193 108.789 -1926.45

-6636.05 258.367 133.913
258.367 -539.96 -45.7051
133.913 -45.7051 -438.41

-6065.18 -628.438 -815.793
-628.438 -1786.41 70.6328
-815.793 70.6328 -1863.89

-5084.14 -36.8456 149.572
-36.8456 593.056 -23.5337
149.572 -23.5337 334.714

-6053.97 574.287 -1308.9
574.287 -4177.9 -53.6669
-1308.9 -53.6669 -3644.45

-6235.73 144.216 -1706.36
144.216 -4433.14 -162.466
-1706.36 -162.466 -2869.96

-5397.33 129.747 -47.4447
129.747 -802.677 -76.1631
-47.4447 -76.1631 -160.479

-6140.53 20.484 130.265
20.484 -373.751 -73.5832
130.265 -73.5832 -516.616

-6766.77 -1437.59 -1210.88
-1437.59 -3458.56 234.682
-1210.88 234.682 -4022.79

-5206.32 21.9082 -120.605
21.9082 68.7013 267.502
-120.605 267.502 288.366

-6425.21 664.027 -214.128
664.027 -2935.66 69.8338
-214.128 69.8338 -2984.39

-5924.84 -184.3 -135.834
-184.3 -1046.54 -250.363
-135.834 -250.363 -1342.18

-6338.76 -1417.67 -1276.41
-1417.67 -3501.35 314.632
-1276.41 314.632 -4036.78

-6037.07 -477.146 -183.711
-477.146 -1284.53 -123.999
-183.711 -123.999 -1843.48

-5305.33 -177.28 -162.209
-177.28 -45.2647 -30.9299
-162.209 -30.9299 -11.916

-5835.04 248.908 -1638.43
248.908 -4056.28 -165.927
-1638.43 -165.927 -2571.81

-6280.18 -292.132 -186.99
-292.132 -876.625 -82.9874
-186.99 -82.9874 -1042.27

-5930.2 -1396.4 1083.88
-1396.4 -3088.98 -330.133
1083.88 -330.133 -3662.01

-5136.52 138.462 -95.8364
138.462 616.537 147.868
-95.8364 147.868 342.678

-6040.37 -200.429 -70.8051
-200.429 -343.082 -68.6546
-70.8051 -68.6546 -365.83

-4798.92 171.567 59.7273
171.567 158.642 -34.118
59.7273 -34.118 863.301

-5454.58 -193.083 9.7562
-193.083 -561.607 -35.5218
9.7562 -35.5218 -178.37

-4659.27 130.456 -40.7145
130.456 278.135 -171.494
-40.7145 -171.494 245.824

-5328.73 12.5819 -173.653
12.5819 18.8626 41.6255
-173.653 41.6255 63.5729

-5804.39 -339.374 -663.349
-339.374 -1647.69 -180.333
-663.349 -180.333 -1435.51

-5450.82 103.091 35.1961
103.091 -762.265 28.3196
35.1961 28.3196 -134.716

-6187.82 66.4044 -389.59
66.4044 -1459.81 108.317
-389.59 108.317 -1684.55

-6070.56 1337.14 -1063.01
1337.14 -3090.79 -262.172
-1063.01 -262.172 -3631.42

-6666.23 -1432.09 1195.33
-1432.09 -3426.78 -231.633
1195.33 -231.633 -4007.1

-5932.35 720.01 471.261
720.01 -3741.58 -69.4848
471.261 -69.4848 -3878.87

-6356.27 406.365 -238.23
406.365 -1441.49 127.681
-238.23 127.681 -247.535

-6752.47 1410.57 -1171.79
1410.57 -3420.92 -223.908
-1171.79 -223.908 -4047.62

-6664.24 520.649 1325.91
520.649 -4775.55 51.0929
1325.91 51.0929 -4144.08

-5421.83 209.108 197.743
209.108 -316.587 -56.6006
197.743 -56.6006 -277.986

-5460.21 573.902 -883.162
573.902 -1545.12 -91.4406
-883.162 -91.4406 -1487.27

-5671.05 1361.25 1110.86
1361.25 -2846.73 279.879
1110.86 279.879 -3390.03

-5886.62 -257.805 -1457.71
-257.805 -4072.78 26.259
-1457.71 26.259 -3255.29

-5706.87 -20.6598 -1710.2
-20.6598 -3979.79 118.584
-1710.2 118.584 -2468.14

-6153.76 205.018 1679.28
205.018 -4340.11 173.61
1679.28 173.61 -2779.43

-4956.86 -36.0833 -73.1743
-36.0833 88.2187 -205.444
-73.1743 -205.444 249.674

-6387.74 403.797 228.643
403.797 -1502.57 -141.186
228.643 -141.186 -198.143

-5536.29 -242.306 -29.6293
-242.306 -404.299 -74.1731
-29.6293 -74.1731 -411.67

-6557.78 1438.1 -486.155
1438.1 -3711.81 -91.7388
-486.155 -91.7388 -4611.94

-6108.67 1652.6 -368.906
1652.6 -2810.05 -345.389
-368.906 -345.389 -4076.11

-6003.47 -102.709 -320.172
-102.709 -2244.76 224.513
-320.172 224.513 -2013.23

-6209.69 -1661.7 -392.219
-1661.7 -2868.07 352.142
-392.219 352.142 -4176.37

-6368.76 416.735 255.67
416.735 -1794.43 59.6623
255.67 59.6623 -1458.88

-5392.21 379.505 698.511
379.505 -2055.69 -102.005
698.511 -102.005 -947.417

-5605.74 -703.321 -36.0644
-703.321 -1261.27 141.856
-36.0644 141.856 -2016.76

-5857.18 -394.902 657.195
-394.902 -1882.02 200.801
657.195 200.801 -1466.52

-5873.98 186.703 381.185
186.703 -2253.72 -335.783
381.185 -335.783 -2123.43

-5847.65 1635.15 515.606
1635.15 -2657.91 341.59
515.606 341.59 -3927.46

-5690.96 1471.09 640.682
1471.09 -3034.25 96.3447
640.682 96.3447 -3829.05

-5354.41 -19.4884 -26.1807
-19.4884 -385.293 -44.5961
-26.1807 -44.5961 -393.778

-5162.5 416.064 -694.89
416.064 -1852 105.095
-694.89 105.095 -857.989

-5534.83 578.986 875.879
578.986 -1587.76 1.38892
875.879 1.38892 -1595.15

-6620.72 1400.63 1185.39
1400.63 -3401.79 223.467
1185.39 223.467 -3998.32

-5985.18 -615.813 776.083
-615.813 -1820.68 -76.7108
776.083 -76.7108 -1898.16

-6400.28 -404.323 234.079
-404.323 -1508.58 161.377
234.079 161.377 -184.147

-6345.93 -297.184 -279.13
-297.184 -1030.33 -379.918
-279.13 -379.918 -931.975

-6318.55 -1362.84 -743.418
-1362.84 -3354.93 109.187
-743.418 109.187 -4030.98

-8001.7 501.226 404.804
501.226 -5080.76 -16.9734
404.804 -16.9734 -5183.11

-6023.82 -638.495 -818.136
-638.495 -1807.07 152.718
-818.136 152.718 -2038.49

-5538.36 -148.975 -30.4277
-148.975 -682.963 31.3928
-30.4277 31.3928 -190.904

-4643.13 -153.692 -19.497
-153.692 347.974 107.433
-19.497 107.433 258.63

-5829.92 -206.164 442.663
-206.164 -1901.38 209.85
442.663 209.85 -1490.27

-7094.73 -160.82 200.977
-160.82 -3113.6 -58.8495
200.977 -58.8495 -2795.43

-6449.67 -321.168 1400.04
-321.168 -4575.43 11.4094
1400.04 11.4094 -3709.28

-6088.16 132.299 1864.42
132.299 -4336.44 110.215
1864.42 110.215 -2877.38

-5514.31 -131.237 -215.952
-131.237 -1894.67 -100.15
-215.952 -100.15 -1968.29

-5377.62 -49.4175 -48.6244
-49.4175 -428.231 92.2381
-48.6244 92.2381 -164.232

-5570.12 -180.108 17.4698
-180.108 -614.288 92.0106
17.4698 92.0106 -488.22

-6659.49 -1446.11 -502.972
-1446.11 -3783.95 109.718
-502.972 109.718 -4684.12

-6125.28 1627.42 -731.953
1627.42 -3384.25 24.4876
-731.953 24.4876 -4037.94

-6357.09 -1627.82 535.357
-1627.82 -2928.72 -375.581
535.357 -375.581 -4228.9

-5613.34 -317.122 229.922
-317.122 -343.881 9.75817
229.922 9.75817 -442.271

-5514.52 -715.333 100.053
-715.333 -1212.11 -71.4443
100.053 -71.4443 -1965.7

-4817.07 91.9203 9.66151
91.9203 330.763 87.0331
9.66151 87.0331 149.774

-5644.24 -1467.35 639.31
-1467.35 -2957.85 -138.438
639.31 -138.438 -3762.9

-5150.93 19.6902 -150.029
19.6902 624.388 31.0762
-150.029 31.0762 321.743

-5373.22 -53.131 6.03182
-53.131 -29.6276 50.251
6.03182 50.251 -428.276

-5429.37 -286.592 203.706
-286.592 -199.729 -106.091
203.706 -106.091 -53.9374

-6138.68 -264.961 166.581
-264.961 -1142.52 73.6746
166.581 73.6746 -1460.84

-6688.48 -1467.44 -1320.02
-1467.44 -3437.69 207.794
-1320.02 207.794 -3927.1

-5395.95 43.5622 -155.74
43.5622 297.685 -75.7674
-155.74 -75.7674 297.291

-5967.69 -81.4402 1720.35
-81.4402 -4214.35 -92.804
1720.35 -92.804 -2653.3

-4765.2 -143.218 31.4541
-143.218 363.731 -108.416
31.4541 -108.416 194.664

-5881.28 -1626.9 508.396
-1626.9 -2655.02 -348.25
508.396 -348.25 -3957.44

-4710.26 -148.41 61.8628
-148.41 334.49 -69.4552
61.8628 -69.4552 260.445

-6289.32 -321.253 262.992
-321.253 -778.666 76.2589
262.992 76.2589 -727.817

-5978.03 -224.411 17.4556
-224.411 -342.652 89.1294
17.4556 89.1294 -378.295

-5678.63 92.5151 84.1348
92.5151 90.7372 -66.8258
84.1348 -66.8258 367.452

-5214.78 -12.7102 15.9014
-12.7102 -276.755 -31.992
15.9014 -31.992 -249.61

-6264.95 -6.72317 90.2168
-6.72317 -652.78 97.6085
90.2168 97.6085 -971.358

-5457.44 42.3272 -148.403
42.3272 -137.38 226.369
-148.403 226.369 -107.968

-6587.14 -230.363 165.128
-230.363 -354.533 88.7136
165.128 88.7136 -290.615

-6626.43 -190.845 394.722
-190.845 -1655.73 138.883
394.722 138.883 -1970.96

-5555.54 -196.542 141.303
-196.542 -1062.41 388.107
141.303 388.107 -873.071

-7731.75 -505.457 363.891
-505.457 -4830.17 72.0192
363.891 72.0192 -4893.05

-6141.97 -379.423 294.731
-379.423 -1586.26 -92.8734
294.731 -92.8734 -1113.04

-7513.88 -605.853 280.899
-605.853 -4844.76 72.0344
280.899 72.0344 -4738.74

-5621.35 -178.365 312.667
-178.365 -1830.02 311.078
312.667 311.078 -1766.58

-5368.94 -84.9083 97.8498
-84.9083 537.205 -126.832
97.8498 -126.832 -60.8721

-6016.81 -109.915 -1815.9
-109.915 -4293.25 131.415
-1815.9 131.415 -2726.01

-5624.64 250.446 -83.566
250.446 -723.243 47.9898
-83.566 47.9898 -253.915

-6310.59 534.485 -277.669
534.485 -1543.06 193.648
-277.669 193.648 -84.0711

-4944.58 18.8495 136.887
18.8495 794.397 -235.768
136.887 -235.768 444.566

-5821.96 -435.395 -717.779
-435.395 -1875.03 -191.106
-717.779 -191.106 -1480.1

-5883.47 666.281 -901.413
666.281 -1749.94 -123.179
-901.413 -123.179 -1864.06

-6724.82 1537.73 -1280.38
1537.73 -3492.29 -271.174
-1280.38 -271.174 -4039.22

-6029.4 1508.24 -1240.68
1508.24 -3190.54 -308.106
-1240.68 -308.106 -3672.81

-5714.57 -52.5049 138.226
-52.5049 -348.487 -259.163
138.226 -259.163 -90.4726

-5924.66 346.75 461.236
346.75 -1919.2 -191.991
461.236 -191.991 -1531.63

-5826.55 255.108 239.396
255.108 -1280.23 -240.693
239.396 -240.693 -1171.04

-6561.08 117.655 172.792
117.655 -639.147 -25.2935
172.792 -25.2935 -337.082

-5059.19 196.797 -47.5464
196.797 4.54647 13.9808
-47.5464 13.9808 10.9184

-4821.94 21.0696 2.4146
21.0696 594.344 -40.448
2.4146 -40.448 83.5696

-5818.16 142.455 466.739
142.455 -805.329 -92.882
466.739 -92.882 -1299.44

-7327.8 638.304 390.761
638.304 -4679.46 -74.9198
390.761 -74.9198 -4561.57

-4673.01 43.6045 23.0566
43.6045 532.576 -225.261
23.0566 -225.261 759.208

-5192.99 -99.9981 -139.58
-99.9981 609.948 -33.0307
-139.58 -33.0307 301.968

-5168.06 -41.9167 157.274
-41.9167 615.952 48.6121
157.274 48.6121 336.447

-5158.95 44.9824 139.175
44.9824 536.711 232.72
139.175 232.72 489.704

-5121.24 127.143 -82.0951
127.143 1688 -97.4222
-82.0951 -97.4222 1438.45

-4896.86 -25.7681 211.902
-25.7681 707.886 186.888
211.902 186.888 394.479

-5472.85 210.739 -231.151
210.739 236.192 241.532
-231.151 241.532 506.128

-6244.88 146.837 -24.903
146.837 315.911 -5.42882
-24.903 -5.42882 252.911

-5108.67 -217.892 -206.409
-217.892 282.891 -284.108
-206.409 -284.108 212.026

-5150.79 26.1171 36.3852
26.1171 -307.092 33.3648
36.3852 33.3648 -287.118

-5963.89 -754.735 106.515
-754.735 -1249.5 -114.027
106.515 -114.027 -1892.96

-6666.02 63.7375 -2.59131
63.7375 -701.964 179.846
-2.59131 179.846 -704.868

-5941.61 80.5737 -114.187
80.5737 77.7392 103.76
-114.187 103.76 438.305

-5418.01 -306.714 -278.161
-306.714 -32.9107 10.411
-278.161 10.411 -215.077

-4901.83 -274.223 -406.601
-274.223 1241.59 -96.1641
-406.601 -96.1641 1797.02

-5404.19 -8.63261 -90.0581
-8.63261 -352.736 -150.589
-90.0581 -150.589 -143.539

-6385.67 520.971 286.545
520.971 -1557.98 -220.621
286.545 -220.621 -48.5868

-5506.9 697.427 -18.6538
697.427 -1206.75 -121.184
-18.6538 -121.184 -1971.72

-5798.37 -205.621 -33.9033
-205.621 -281.741 65.4825
-33.9033 65.4825 -153.752

-5738.53 35.2158 -78.2801
35.2158 -602.717 68.1565
-78.2801 68.1565 -537.806

-5999.75 197.146 -312.704
197.146 -911.529 49.2613
-312.704 49.2613 -659.134

-6270.92 326.36 -449.194
326.36 -1824.56 98.2229
-449.194 98.2229 -1319.96

-5790.05 616.168 -779.651
616.168 -2149.53 -72.8777
-779.651 -72.8777 -1868.14

-5897.07 447.026 -170.356
447.026 -1351.52 165.801
-170.356 165.801 -1720.44

-6172.22 -871.145 -112.02
-871.145 -1452.38 40.1651
-112.02 40.1651 -2178.51

-5601.05 -246.877 -235.392
-246.877 478.639 -56.2927
-235.392 -56.2927 913.797

-6367.49 -1544.62 -568.382
-1544.62 -2986.55 354.707
-568.382 354.707 -4304.96

-5971.11 -616.193 887.698
-616.193 -2044.42 25.7335
887.698 25.7335 -2017.52

-6662.53 -280.885 -224.603
-280.885 -1849.21 -147.897
-224.603 -147.897 -1386.15

-5062.71 243.693 935.531
243.693 -1490.19 -183.595
935.531 -183.595 -423.831

-5895.95 -514.349 633.545
-514.349 -2414.47 223.773
633.545 223.773 -2330.91

-6570.93 -267.803 160.507
-267.803 -1736.13 166.586
160.507 166.586 -1400.55

-5240.95 -60.4954 1.38807
-60.4954 -496.62 53.6188
1.38807 53.6188 -82.3457

-5555.1 -124.521 2.43743
-124.521 -712.729 -35.3246
2.43743 -35.3246 -166.523

-6622.72 155.895 -173.66
155.895 -295.199 -0.184149
-173.66 -0.184149 -251.478

-6283.49 -1468.74 1287.11
-1468.74 -3352.29 -301.525
1287.11 -301.525 -3872.4

-5646.13 211.539 79.8231
211.539 -647.051 -86.7969
79.8231 -86.7969 -198.042

-5768.41 132.558 108.295
132.558 -106.821 28.9325
108.295 28.9325 233.985

-7784.63 -246.533 -631.821
-246.533 -4843.09 -86.8515
-631.821 -86.8515 -4988

-6666.03 40.2612 -40.2513
40.2612 -636.701 -196.556
-40.2513 -196.556 -731.805

-5731.02 -526.172 900.185
-526.172 -1830.98 253.447
900.185 253.447 -1739.28

-6313.58 -427.194 1762.51
-427.194 -4429.99 -21.8184
1762.51 -21.8184 -3775.25

-5270.57 125.841 54.4397
125.841 405.433 158.187
54.4397 158.187 453.846

-6634.81 -43.1814 30.3563
-43.1814 -660.496 -203.295
30.3563 -203.295 -577.641

-6304.4 -452.767 -276.034
-452.767 -1468.97 -216.124
-276.034 -216.124 -112.871

-6316.73 -1476.8 771.304
-1476.8 -3410.44 -106.225
771.304 -106.225 -4147.74

-4908.49 -194.843 206.083
-194.843 1302.13 35.4357
206.083 35.4357 1582.16

-4769.72 155.456 101.352
155.456 369.937 118.763
101.352 118.763 221.254

-6425.55 -372.931 -220.593
-372.931 -1743.48 -176.266
-220.593 -176.266 -1369.64

-5982.8 -724.963 623.303
-724.963 -2122.76 58.6299
623.303 58.6299 -2261.17

-6872.24 205.064 -243.486
205.064 -2572.49 27.3939
-243.486 27.3939 -2751.86

-6061.08 1045.17 -741.403
1045.17 -3835.93 45.0076
-741.403 45.0076 -3988.01

-5066.24 -43.2596 146.957
-43.2596 103.859 308.224
146.957 308.224 331.471

-5864.99 -432.127 -311.847
-432.127 -1447.33 -192.563
-311.847 -192.563 -1720.86

-5508.45 177.501 -276.625
177.501 -468.475 56.1038
-276.625 56.1038 -269.597

-6084.94 94.9267 -40.2313
94.9267 -819.811 95.6087
-40.2313 95.6087 -473.422

-5557.8 -152.324 1.29282
-152.324 -575.658 -146.533
1.29282 -146.533 -483.361

-4811.86 232.94 142.33
232.94 294.192 34.4027
142.33 34.4027 75.7977

-6588.27 389.151 -176.166
389.151 -2044.2 111.092
-176.166 111.092 -1620.75

-5332.89 143.774 -237.352
143.774 -719.297 399.448
-237.352 399.448 -828.959

-7358.44 358.062 -541.229
358.062 -4595.04 44.1462
-541.229 44.1462 -4479.41

-7166.46 297.164 -653.916
297.164 -4404.54 97.476
-653.916 97.476 -4491.62

-5199.29 345.072 -348.12
345.072 -1308.48 350.004
-348.12 350.004 -1332.37

-8014.37 -226.279 -567.005
-226.279 -5333.93 -53.3212
-567.005 -53.3212 -5095.09

-5801.19 -248.278 87.8351
-248.278 -761.726 157.363
87.8351 157.363 -787.414

-6776.59 -507.576 1313.51
-507.576 -4956.67 -88.1725
1313.51 -88.1725 -4703.93

-5887.49 672.142 28.1426
672.142 -2142.95 -149.757
28.1426 -149.757 -2590.16

-4706.49 78.5241 45.6775
78.5241 432.948 313.479
45.6775 313.479 693.236

-4596.22 -89.2482 148.918
-89.2482 1029.94 -30.5475
148.918 -30.5475 390.933

-5687.8 -161.03 143.015
-161.03 282.165 151.975
143.015 151.975 -313.926

-6640.51 -23.95 -63.6784
-23.95 -588.134 209.646
-63.6784 209.646 -570.275

-6177.67 145.329 68.6077
145.329 -1098.24 -84.1348
68.6077 -84.1348 -939.242

-5500.61 -350.653 -307.432
-350.653 -244.821 107.94
-307.432 107.94 -7.4464

-5093.22 82.4413 122.528
82.4413 75.7505 -230.329
122.528 -230.329 267.103

-8003.42 -303.26 930.575
-303.26 -6368.99 -129.313
930.575 -129.313 -6062.5

-6821.29 544.598 1412.03
544.598 -4580.17 76.9475
1412.03 76.9475 -4108.29

-6189.09 -131.128 240.537
-131.128 529.026 -121.034
240.537 -121.034 729.263

-6205.38 1501.67 1260.24
1501.67 -3305.31 299.97
1260.24 299.97 -3772.49

-5499.84 17.7351 16.0449
17.7351 274.773 -82.5101
16.0449 -82.5101 296.291

-4876.9 -146.368 99.0646
-146.368 46.0514 -36.7765
99.0646 -36.7765 665.912

-5998.42 -82.4426 0.905212
-82.4426 -481.136 -132.673
0.905212 -132.673 -271

-6274.59 232.902 426.562
232.902 -1794.84 -134.278
426.562 -134.278 -1224.94

-6183.36 1765.11 521.554
1765.11 -2849.41 309.057
521.554 309.057 -4088.85

-5100.04 96.7499 239.054
96.7499 577.639 131.232
239.054 131.232 505.517

-6051.23 1588.77 720.511
1588.77 -3219 29.9555
720.511 29.9555 -3871.54

-6197.14 296.956 196.174
296.956 -1738.02 -175.739
196.174 -175.739 -1615.68

-5916.23 234.455 686.114
234.455 -2517.04 -179.729
686.114 -179.729 -2297.32

-6124.47 1793.61 -548.192
1793.61 -2817.8 -315.343
-548.192 -315.343 -4101.35

-5928.37 -80.9162 -171.138
-80.9162 -335.73 -187.692
-171.138 -187.692 -445.972

-5897.82 -22.3736 6.65051
-22.3736 -117.145 -10.8568
6.65051 -10.8568 37.0179

-5929.85 47.9566 5.05166
47.9566 505.62 30.3876
5.05166 30.3876 540.897

-5427.81 93.6348 245.231
93.6348 1057.26 57.1008
245.231 57.1008 745.343

-7292.56 864.325 -203.919
864.325 -5372.75 -74.3192
-203.919 -74.3192 -5565.45

-5516.87 899.416 -2.67314
899.416 -1280.74 94.4876
-2.67314 94.4876 -1689.26

-5435.61 849.188 -92.3562
849.188 -1262.64 -191.381
-92.3562 -191.381 -1778.07

-5863.36 607.465 818.502
607.465 -2176.13 35.4687
818.502 35.4687 -1814.77

-5658.08 -144.957 2024.67
-144.957 -3963.32 -205.006
2024.67 -205.006 -2576.26

-6155.31 939.638 716.183
939.638 -3726.49 50.589
716.183 50.589 -3854.09

-6037.68 646.311 926.724
646.311 -1797.67 63.9598
926.724 63.9598 -1935.95

-6809.58 1526.52 1301.69
1526.52 -3537.67 258.743
1301.69 258.743 -4036.93

