# vtk DataFile Version 3.0
vtk output at time 0.5
ASCII
DATASET UNSTRUCTURED_GRID
POINTS 1331 float
0 0 0 0 0 0.05 0 0 0.1 
0 0 0.15 0 0 0.2 0 0.05 0 
0 0.05 0.05 0 0.05 0.1 0 0.05 0.15 
0 0.05 0.2 0 0.1 0 0 0.1 0.05 
0 0.1 0.1 0 0.1 0.15 0 0.1 0.2 
0 0.15 0 0 0.15 0.05 0 0.15 0.1 
0 0.15 0.15 0 0.15 0.2 0 0.2 0 
0 0.2 0.05 0 0.2 0.1 0 0.2 0.15 
0 0.2 0.2 0.0422216 -0.00552787 -0.00534876 0.0436813 -0.00535818 0.0473261 
0.0446968 -0.00560362 0.10005 0.0439829 -0.00557189 0.152735 0.0420814 -0.00555053 0.20547 
0.0440749 0.047439 -0.00564001 0.0441255 0.0474216 0.205642 0.0444457 0.100166 -0.00556984 
0.0442849 0.100026 0.205461 0.0445233 0.152818 -0.00560417 0.0444517 0.152664 0.205701 
0.0420881 0.205723 -0.00525911 0.0436972 0.205397 0.0474351 0.0447838 0.205577 0.100096 
0.044087 0.205569 0.152718 0.0420241 0.205645 0.205468 0.0874461 -0.00689717 -0.00661522 
0.0876944 -0.00756336 0.0461956 0.0879796 -0.00775599 0.0998699 0.0867758 -0.00760251 0.153611 
0.087358 -0.00695231 0.20679 0.0872944 0.0460738 -0.00725508 0.0872341 0.0461784 0.207618 
0.0877338 0.0999231 -0.00781401 0.0881612 0.0999797 0.207898 0.0871354 0.154035 -0.00793105 
0.0874021 0.153813 0.207869 0.0874915 0.207285 -0.0066092 0.0873977 0.207774 0.0464026 
0.0882672 0.207814 0.1001 0.0869413 0.207561 0.153719 0.087472 0.207033 0.206895 
0.13286 -0.00606313 -0.00563912 0.131161 -0.00607352 0.0472679 0.130148 -0.00581089 0.100188 
0.13094 -0.00588704 0.152745 0.13274 -0.00609806 0.205537 0.131064 0.0472288 -0.00640267 
0.131135 0.0471424 0.206421 0.130064 0.100121 -0.00616257 0.130494 0.100035 0.206163 
0.130198 0.152824 -0.00595896 0.130791 0.152721 0.205837 0.132715 0.20575 -0.00550596 
0.131582 0.205809 0.0473799 0.130635 0.205893 0.10007 0.131268 0.20602 0.152649 
0.132774 0.205762 0.205464 0.175 0 0 0.175 0 0.05 
0.175 0 0.1 0.175 0 0.15 0.175 0 0.2 
0.175 0.05 0 0.175 0.05 0.05 0.175 0.05 0.1 
0.175 0.05 0.15 0.175 0.05 0.2 0.175 0.1 0 
0.175 0.1 0.05 0.175 0.1 0.1 0.175 0.1 0.15 
0.175 0.1 0.2 0.175 0.15 0 0.175 0.15 0.05 
0.175 0.15 0.1 0.175 0.15 0.15 0.175 0.15 0.2 
0.175 0.2 0 0.175 0.2 0.05 0.175 0.2 0.1 
0.175 0.2 0.15 0.175 0.2 0.2 0 0 0.025 
0 0.025 0 0.0205819 -0.00335948 -0.00474297 0.0224052 -0.00418537 0.0222685 
0 0 0.075 0 0.025 0.025 0 0.025 0.05 
0 0.025 0.075 0.0228908 -0.00430426 0.0481921 0 0 0.125 
0 0.025 0.1 0.0227375 -0.00442105 0.0739995 0.0229122 -0.00421985 0.100095 
0.0228212 -0.0042956 0.126159 0 0 0.175 0 0.025 0.125 
0 0.025 0.15 0 0.025 0.175 0.0229819 -0.00423521 0.151861 
0 0.025 0.2 0.0224655 -0.00415077 0.177706 0.0205149 -0.0033455 0.204748 
0 0.05 0.025 0 0.075 0 0 0.075 0.025 
0.0214482 0.0225687 -0.00428334 0.0230127 0.0220313 0.0222802 0.0223179 0.0484207 -0.00402494 
0.0229872 0.0748026 -0.00437286 0 0.05 0.075 0 0.075 0.05 
0.0231217 0.0220922 0.0484237 0.023046 0.0484128 0.0221779 0.0235482 0.0745497 0.0218706 
0.044883 0.0210035 0.047277 0.0454659 0.0207451 0.0736269 0.0449928 0.0473501 0.0208886 
0.0457895 0.07371 0.0204965 0 0.05 0.125 0 0.075 0.075 
0 0.075 0.1 0 0.075 0.125 0.0233075 0.0219452 0.0742275 
0.0234736 0.02201 0.100088 0.0235057 0.0220538 0.125931 0.0456477 0.0206432 0.0999012 
0.0460097 0.0204998 0.126548 0.0462438 0.0736863 0.0467737 0 0.05 0.175 
0 0.075 0.15 0.0233841 0.022135 0.151709 0.0231524 0.0483642 0.177792 
0.0234517 0.0744135 0.178095 0.0456571 0.0207249 0.152878 0.0451784 0.0473178 0.17916 
0.0455736 0.0736314 0.179375 0 0.075 0.175 0 0.075 0.2 
0.0230983 0.0220428 0.177725 0.021429 0.02259 0.204285 0.0223998 0.0483903 0.204033 
0.0229533 0.0746904 0.204395 0 0.1 0.025 0 0.125 0 
0.0230238 0.100282 -0.00421798 0 0.1 0.075 0 0.125 0.025 
0 0.125 0.05 0 0.125 0.075 0.0235347 0.100249 0.0221273 
0.023634 0.125963 0.0220731 0.0462599 0.100015 0.0204153 0.0461747 0.126642 0.0205245 
0 0.1 0.125 0 0.125 0.1 0.0457705 0.04681 0.099937 
0.0461926 0.0468122 0.126508 0.0462059 0.100035 0.0467247 0.0456774 0.100011 0.15333 
0.046341 0.126588 0.0468449 0.0459452 0.126487 0.153185 0.0458001 0.153211 0.100047 
0.0461064 0.153126 0.126605 0.0875744 0.100005 0.100022 0 0.1 0.175 
0 0.125 0.125 0 0.125 0.15 0 0.125 0.175 
0.0234075 0.100144 0.178013 0.0235137 0.125882 0.178068 0.0460284 0.0469352 0.152915 
0.0456999 0.0999651 0.179496 0.0457108 0.126469 0.179423 0.0461347 0.153118 0.152984 
0 0.125 0.2 0.0229458 0.100176 0.204373 0 0.15 0.025 
0 0.175 0 0 0.175 0.025 0.0228423 0.125802 -0.00423511 
0.0227991 0.151759 -0.003898 0.0215438 0.177393 -0.00415347 0.0230416 0.17789 0.0223363 
0 0.15 0.075 0 0.175 0.05 0.0234288 0.15168 0.0222495 
0.0231455 0.177856 0.0484753 0.0457785 0.152951 0.020798 0.0451822 0.179149 0.0473603 
0.0455969 0.179291 0.0736998 0 0.15 0.125 0 0.175 0.075 
0 0.175 0.1 0 0.175 0.125 0.0233452 0.178021 0.0742564 
0.0235039 0.177956 0.100102 0.0235178 0.17797 0.125942 0.0461209 0.152939 0.0469696 
0.0457798 0.179366 0.10002 0.0460465 0.179518 0.126611 0 0.15 0.175 
0 0.175 0.15 0.0233678 0.151613 0.177939 0.0234033 0.177802 0.151709 
0.0455724 0.152794 0.179382 0.0458388 0.179365 0.152935 0 0.175 0.175 
0 0.175 0.2 0.0227503 0.125722 0.204433 0.0227335 0.151674 0.204082 
0.0231289 0.177854 0.177738 0.021475 0.177335 0.204253 0 0.2 0.025 
0.0205737 0.203338 -0.00465356 0.0224075 0.204148 0.0223626 0 0.2 0.075 
0.0229014 0.204266 0.0482346 0 0.2 0.125 0.0227618 0.204369 0.0740519 
0.0229415 0.20418 0.100118 0.022834 0.204293 0.126175 0 0.2 0.175 
0.0230231 0.204144 0.151881 0.0224978 0.20406 0.177678 0.0205074 0.203282 0.204727 
0.0431357 -0.00550989 0.0207955 0.043551 0.0209694 -0.00569106 0.0648179 -0.00640308 -0.00602871 
0.0654923 0.0199176 -0.0063031 0.0442865 -0.00555648 0.0736882 0.0445678 0.0210079 0.0207551 
0.0653161 -0.00629734 0.0201765 0.0657968 -0.0064515 0.0465493 0.0661035 -0.00659913 0.0730705 
0.0661598 0.0200034 0.0200709 0.044389 -0.00558748 0.126383 0.0665064 -0.0067207 0.0998836 
0.0431458 -0.00557369 0.179307 0.0446547 0.0209498 0.179304 0.0662568 -0.0068254 0.126655 
0.0655651 -0.00669132 0.153413 0.0652555 -0.0064078 0.180046 0.0661361 0.0199595 0.180124 
0.0435085 0.0209515 0.205779 0.064699 -0.00643638 0.206262 0.0654148 0.0199227 0.206495 
0.044352 0.0736738 -0.00565782 0.0657675 0.0465475 -0.00652788 0.0443509 0.0736427 0.205634 
0.0657689 0.0466136 0.206674 0.0445683 0.126406 -0.00564403 0.0663014 0.073144 -0.0067807 
0.0663857 0.100026 -0.00689076 0.0663622 0.126774 -0.00693663 0.0444809 0.126285 0.2057 
0.0663231 0.0732369 0.206799 0.0664232 0.0999471 0.206748 0.0664162 0.126657 0.206847 
0.0437264 0.179316 -0.00560644 0.0448116 0.179215 0.0208668 0.0659841 0.153734 -0.00674234 
0.0448075 0.179131 0.17934 0.0436137 0.179156 0.205823 0.0660406 0.15348 0.206795 
0.0430743 0.205636 0.0209209 0.0655754 0.180529 -0.0063107 0.0647604 0.206864 -0.00589328 
0.044344 0.205538 0.0737897 0.0663501 0.180322 0.0200677 0.0653204 0.206662 0.0202952 
0.0657225 0.20666 0.04674 0.0662049 0.206648 0.0732996 0.044465 0.205613 0.126397 
0.0666818 0.206739 0.100038 0.0431401 0.205611 0.179305 0.0662441 0.180151 0.180236 
0.0663936 0.206856 0.126744 0.0657179 0.206711 0.153489 0.0653071 0.206507 0.180113 
0.06549 0.180226 0.206616 0.0647351 0.206581 0.206313 0.0876656 -0.00689066 0.0195825 
0.0874757 0.0193979 -0.00693788 0.11015 -0.00641988 -0.00633887 0.109895 -0.00638387 0.0199097 
0.0878767 -0.00764808 0.0729291 0.0877407 0.0193747 0.0194681 0.087828 0.0461888 0.0193625 
0.109457 -0.00651565 0.0464639 0.10882 0.0465318 0.0197386 0.0877252 -0.00782803 0.126772 
0.087829 0.0461792 0.0463354 0.087829 0.0462581 0.15373 0.109181 -0.00664926 0.0731532 
0.108824 -0.00665483 0.100047 0.109065 -0.00697903 0.126851 0.108478 0.0465392 0.0464593 
0.108228 0.0464892 0.153788 0.129245 0.0468383 0.100137 0.129207 0.0469095 0.12663 
0.0873106 -0.00693493 0.180455 0.0873463 0.0193918 0.180717 0.087649 0.0463063 0.180803 
0.108727 -0.00645052 0.153565 0.108528 0.046448 0.180497 0.0873802 0.019385 0.207188 
0.109586 -0.00639176 0.180002 0.110017 -0.00652423 0.206234 0.0877152 0.0729175 -0.00756869 
0.109581 0.0199069 -0.00653076 0.109255 0.0199596 0.0198235 0.109322 0.0464303 -0.00667288 
0.10896 0.0730882 -0.00680957 0.0878562 0.0730036 0.207766 0.10893 0.0198989 0.180226 
0.109428 0.0198094 0.206517 0.109342 0.0463194 0.206809 0.109131 0.0730238 0.207107 
0.0875119 0.127025 -0.0078092 0.0878514 0.153882 0.0464873 0.1087 0.0998927 -0.00687281 
0.108279 0.15368 0.0466463 0.129322 0.100104 0.0466492 0.129344 0.126483 0.0467729 
0.0879545 0.126988 0.207856 0.0878006 0.15376 0.153648 0.0878256 0.153817 0.180772 
0.108998 0.0998074 0.20724 0.108208 0.153697 0.153419 0.108561 0.153682 0.180327 
0.129122 0.100009 0.153402 0.129151 0.0998442 0.179727 0.12901 0.126365 0.153411 
0.129314 0.12624 0.179766 0.0874631 0.180936 -0.0071008 0.0875786 0.181013 0.0194273 
0.0877507 0.180933 0.0463489 0.108743 0.126949 -0.00665225 0.108548 0.153666 -0.00657988 
0.109365 0.180404 -0.00633069 0.108883 0.180338 0.0200201 0.108541 0.180447 0.0466636 
0.129557 0.152954 0.0470692 0.0872355 0.180589 0.180806 0.0874621 0.18066 0.207334 
0.109059 0.126754 0.207124 0.109029 0.153543 0.206854 0.108836 0.180316 0.18017 
0.109426 0.180236 0.206521 0.129797 0.152775 0.179488 0.0875568 0.207331 0.0196805 
0.110182 0.2068 -0.00599976 0.109865 0.20664 0.020207 0.0879238 0.20778 0.0731639 
0.109308 0.206787 0.0465717 0.0878365 0.207787 0.126933 0.10932 0.206968 0.0732768 
0.109225 0.207139 0.100091 0.109092 0.206837 0.126935 0.129688 0.153202 0.100029 
0.129979 0.179477 0.100043 0.0872988 0.207014 0.180546 0.108739 0.206479 0.15361 
0.109578 0.206461 0.179997 0.11012 0.206602 0.206202 0.131968 -0.00604061 0.0205232 
0.131613 0.0205442 -0.00620376 0.154603 -0.00355424 -0.00507215 0.153684 0.0223126 -0.00470383 
0.130584 -0.00599739 0.0737224 0.130681 0.0205379 0.0202869 0.130153 0.0470195 0.0203249 
0.152645 -0.00434797 0.0220305 0.152072 -0.00437312 0.0479749 0.152304 -0.00459879 0.0738214 
0.152063 0.021795 0.0218392 0.151807 0.021899 0.0479224 0.151727 0.0216594 0.0740147 
0.151679 0.0480554 0.0479414 0.151516 0.0478912 0.0740328 0.130504 -0.00597454 0.126555 
0.129689 0.0470187 0.046955 0.152175 -0.00447146 0.100055 0.151605 0.021594 0.100023 
0.151384 0.0475934 0.100001 0.1514 0.0474671 0.125849 0.131801 -0.00599727 0.179401 
0.130521 0.0205274 0.179709 0.130013 0.0469458 0.179695 0.152323 -0.00469452 0.126232 
0.152002 -0.00432848 0.152016 0.15259 -0.0043403 0.17789 0.151678 0.0215716 0.125998 
0.151718 0.0219225 0.152038 0.15201 0.0217924 0.178086 0.151548 0.0480641 0.151996 
0.131535 0.020449 0.206149 0.154528 -0.00358453 0.204955 0.153632 0.0222689 0.204603 
0.130551 0.073714 -0.0063115 0.15253 0.0481605 -0.00443227 0.151837 0.0481681 0.0216881 
0.151688 0.0741413 0.0217221 0.130758 0.0736319 0.206341 0.151774 0.0481232 0.178174 
0.152521 0.0480925 0.204299 0.151632 0.0741101 0.178076 0.130164 0.126656 -0.00605019 
0.152292 0.0743254 -0.00473908 0.151929 0.0999173 -0.00462511 0.151546 0.0999491 0.0214178 
0.151479 0.100119 0.0474685 0.151949 0.125496 -0.00474955 0.151576 0.125853 0.0212363 
0.151421 0.125898 0.047153 0.13072 0.12651 0.206018 0.15229 0.0743467 0.204502 
0.151638 0.10006 0.178096 0.152004 0.0998472 0.204419 0.151484 0.125619 0.178328 
0.152051 0.125296 0.204573 0.131259 0.179267 -0.00585927 0.130423 0.179263 0.0205462 
0.130008 0.179381 0.0471328 0.152458 0.151823 -0.00444394 0.151864 0.151919 0.0215871 
0.151688 0.151941 0.0476336 0.130387 0.179276 0.179469 0.131408 0.17922 0.205911 
0.151815 0.151643 0.178054 0.152596 0.151599 0.204248 0.132034 0.205742 0.0207164 
0.153514 0.17764 -0.00468218 0.154471 0.203456 -0.0051018 0.13099 0.205907 0.0737678 
0.152082 0.178143 0.0217996 0.151832 0.178102 0.0478361 0.151742 0.178044 0.0738439 
0.152717 0.204336 0.0219162 0.152224 0.204526 0.0479558 0.152353 0.204469 0.0737739 
0.130888 0.206152 0.126249 0.152046 0.177844 0.100007 0.152332 0.204232 0.100031 
0.131912 0.205739 0.179317 0.15173 0.177784 0.126095 0.151827 0.177839 0.152167 
0.151974 0.178004 0.178084 0.152262 0.204246 0.126297 0.152072 0.204244 0.151991 
0.152603 0.204184 0.177971 0.153532 0.177473 0.204579 0.154484 0.203349 0.205006 
0.175 0 0.025 0.175 0.025 0 0.175 0 0.075 
0.175 0.025 0.025 0.175 0.025 0.05 0.175 0.025 0.075 
0.175 0 0.125 0.175 0.025 0.1 0.175 0 0.175 
0.175 0.025 0.125 0.175 0.025 0.15 0.175 0.025 0.175 
0.175 0.025 0.2 0.175 0.05 0.025 0.175 0.075 0 
0.175 0.075 0.025 0.175 0.05 0.075 0.175 0.075 0.05 
0.175 0.05 0.125 0.175 0.075 0.075 0.175 0.075 0.1 
0.175 0.075 0.125 0.175 0.05 0.175 0.175 0.075 0.15 
0.175 0.075 0.175 0.175 0.075 0.2 0.175 0.1 0.025 
0.175 0.125 0 0.175 0.1 0.075 0.175 0.125 0.025 
0.175 0.125 0.05 0.175 0.125 0.075 0.175 0.1 0.125 
0.175 0.125 0.1 0.175 0.1 0.175 0.175 0.125 0.125 
0.175 0.125 0.15 0.175 0.125 0.175 0.175 0.125 0.2 
0.175 0.15 0.025 0.175 0.175 0 0.175 0.175 0.025 
0.175 0.15 0.075 0.175 0.175 0.05 0.175 0.15 0.125 
0.175 0.175 0.075 0.175 0.175 0.1 0.175 0.175 0.125 
0.175 0.15 0.175 0.175 0.175 0.15 0.175 0.175 0.175 
0.175 0.175 0.2 0.175 0.2 0.025 0.175 0.2 0.075 
0.175 0.2 0.125 0.175 0.2 0.175 0.146246 0.204809 0.0120734 
0.16121 0.185363 -0.00397351 0.0725906 -0.00675285 0.171363 0.159883 0.20369 0.0315306 
0.175 0.183333 0.0166667 0.159675 0.185952 0.0140148 0 0.0333333 0.0333333 
0.175 0.0666667 0.166667 0 0.0666667 0.0666667 0.0592044 0.206318 0.0823433 
0.175 0.116667 0.116667 0.143757 0.0998385 0.152709 0.0577121 0.2064 0.0117597 
0.0727032 0.189603 -0.00639402 0.175 0.133333 0.166667 0.145179 0.0653145 0.205216 
0.159273 0.0658957 0.185944 0.0288529 -0.00462421 0.0124216 0.0138683 0.0147152 -0.00367888 
0.0736 0.0819651 -0.00716565 0.116718 0.0289396 -0.00644111 0.0726565 0.0108772 -0.00638712 
0.0577421 -0.00605143 0.0116197 0.0301568 0.204907 0.117485 0.0157288 0.0314638 0.0316295 
0.0584144 0.0290767 -0.006142 0.0584148 0.011468 0.011516 0 0.133333 0.0333333 
0.159245 0.0829027 0.186063 0.175 0.0833333 0.183333 0.159681 0.0828063 0.203699 
0.0293766 0.169431 -0.00475225 0 0.0166667 0.0166667 0.0153982 0.0141559 0.0143153 
0.0152172 -0.0035198 0.0317971 0.0156161 0.0140393 0.0316485 0.0727814 0.206945 0.0288834 
0.0730558 0.189413 0.011079 0.031451 0.0653784 0.0475084 0.175 0.166667 0.166667 
0.0308288 0.0303709 0.082709 0 0.116667 0.0166667 0.0153849 0.117271 -0.00352241 
0 0.0333333 0.166667 0.116256 0.171184 -0.00620611 0.129438 0.152888 0.135442 
0.0732753 -0.00714881 0.135588 0.145826 0.169407 0.205147 0.11722 0.206227 0.188529 
0.102281 0.189276 0.206611 0.0733873 0.189404 0.028758 0.0299289 0.0655164 -0.00498024 
0.0154382 0.0488601 0.0143007 0.029284 0.169345 0.204883 0 0.166667 0.0333333 
0.0152692 -0.00345307 0.168197 0 0.0166667 0.183333 0.0156725 0.0140882 0.168333 
0.175 0.0833333 0.0833333 0.0296936 0.186972 0.0126748 0.0288036 0.204633 0.0125338 
0.013927 0.185232 -0.00359015 0.015418 0.185775 0.0143827 0.0152432 0.20344 0.0318534 
0.0156406 0.185856 0.0317017 0 0.183333 0.0166667 0 0.133333 0.166667 
0.0157437 0.151229 0.0143751 0.0157638 0.168425 0.0316596 0.0303457 0.16959 0.012932 
0 0.166667 0.166667 0 0.0666667 0.0333333 0.0157501 0.0661803 0.014037 
0 0.0833333 0.0166667 0.0158021 0.0832532 0.0140043 0.0158072 0.100211 0.014118 
0.0153998 0.0831726 -0.00356727 0 0.116667 0.183333 0.0153031 0.117232 0.203728 
0.0728571 -0.00661056 0.0287369 0.0733659 0.0108905 0.0286989 0.0730158 0.0109649 0.0110949 
0.0138872 0.185187 0.203611 0.0297159 0.186925 0.18744 0.0288115 0.204566 0.187571 
0.116169 0.135637 0.206696 0 0.166667 0.0666667 0.015696 0.185869 0.0488246 
0 0.183333 0.0833333 0.0156639 0.186163 0.0659343 0.0152516 0.203691 0.0656541 
0.159113 0.116957 0.168832 0 0.0166667 0.0833333 0.0152308 -0.0037386 0.0656119 
0.0603382 0.171249 0.117771 0.0301161 0.134648 0.205059 0.0157571 0.134071 0.185966 
0.0157396 0.117127 0.186102 0.0301067 -0.00500117 0.0827086 0.0157195 0.0139312 0.0829813 
0.0299677 0.0654326 0.205006 0 0.183333 0.116667 0.0157818 0.185915 0.117202 
0.0153374 0.203507 0.1345 0 0.166667 0.133333 0.0157555 0.185983 0.134214 
0.0158934 0.168616 0.134101 0.015778 0.185732 0.151263 0.0454089 0.0119343 0.0824629 
0.0591003 -0.00630629 0.0821728 0.0307563 0.0126606 0.0826882 0.0301553 0.134766 -0.00486303 
0.0158066 0.134112 0.014217 0.0157999 0.11717 0.0140777 0.030337 0.169522 0.187194 
0.0157133 0.151192 0.18577 0.0307919 0.169491 0.169707 0.0158065 0.168399 0.168392 
0 0.183333 0.183333 0.0154613 0.185707 0.185614 0.0153097 0.20334 0.168185 
0.0157027 0.185788 0.168326 0.0157792 0.0314748 0.168366 0.0155051 0.0488186 0.185676 
0.015438 0.0142021 0.185636 0.0138548 0.0147414 0.203643 0.0288274 -0.00461753 0.187594 
0.159309 0.185796 0.151469 0.175 0.166667 0.133333 0.0314805 0.152659 0.117563 
0 0.116667 0.116667 0.0315179 0.135235 0.1351 0.144813 0.169576 0.187514 
0.159308 0.168522 0.168764 0.0291143 0.0306881 -0.00487797 0.0301316 0.030507 0.0128093 
0.0440287 0.0122169 0.0118503 0.0296269 0.0130428 0.0125541 0.117154 -0.00623044 0.188582 
0.102242 0.0108244 0.206561 0.129408 0.100087 0.02913 0.0157327 0.0660763 0.185996 
0.0158502 0.0831067 0.168685 0 0.0666667 0.166667 0.159684 0.0828208 -0.00386513 
0.175 0.0833333 0.0166667 0.0456364 0.0826051 0.0116521 0.031511 0.0827804 0.029967 
0.0159303 0.0831967 0.0313441 0.0449284 0.187884 0.0473796 0.0733933 0.207073 0.0642926 
0.0589933 0.0644593 0.206402 0.0306758 0.0654333 0.18737 0 0.0333333 0.0666667 
0.0157819 0.031293 0.0660847 0.0156817 0.0140786 0.0487919 0.0156539 0.0138051 0.0659116 
0.175 0.0333333 0.133333 0.175 0.183333 0.0833333 0.159809 0.203726 0.065397 
0.0301379 -0.0049123 0.117475 0.0157638 0.0141264 0.100093 0.0576741 -0.00612433 0.18859 
0.0729124 0.0109284 0.189161 0.0725641 0.0108485 0.206632 0.0157541 0.0141963 0.151254 
0 0.0333333 0.133333 0.0583784 0.0114129 0.188673 0.0583564 0.0290951 0.206299 
0.0452268 0.0648931 0.188102 0.0454473 0.0824995 0.188179 0.0736486 0.0820756 0.207177 
0.045006 0.0473246 0.187948 0.0589832 0.0291133 0.188713 0.0306506 0.0304869 0.169664 
0.144293 0.169723 0.0649215 0.159784 0.203513 0.168373 0.175 0.183333 0.183333 
0.159398 0.18597 0.168596 0.116401 0.0289692 0.0111201 0.116271 0.0643626 -0.00662359 
0 0.0833333 0.183333 0.0153455 0.0830503 0.203678 0.0157488 0.100141 0.186051 
0.0157615 0.0831614 0.186079 0.0726295 0.189292 0.206761 0.0576937 0.206245 0.18864 
0 0.0166667 0.116667 0.0157735 0.014093 0.117195 0.0153253 -0.00351732 0.134483 
0.0157482 0.0140302 0.134202 0.102395 0.0109127 -0.00657392 0.117379 -0.00621352 0.0112913 
0.116816 0.0112899 0.0112254 0.129796 0.170542 0.0647285 0.129673 0.152937 0.064677 
0.130115 0.188256 0.100049 0.102074 -0.0068979 0.0641034 0.0455549 0.0119086 0.117625 
0.0455018 0.0119146 0.100036 0.0308616 0.0127293 0.11748 0.0591632 -0.00639824 0.117667 
0.059754 0.064526 0.188891 0.0595647 0.0290484 0.171042 0.0731589 0.0108449 0.171448 
0.0451199 0.0297025 0.170401 0.0602934 0.0645146 0.153509 0.0599143 0.0468311 0.171183 
0.0602402 0.0644955 0.171257 0.0309765 0.0826034 0.169708 0.031522 0.0648201 0.135015 
0 0.0833333 0.116667 0.0603331 0.0287433 0.117653 0.0314842 0.0473558 0.117457 
0.0600707 0.0111073 0.11762 0.0312521 0.0476642 0.152251 0.0315723 0.0473758 0.134832 
0 0.0666667 0.133333 0.0313877 0.0301105 0.134967 0.0452524 0.0119558 0.152808 
0.0455859 0.0117982 0.135264 0.0158941 0.0314046 0.134103 0.129765 0.135167 0.18838 
0.102003 0.117892 0.207445 0.129504 0.117434 0.188636 0.11542 0.135573 0.189102 
0.175 0.116667 0.183333 0.159227 0.0998945 0.186063 0.159238 0.116882 0.186223 
0.159668 0.11694 0.203788 0.145981 0.0302962 0.205282 0.145373 0.0126443 0.187766 
0.161219 0.0145469 0.203854 0.146209 -0.00493156 0.187798 0.116546 0.188769 0.188679 
0.130946 0.187991 0.188344 0.116515 0.171106 0.20639 0.159258 0.133918 0.186095 
0.14508 0.1346 0.20522 0.144292 0.13462 0.187593 0.159488 0.15116 0.185864 
0.14492 0.0301181 0.187586 0.159405 0.0486387 0.185921 0.159623 0.0140111 0.185841 
0.175 0.0166667 0.183333 0.159775 -0.00357538 0.168317 0.159374 0.0139601 0.168534 
0.175 0.0333333 0.166667 0.159299 0.0313665 0.168706 0.159271 0.0140661 0.15142 
0.0726536 0.206823 0.171429 0.0729676 0.189187 0.189297 0.0453058 0.152719 0.188129 
0.0158845 0.134033 0.168653 0.031056 0.134847 0.169741 0.0602371 0.153286 0.171294 
0.0603347 0.153255 0.15351 0.0602322 0.135481 0.153486 0.0591059 0.135433 0.206433 
0.0455409 0.135183 0.188202 0.0308152 0.11744 0.18738 0.0736523 0.117847 0.207137 
0.0454663 0.117569 0.188105 0.0455187 0.100011 0.188158 0.0603014 0.117733 0.17136 
0.0311015 0.117588 0.15253 0.0600776 0.117734 0.188918 0.0308406 0.100017 0.152631 
0.0315768 0.152688 0.134941 0 0.133333 0.133333 0.0313945 0.169929 0.135002 
0.0313536 0.152421 0.152359 0.101903 0.189173 0.189146 0.087373 0.189471 0.189562 
0.101941 0.20663 0.171425 0.0584933 0.171035 0.206414 0.0441181 0.187887 0.188252 
0.0591754 0.171024 0.188828 0.0584505 0.18873 0.18877 0.0441544 0.187988 0.0119757 
0.0585794 0.171301 -0.00618709 0.0585168 0.188895 0.0115792 0.102048 0.0818621 0.207388 
0.101626 0.0463296 0.18952 0.0877118 0.0462865 0.189812 0.116639 0.0288133 0.206456 
0.131019 0.0117428 0.188552 0.116593 0.0112452 0.188732 0.115646 0.0288581 0.171318 
0.101803 -0.00697002 0.135852 0.10168 0.0641951 0.189588 0.101436 0.0284429 0.153883 
0.0877115 0.02829 0.15376 0.0731998 0.189204 0.171553 0.0598817 0.171 0.171226 
0.0453867 0.188081 0.152844 0.0453807 0.170385 0.170501 0.0308905 0.187288 0.117488 
0.045612 0.188077 0.100106 0.0592863 0.206435 0.117749 0.14452 0.187331 0.0825209 
0.145113 0.205044 0.0825859 0.159328 0.186023 0.082741 0.060025 0.135553 0.135609 
0.115502 0.171282 0.153302 0.101435 0.171643 0.13568 0.116339 0.206695 0.117842 
0.129963 0.15278 0.188214 0.144437 0.169601 0.170042 0.115944 0.171082 0.188869 
0.129992 0.170488 0.170694 0.101455 0.189148 0.171559 0.101521 0.153821 0.189479 
0.0877252 0.153814 0.18979 0.073337 -0.00693463 0.0640831 0.0447736 0.012206 0.0472786 
0.0450837 0.0120004 0.064862 0.146295 -0.00493172 0.0120895 0.161272 0.0145827 -0.00393463 
0.0301378 0.204937 0.0827627 0.0157814 0.185841 0.100105 0.0308189 0.187289 0.0827309 
0.0157415 0.186009 0.0830067 0.115097 0.0644095 0.153639 0.129503 0.0998946 0.18849 
0.101511 0.0642545 0.17174 0.144148 0.0298988 0.134907 0.116048 -0.00653286 0.117901 
0.12951 0.0293697 0.135353 0.129403 0.064624 0.153138 0.11553 0.0288318 0.153611 
0.144094 0.0650663 0.169956 0.144311 0.0826636 0.187549 0.144257 0.0476437 0.169976 
0.159177 0.065772 0.168678 0.144417 0.0301604 0.170059 0.0455437 0.188059 0.082554 
0.0451942 0.18804 0.064941 0.0158042 0.168688 0.0661073 0.145072 0.205002 0.117481 
0.159451 0.185872 0.100009 0.144525 0.187268 0.117466 0.0878011 0.171745 0.153774 
0.101736 0.207046 0.135907 0.101581 0.171664 0.153665 0.101603 0.171604 0.171563 
0.159707 0.203434 0.134661 0.159249 0.185811 0.134349 0.175 0.183333 0.116667 
0.159294 0.18583 0.117284 0.143565 0.117446 0.135428 0.11505 0.135681 0.135581 
0.115147 0.15347 0.135565 0.159265 0.082895 0.0136935 0.145144 0.0653704 -0.00538914 
0.115308 0.153497 0.0645293 0.143861 0.117494 0.0646128 0.144499 0.152501 0.100025 
0.130955 0.188034 0.0116994 0.145702 0.169568 -0.00524016 0.144774 0.169753 0.0123475 
0.145422 0.187179 0.0121499 0.0291291 0.0306768 0.204887 0.0440365 0.012183 0.188227 
0.030198 0.0304889 0.187187 0.0296625 0.013035 0.187459 0.0605559 0.117822 0.0286898 
0.159473 0.186136 0.0313575 0.175 0.166667 0.0333333 0.159352 0.168699 0.0311833 
0.145457 0.0126605 0.0121383 0.131161 0.0117692 0.0113937 0.146019 0.0303569 -0.00537509 
0.116452 0.206711 0.082316 0.143463 0.117162 0.153006 0.143653 0.117116 0.170244 
0.175 0.133333 0.133333 0.0601842 0.13569 0.0644638 0.115222 0.135698 0.0644637 
0.0876044 0.13542 0.100012 0.144308 0.13493 0.0120727 0.144784 0.134819 -0.00542864 
0.159536 0.151355 0.0138632 0.159289 0.134069 0.0135675 0.175 0.133333 0.0333333 
0.130381 0.188172 0.0471557 0.115521 0.171239 0.0290761 0.11587 0.171165 0.0114005 
0.116014 0.188985 0.0468289 0.115028 0.0644314 0.135837 0.0875114 0.100019 0.135464 
0.0600375 0.0644777 0.135605 0.145356 0.18706 0.187731 0.146193 0.204691 0.187847 
0.159608 0.185816 0.185891 0.161168 0.185245 0.203878 0.15935 0.18614 0.0656394 
0.159374 0.186022 0.0485042 0.175 0.166667 0.0666667 0.101741 0.189518 0.0464883 
0.102084 0.2072 0.0642199 0.116599 0.188845 0.011521 0.102305 0.189498 -0.00639752 
0.117382 0.206358 0.0116271 0.0308865 0.0475342 0.0998928 0.0603363 0.0465642 0.0644427 
0.159243 0.168725 0.0655432 0.159327 0.151441 0.0481149 0.144435 0.169819 0.0298782 
0.14435 0.169798 0.0474463 0.143885 0.0648748 0.117605 0.129272 0.0292617 0.1177 
0.159199 0.0310098 0.134332 0.175 0.0666667 0.133333 0.159147 0.048485 0.151521 
0.159108 0.0482202 0.134335 0.101828 0.189455 0.0287269 0.0875311 0.189821 0.0106933 
0.102045 0.189361 0.0110756 0.102333 0.206955 0.0287831 0.159237 0.168364 0.134448 
0.12969 0.152899 0.170719 0.143603 0.134665 0.152826 0.129295 0.152991 0.15315 
0.0452042 0.170441 0.0297242 0.0307006 0.169529 0.0304348 0.0592403 0.171202 0.011419 
0.0596806 0.17114 0.0290715 0.0878348 0.189945 0.0463472 0.0597586 0.188819 0.0645664 
0.0452379 0.0649127 0.0118629 0.0306771 0.0655202 0.0126082 0.0589784 0.0644086 -0.00639341 
0.0591629 0.135615 -0.00648085 0.0309542 0.11755 0.0127304 0.0604009 0.153575 0.0645242 
0.0309468 0.152533 0.100007 0.0600081 0.171226 0.0468292 0.0602964 0.17126 0.0645221 
0.0309557 0.169652 0.0827275 0.0315715 0.134981 0.0648331 0.0315972 0.117522 0.0473928 
0 0.116667 0.0833333 0.0312963 0.152246 0.0477437 0.0316278 0.134854 0.0474124 
0 0.133333 0.0666667 0.0458002 0.135311 0.011795 0.045454 0.15286 0.0120153 
0.0314818 0.134979 0.0301425 0.015955 0.134101 0.0314638 0 0.0833333 0.0833333 
0.0315537 0.0826401 0.0646782 0.0315522 0.100147 0.0472702 0.0316407 0.0828587 0.0471908 
0.115792 0.135763 -0.00641807 0.129551 0.152983 0.0294464 0.144072 0.134969 0.0296168 
0.159108 0.134255 0.0478311 0.159151 0.117006 0.0306419 0.175 0.133333 0.0666667 
0.159098 0.0483016 0.0828189 0.101962 -0.00661788 0.171396 0.0873725 0.0105683 0.189466 
0.101559 0.01084 0.17151 0.101957 0.0109396 0.189098 0.045831 0.100133 0.0117724 
0.0735213 0.117914 -0.00724357 0.0602277 0.117776 0.0110008 0.0457042 0.117706 0.0118733 
0.101652 0.117979 -0.0070229 0.129356 0.117645 0.0289972 0.11514 0.13571 0.0288803 
0.129384 0.135373 0.0292332 0.0603279 0.0643344 0.0644485 0.0876725 0.100015 0.0645921 
0.115248 0.0644622 0.0643576 0.0876546 0.0645985 0.100053 0.129401 0.0646816 0.0645581 
0.129332 0.0293737 0.100118 0.0448885 0.0473586 0.012059 0.0448426 0.0297832 0.0296876 
0.0589486 0.0291371 0.0114466 0.0304835 0.030517 0.0303663 0.0876416 0.010605 0.0107045 
0.102477 -0.00665182 0.0285948 0.102232 0.0109881 0.0108964 0.159109 0.117077 0.0477876 
0.159052 0.117187 0.0649871 0.175 0.116667 0.0833333 0.175 0.0666667 0.0333333 
0.159302 0.0659431 0.0138869 0.101568 0.171709 0.0644681 0.0877261 0.153976 0.0284303 
0.101231 0.153853 0.028613 0.101726 0.18955 0.0643741 0.175 0.0333333 0.0333333 
0.116069 0.0466656 0.0110466 0.116029 0.0289395 0.0288022 0.102109 0.0108921 0.0285312 
0.073421 0.207176 0.135709 0.0456581 0.188237 0.135298 0.0601745 0.188941 0.117764 
0.0456215 0.18813 0.117678 0.059603 0.0112633 0.0644145 0.0600762 0.0465854 0.0467409 
0.130321 0.0470827 0.0113724 0.144258 0.0826379 0.0121922 0.175 0.0166667 0.0833333 
0.159774 -0.00372447 0.0653854 0.11621 0.0288983 0.188936 0.130239 0.0469906 0.188642 
0.116423 0.0642466 0.206774 0.115917 0.0465721 0.189095 0.175 0.0333333 0.0666667 
0.159303 0.0140601 0.0485699 0.159307 0.0138053 0.0657007 0.14415 0.0299157 0.0825964 
0.143912 0.0648852 0.0650261 0.159062 0.0656593 0.0656205 0.144029 0.0650671 0.0474746 
0.144191 0.0651405 0.0299144 0.159112 0.0999598 0.0480235 0.159772 -0.00379628 0.134623 
0.175 0.0166667 0.116667 0.159303 0.0137078 0.134302 0.0596164 0.046727 0.0290189 
0.0593558 0.0290709 0.0291141 0.0596707 0.0644793 0.0111769 0.115829 0.0288872 0.046571 
0.11552 0.0289333 0.0643476 0.130039 0.0293417 0.0469787 0.116162 -0.0064456 0.0822926 
0.101723 0.0285408 0.0463078 0.0878293 0.0282258 0.0462359 0.101483 0.0642119 0.0285297 
0.10176 0.0642062 0.0107072 0.0877513 0.0461866 0.0104519 0.10183 0.0463786 0.0107259 
0.101811 0.0819378 -0.00704577 0.159119 0.048001 0.117035 0.159078 0.0480798 0.0999095 
0.175 0.0833333 0.116667 0.159027 0.0651224 0.117073 0.144917 -0.00527989 0.082633 
0.159325 0.0137671 0.0828064 0.144395 0.0122732 0.0826234 0.159315 0.0136953 0.117219 
0.159352 0.0138539 0.100031 0.144308 0.0122234 0.117469 0.144936 -0.00533863 0.117505 
0.159223 0.0657975 0.0311849 0.144373 0.0476983 0.0299261 0.175 0.116667 0.0166667 
0.159228 0.0999032 0.0136443 0.159659 0.117039 -0.00395655 0.159249 0.116926 0.0134562 
0.159145 0.048463 0.0656688 0.159229 0.0485107 0.0484173 0.159199 0.0311586 0.0656776 
0.175 0.0666667 0.0666667 0.144974 0.030155 0.0123134 0.144537 0.0301739 0.0298558 
0.159431 0.0486826 0.0139369 0.159339 0.0313715 0.03122 0.175 0.0166667 0.0166667 
0.15981 -0.00360684 0.0316422 0.15965 0.0140225 0.0140998 0.159406 0.0139359 0.0314293 
0.15298 0.190895 0.00830528 0.0764991 0.00636334 0.180371 0.163347 0.18991 0.0233127 
0.12925 0.0734677 0.140062 0.011871 0.0232229 0.0362769 0.163085 0.061777 0.176853 
0.0239609 0.0743469 0.0477568 0.0454238 0.19245 0.08694 0.0461026 0.139769 0.153192 
0.151089 0.112808 0.139529 0.0655248 0.193618 0.00700879 0.163053 0.125322 0.177016 
0.151809 0.074193 0.19127 0.022096 0.0092559 0.00866539 0.0561504 0.0734224 0.00683012 
0.120215 0.0202351 0.00681837 0.0654791 0.00679831 0.0069599 0.0233027 0.191068 0.113051 
0.067236 0.153459 0.140128 0.0230932 0.0353194 0.0221991 0.0550331 0.0204659 0.00716846 
0.0119837 0.138167 0.023304 0.16315 0.0871674 0.189893 0.0335281 0.178456 0.00811728 
0.118782 0.0734409 0.0465784 0.0117248 0.0102165 0.023545 0.0766948 0.193935 0.0198536 
0.151532 0.0345852 0.12597 0.0458712 0.0471001 0.0603434 0.163151 0.176764 0.163967 
0.0344354 0.021378 0.074026 0.0556289 0.0204405 0.0336534 0.0118751 0.112873 0.0102214 
0.129511 0.166186 0.139795 0.0119077 0.023258 0.16371 0.119838 0.179814 0.00711372 
0.11887 0.166671 0.126628 0.0563093 0.00688474 0.126539 0.141607 0.178475 0.192297 
0.109459 0.193381 0.193232 0.0558667 0.179774 0.0337076 0.0230864 0.0614632 0.00887661 
0.0334933 0.178379 0.192024 0.0463232 0.113305 0.0335298 0.0118935 0.17668 0.036307 
0.0117614 0.0102687 0.176421 0.162958 0.0615475 0.0743989 0.0221211 0.19071 0.00876832 
0.0117488 0.189701 0.0235988 0.011951 0.138137 0.176834 0.0452893 0.165943 0.179323 
0.023286 0.164692 0.0222732 0.0119318 0.176633 0.163716 0.0119733 0.0747863 0.023131 
0.0118783 0.0874771 0.0101795 0.0118242 0.112841 0.189941 0.076728 0.00642813 0.0198093 
0.0221232 0.190648 0.191279 0.129939 0.139585 0.192746 0.0118913 0.176929 0.0619229 
0.0117919 0.189969 0.074531 0.140159 0.112884 0.17917 0.0117788 0.00999156 0.0745065 
0.0460199 0.166382 0.113237 0.0232717 0.125813 0.191238 0.0232507 0.0088275 0.0871647 
0.0231143 0.061374 0.191133 0.0348405 0.178798 0.139342 0.0118468 0.189818 0.125631 
0.0119493 0.176802 0.138203 0.0453119 0.0075292 0.0868561 0.0233344 0.1259 0.00894993 
0.0233018 0.164657 0.177821 0.0117891 0.189632 0.176402 0.0231682 0.0352961 0.17778 
0.0221005 0.00927926 0.191307 0.119063 0.153296 0.180001 0.163067 0.176666 0.138381 
0.023945 0.139328 0.12607 0.151888 0.164715 0.178147 0.0333507 0.0216446 0.00798836 
0.109465 0.00669611 0.193235 0.0346518 0.0869938 0.178711 0.140132 0.113163 0.0469395 
0.0119445 0.0747025 0.176921 0.163165 0.0871836 0.00991577 0.0349737 0.087148 0.0210954 
0.0558896 0.19298 0.0602014 0.045058 0.0604921 0.192477 0.0118827 0.0230427 0.0619033 
0.163104 0.0229504 0.138324 0.16323 0.189941 0.0742902 0.129662 0.166158 0.0470612 
0.0232877 0.00893119 0.113044 0.0653959 0.00674354 0.193276 0.0119458 0.0232037 0.138194 
0.0550137 0.0204352 0.192982 0.0561146 0.0734436 0.193135 0.0450315 0.0341349 0.179213 
0.14078 0.17875 0.0605282 0.163287 0.189784 0.176621 0.119753 0.0467686 0.00670891 
0.0118394 0.0873987 0.189926 0.0654475 0.193401 0.193389 0.011843 0.0101927 0.125626 
0.109696 0.00674968 0.00669268 0.118814 0.153366 0.0468058 0.119013 0.166687 0.073468 
0.108866 0.0198633 0.0464142 0.0454027 0.00752838 0.113232 0.0668294 0.0466231 0.180273 
0.0558702 0.0203388 0.166469 0.0672386 0.0465497 0.140095 0.0460016 0.0735356 0.153177 
0.0457773 0.0603823 0.166172 0.0239591 0.0607301 0.12598 0.0459903 0.0336384 0.113098 
0.0238927 0.0478852 0.138883 0.0347991 0.0212428 0.139325 0.119013 0.126592 0.193436 
0.16316 0.112605 0.189996 0.141702 0.0212202 0.192419 0.152958 0.00899468 0.191558 
0.119911 0.179753 0.193068 0.151878 0.138626 0.191297 0.15188 0.0350548 0.17816 
0.163278 0.0101475 0.176559 0.163127 0.023171 0.163901 0.0765345 0.193711 0.180489 
0.0346907 0.139195 0.178734 0.0458959 0.152897 0.166259 0.0673195 0.139995 0.167011 
0.0453403 0.126351 0.192545 0.0563061 0.113261 0.193094 0.0458127 0.113257 0.166365 
0.023903 0.152159 0.138982 0.0981563 0.193622 0.180412 0.0551324 0.179704 0.193079 
0.0552156 0.179879 0.00720163 0.108627 0.0331362 0.180407 0.0982452 0.0596705 0.194099 
0.12005 0.0201656 0.193171 0.108525 0.0197816 0.153723 0.0980588 0.0463163 0.167297 
0.0560955 0.179733 0.166569 0.0454782 0.192497 0.113275 0.151927 0.191134 0.0869834 
0.0875414 0.126643 0.126641 0.108579 0.18037 0.140137 0.130009 0.166013 0.179503 
0.0980228 0.167222 0.180583 0.0557619 0.00710312 0.0600691 0.153016 0.00901564 0.00834919 
0.0232872 0.19111 0.0871956 0.118749 0.0733352 0.166868 0.129585 0.0205111 0.126526 
0.129464 0.0469788 0.153106 0.140606 0.0606064 0.179028 0.151624 0.0480341 0.165074 
0.0345212 0.178618 0.0740689 0.151919 0.19104 0.113046 0.0981067 0.180581 0.153744 
0.163164 0.189695 0.125749 0.151889 0.164938 0.0217097 0.12929 0.139881 0.126586 
0.151809 0.074212 0.00848776 0.151568 0.138992 0.0343761 0.129491 0.139889 0.0734722 
0.141581 0.178615 0.00761481 0.0333803 0.0216317 0.192029 0.0673945 0.140264 0.0465467 
0.163195 0.176914 0.036008 0.141779 0.0212552 0.00749276 0.108893 0.193723 0.059981 
0.15111 0.125668 0.152422 0.0876499 0.126679 0.0733889 0.151849 0.138859 0.00836641 
0.163099 0.125389 0.0226413 0.119399 0.179926 0.0336419 0.0875488 0.0733935 0.126726 
0.152924 0.19076 0.191587 0.163131 0.176942 0.0616068 0.0982952 0.194067 0.0464374 
0.109554 0.193533 0.00696752 0.046015 0.0601763 0.0734319 0.151728 0.164969 0.0477537 
0.140121 0.0472156 0.113187 0.163016 0.0486135 0.13841 0.0984373 0.19393 0.0198271 
0.14025 0.152397 0.152782 0.0452605 0.166038 0.0208614 0.0669262 0.180326 0.0466442 
0.0450259 0.0605207 0.00750228 0.0455439 0.126485 0.0074542 0.0460599 0.153156 0.0735511 
0.0458038 0.166155 0.0604192 0.0239946 0.125979 0.0607583 0.0239269 0.138876 0.0479225 
0.0349539 0.139324 0.0212744 0.0239941 0.0872397 0.0605897 0.129523 0.13982 0.0204954 
0.163009 0.125506 0.0481971 0.151539 0.0346543 0.0870062 0.0982214 0.00640261 0.180369 
0.0564573 0.113336 0.00681823 0.118705 0.12674 0.0200545 0.087747 0.0733547 0.0733784 
0.129358 0.0469445 0.0735371 0.0448565 0.0341847 0.0208496 0.0986393 0.00642728 0.0196668 
0.162976 0.112753 0.0610109 0.163105 0.0618129 0.0230144 0.0980112 0.167351 0.0465215 
0.163148 0.0231616 0.0360652 0.108971 0.0332074 0.0197497 0.056389 0.19316 0.126625 
0.0668987 0.0331216 0.0465626 0.140685 0.0606853 0.0208632 0.163216 0.009989 0.0743167 
0.119676 0.0466689 0.193382 0.163098 0.0230505 0.0616861 0.140398 0.0473283 0.0605715 
0.151447 0.0740327 0.0477903 0.163223 0.00990856 0.125683 0.0666718 0.0465314 0.0199232 
0.119347 0.0201602 0.0600059 0.0981859 0.0462973 0.0329217 0.0982728 0.0596744 0.0061936 
0.162957 0.0611182 0.112662 0.151858 0.00853455 0.0870569 0.151833 0.00848025 0.113027 
0.151714 0.0480668 0.0348154 0.16318 0.112647 0.00977899 0.163021 0.048746 0.0615833 
0.151942 0.0350844 0.0217276 0.163299 0.0101339 0.0234026 

CELLS 236 3776
15 69 93 88 68 456 511 453 449 451 450 532 527 528 888 1095 
15 28 47 45 44 260 323 259 258 319 318 690 731 989 529 1096 
15 93 69 88 94 456 453 511 523 457 512 532 530 894 531 1097 
15 43 49 86 85 310 349 317 316 348 503 850 916 538 937 1098 
15 5 1 26 6 103 106 124 120 104 129 562 533 682 551 1099 
15 82 86 81 63 495 494 493 423 424 422 534 543 861 769 1100 
15 7 11 48 6 137 169 145 127 128 135 980 535 674 565 1101 
15 37 17 54 38 212 216 289 285 213 291 863 848 825 536 1102 
15 55 13 12 51 191 171 180 361 190 178 658 782 792 783 1103 
15 90 86 49 85 506 349 350 504 503 348 901 537 538 877 1104 
15 37 52 50 36 287 352 286 282 284 283 564 539 540 808 1105 
15 91 92 65 86 519 438 437 507 508 435 764 541 755 618 1106 
15 82 65 86 63 434 435 495 423 421 424 555 542 859 543 1107 
15 25 5 0 26 123 99 100 243 124 101 545 664 560 544 1108 
15 46 32 6 48 269 131 134 326 270 135 957 546 673 1054 1109 
15 57 46 58 62 327 328 383 384 329 388 720 547 706 898 1110 
15 26 41 25 46 249 245 243 252 300 246 549 608 548 553 1111 
15 22 38 39 17 237 290 238 210 213 214 550 847 824 629 1112 
15 55 49 12 54 344 176 180 373 343 179 784 869 830 621 1113 
15 26 5 6 30 124 120 129 248 125 130 551 662 579 1009 1114 
15 25 30 26 46 244 248 243 246 265 252 663 552 1008 553 1115 
15 11 15 16 34 164 194 165 168 198 203 554 639 594 976 1116 
15 82 65 87 86 434 436 496 495 435 505 557 555 754 556 1117 
15 15 34 36 37 198 276 199 200 277 282 558 596 806 586 1118 
15 43 85 64 48 316 429 314 309 340 338 1004 1002 667 1061 1119 
15 1 5 26 0 103 124 106 98 99 101 562 559 560 561 1120 
15 52 37 50 53 287 286 352 368 288 353 564 563 577 944 1121 
15 60 80 59 86 410 401 398 413 492 403 1075 942 1066 853 1122 
15 48 7 6 43 145 127 135 309 143 133 565 932 567 1031 1123 
15 92 71 96 91 465 467 521 519 464 520 705 660 654 566 1124 
15 26 7 43 6 140 143 251 129 127 133 635 681 567 843 1125 
15 6 26 46 42 129 252 134 132 250 304 1007 842 607 1053 1126 
15 32 15 10 11 197 161 162 167 164 160 569 640 568 602 1127 
15 90 71 70 49 463 459 460 350 347 346 868 950 831 572 1128 
15 28 9 8 3 156 146 148 116 115 114 649 584 570 692 1129 
15 68 69 50 66 449 358 357 439 440 356 928 885 914 571 1130 
15 49 90 54 70 350 378 343 346 460 375 879 572 723 832 1131 
15 28 43 7 44 257 143 142 258 308 144 725 573 741 747 1132 
15 92 72 71 67 469 462 465 448 446 445 919 574 762 659 1133 
15 71 56 51 72 381 362 365 462 382 366 799 575 576 761 1134 
15 50 37 16 53 286 204 205 353 288 206 951 577 676 954 1135 
15 5 6 30 32 120 130 125 126 131 264 579 599 958 578 1136 
15 39 19 35 40 228 227 279 292 229 280 641 610 580 803 1137 
15 12 11 50 48 163 170 177 175 169 336 968 979 994 893 1138 
15 21 15 37 16 196 200 234 202 194 204 591 581 595 614 1139 
15 28 4 9 3 118 117 156 116 112 115 651 582 583 584 1140 
15 80 84 58 85 490 396 395 491 499 397 1083 585 1045 987 1141 
15 15 36 20 37 199 231 195 200 282 232 588 586 587 589 1142 
15 15 20 21 37 195 230 196 200 232 234 592 589 590 591 1143 
15 19 18 35 13 218 220 227 185 184 187 642 593 780 623 1144 
15 39 51 35 18 293 281 279 221 222 220 804 823 779 643 1145 
15 15 34 37 16 198 277 200 194 203 204 596 594 952 595 1146 
15 19 23 39 18 224 240 228 218 219 221 648 597 634 644 1147 
15 5 6 32 11 120 131 126 122 128 167 599 598 675 601 1148 
15 10 5 32 11 121 126 162 160 122 167 603 600 601 602 1149 
15 19 33 14 13 226 193 192 185 186 182 605 624 710 604 1150 
15 26 41 46 42 249 300 252 250 299 304 608 606 1010 607 1151 
15 24 19 39 40 225 228 241 242 229 292 646 609 610 611 1152 
15 51 91 67 65 367 447 364 363 437 433 834 749 766 612 1153 
15 17 21 37 16 209 234 212 201 202 204 616 613 614 865 1154 
15 37 22 21 17 236 233 234 212 210 209 617 849 615 616 1155 
15 49 91 65 86 351 437 345 349 507 435 751 902 618 851 1156 
15 7 1 26 2 105 106 140 108 102 109 683 619 620 626 1157 
15 17 55 12 54 217 180 172 216 373 179 656 1028 621 963 1158 
15 19 33 13 35 226 186 185 227 272 187 624 622 787 623 1159 
15 7 2 26 27 108 109 140 141 110 247 626 688 625 637 1160 
15 33 9 8 31 159 146 150 266 158 149 668 627 650 679 1161 
15 55 18 39 17 223 221 295 217 208 214 822 797 633 1027 1162 
15 23 22 39 17 235 238 240 211 210 214 630 628 629 632 1163 
15 18 23 39 17 219 240 221 208 211 214 634 631 632 633 1164 
15 26 7 27 43 140 141 247 251 143 254 637 635 726 636 1165 
15 32 15 11 34 197 164 167 268 198 168 640 638 639 961 1166 
15 39 19 18 35 228 218 221 279 227 220 644 641 642 643 1167 
15 23 19 39 24 224 228 240 239 225 241 648 645 646 647 1168 
15 28 9 31 8 156 158 256 148 146 149 891 649 650 701 1169 
15 28 4 29 9 118 119 255 156 117 157 653 651 652 892 1170 
15 51 91 49 71 367 351 342 365 464 347 752 837 948 839 1171 
15 96 71 90 91 467 463 518 520 464 515 874 654 947 655 1172 
15 13 55 12 17 191 180 171 183 217 172 658 795 656 657 1173 
15 92 71 91 67 465 464 519 448 445 447 660 659 835 767 1174 
15 25 5 26 30 123 124 243 244 125 248 664 661 662 663 1175 
15 47 61 45 60 333 325 323 332 404 324 666 814 665 991 1176 
15 33 49 8 13 274 153 150 186 189 147 697 790 736 669 1177 
15 85 90 64 48 504 432 429 340 341 338 1014 883 997 667 1178 
15 13 9 8 33 154 146 147 186 159 150 670 711 668 669 1179 
15 78 64 84 83 426 428 486 485 427 497 880 671 1080 672 1180 
15 6 32 11 48 131 167 128 135 270 169 675 673 992 674 1181 
15 16 37 54 53 204 289 207 206 288 371 864 676 677 956 1182 
15 47 33 8 31 273 150 152 267 266 149 696 678 679 699 1183 
15 1 7 26 6 105 140 106 104 127 129 683 680 681 682 1184 
15 76 80 60 81 480 410 408 481 489 411 1051 684 939 776 1185 
15 90 94 69 95 516 457 455 517 524 458 923 685 686 829 1186 
15 90 50 70 66 360 359 460 444 356 441 721 982 913 702 1187 
15 7 2 27 28 108 110 141 142 111 253 688 715 687 727 1188 
15 29 28 47 45 255 260 263 262 259 323 694 689 690 691 1189 
15 3 7 8 28 113 136 114 116 142 148 693 717 748 692 1190 
15 29 28 31 47 255 256 261 263 260 267 890 694 700 695 1191 
15 47 33 49 8 273 274 331 152 150 153 698 696 697 729 1192 
15 28 8 31 47 148 149 256 260 152 267 701 732 699 700 1193 
15 90 70 69 66 460 452 455 444 441 440 827 702 912 936 1194 
15 71 97 92 96 468 522 465 467 526 521 921 703 704 705 1195 
15 58 46 64 62 328 330 389 388 329 417 1023 706 707 1032 1196 
15 13 9 33 14 154 159 186 182 155 193 711 708 709 710 1197 
15 39 56 40 51 296 298 292 293 362 297 713 778 712 805 1198 
15 3 7 28 2 113 142 116 107 108 111 717 714 715 716 1199 
15 46 57 58 41 327 383 328 300 301 302 720 718 719 1012 1200 
15 90 50 48 70 360 336 341 460 359 339 998 721 1020 722 1201 
15 90 54 70 48 378 375 460 341 337 339 723 882 1018 722 1202 
15 58 43 64 42 311 314 389 306 303 307 1055 724 1059 1024 1203 
15 28 43 27 7 257 254 253 142 143 141 728 725 726 727 1204 
15 8 49 47 44 153 331 152 151 320 319 729 734 811 730 1205 
15 28 8 47 44 148 152 260 258 151 319 732 746 730 731 1206 
15 43 49 12 44 310 176 173 308 320 174 918 819 733 739 1207 
15 12 49 13 44 176 189 171 174 320 188 794 733 735 737 1208 
15 49 8 13 44 153 147 189 320 151 188 736 734 742 735 1209 
15 12 13 7 44 171 139 138 174 188 144 738 737 743 740 1210 
15 43 12 7 44 173 138 143 308 174 144 931 739 740 741 1211 
15 13 8 7 44 147 136 139 188 151 144 744 742 745 743 1212 
15 7 8 28 44 136 148 142 144 151 258 748 745 746 747 1213 
15 91 51 49 65 367 342 351 437 363 345 752 749 750 751 1214 
15 92 87 65 86 509 436 438 508 505 435 756 753 754 755 1215 
15 63 61 60 82 414 404 405 423 416 412 813 757 758 768 1216 
15 60 61 77 82 404 415 409 412 416 483 760 758 759 770 1217 
15 67 51 72 71 364 366 446 445 365 462 763 836 761 762 1218 
15 91 92 67 65 519 448 447 437 438 433 767 764 765 766 1219 
15 63 60 81 82 405 411 422 423 412 493 862 768 775 769 1220 
15 76 60 77 82 408 409 479 482 412 483 772 773 770 771 1221 
15 60 76 81 82 408 481 411 412 482 493 776 773 774 775 1222 
15 39 56 51 55 296 362 293 295 379 361 778 777 800 820 1223 
15 18 35 13 51 220 187 184 222 281 190 780 779 786 781 1224 
15 55 13 51 18 191 190 361 223 184 222 782 798 781 821 1225 
15 49 55 12 51 344 180 176 342 361 178 784 840 783 791 1226 
15 35 33 13 51 272 186 187 281 275 190 787 785 789 786 1227 
15 33 49 13 51 274 189 186 275 342 190 790 788 793 789 1228 
15 49 12 13 51 176 171 189 342 178 190 794 791 792 793 1229 
15 55 13 18 17 191 184 223 217 183 208 798 795 796 797 1230 
15 71 56 55 51 381 379 380 365 362 361 801 799 800 838 1231 
15 51 40 39 35 297 292 293 281 280 279 805 802 803 804 1232 
15 37 36 50 34 282 283 286 277 276 278 808 806 807 953 1233 
15 47 60 44 65 332 321 319 335 406 322 990 1039 815 810 1234 
15 49 47 44 65 331 319 320 345 335 322 811 809 810 817 1235 
15 47 61 60 63 333 404 332 334 414 405 814 812 813 1036 1236 
15 43 44 60 65 308 321 313 315 322 406 816 818 815 857 1237 
15 43 49 44 65 310 320 308 315 345 322 819 852 817 818 1238 
15 39 51 18 55 293 222 221 295 361 223 823 820 821 822 1239 
15 54 39 38 17 294 290 291 216 214 213 826 1029 824 825 1240 
15 90 70 95 69 460 461 517 455 452 458 867 827 828 829 1241 
15 49 12 54 85 176 179 343 348 181 377 830 917 906 878 1242 
15 71 49 54 70 347 343 376 459 346 375 871 831 832 833 1243 
15 51 91 71 67 367 464 365 364 447 445 837 834 835 836 1244 
15 49 55 51 71 344 361 342 347 380 365 840 872 838 839 1245 
15 6 43 26 42 133 251 129 132 303 250 843 1030 841 842 1246 
15 73 58 78 57 390 393 472 385 383 386 1093 844 897 845 1247 
15 37 22 17 38 236 210 212 285 237 213 849 846 847 848 1248 
15 43 49 65 86 310 345 315 317 349 435 852 850 851 856 1249 
15 59 43 60 86 312 313 398 403 317 413 854 938 855 853 1250 
15 60 43 65 86 313 315 406 413 317 435 857 855 856 858 1251 
15 63 60 65 86 405 406 421 424 413 435 1037 860 858 859 1252 
15 60 63 81 86 405 422 411 413 424 494 862 860 861 941 1253 
15 37 17 16 54 212 201 204 289 216 207 865 863 966 864 1254 
15 71 95 90 70 466 517 463 459 461 460 876 866 867 868 1255 
15 49 55 71 54 344 380 347 343 373 376 872 869 870 871 1256 
15 95 71 90 96 466 463 517 525 467 518 876 873 874 875 1257 
15 88 69 66 89 453 440 442 510 454 443 887 896 935 909 1258 
15 90 49 54 85 350 343 378 504 348 377 879 877 878 884 1259 
15 78 64 62 84 426 417 418 486 428 420 881 880 1033 1017 1260 
15 90 66 89 64 444 443 513 432 425 431 934 983 907 984 1261 
15 54 90 85 48 378 504 377 337 341 340 884 882 883 905 1262 
15 69 68 88 66 449 450 453 440 439 442 888 885 886 887 1263 
15 9 29 28 31 157 255 156 158 261 256 892 889 890 891 1264 
15 54 12 50 48 179 177 354 337 175 336 962 904 893 1019 1265 
15 88 69 89 94 453 454 510 512 457 514 896 894 924 895 1266 
15 78 58 62 57 393 388 418 386 383 384 1087 897 898 899 1267 
15 69 54 50 70 374 354 358 452 375 359 926 900 1021 915 1268 
15 90 86 91 49 506 507 515 350 349 351 903 901 902 949 1269 
15 12 54 85 48 179 377 181 175 337 340 906 904 905 1001 1270 
15 89 66 88 64 443 442 510 431 425 430 909 907 908 910 1271 
15 88 84 89 64 500 501 510 430 428 431 911 1082 985 910 1272 
15 69 70 50 66 452 359 358 440 441 356 915 912 913 914 1273 
15 49 43 12 85 310 173 176 348 316 181 918 916 1003 917 1274 
15 92 72 97 71 469 470 522 465 462 468 922 919 920 921 1275 
15 90 94 89 69 516 514 513 455 457 454 925 923 924 933 1276 
15 69 54 53 50 374 371 372 358 354 353 927 926 955 943 1277 
15 68 69 52 50 449 370 369 357 358 352 930 928 945 929 1278 
15 48 7 43 12 145 143 309 175 138 173 932 978 931 1000 1279 
15 69 90 66 89 455 444 440 454 513 443 936 933 934 935 1280 
15 59 43 86 85 312 317 403 402 316 503 938 1005 937 1069 1281 
15 60 80 86 81 410 492 413 411 489 494 942 939 940 941 1282 
15 69 53 52 50 372 368 370 358 353 352 946 943 944 945 1283 
15 90 71 49 91 463 347 350 515 464 351 950 947 948 949 1284 
15 50 37 34 16 286 277 278 205 204 203 953 951 952 974 1285 
15 54 16 53 50 207 206 371 354 205 353 956 964 954 955 1286 
15 46 32 30 6 269 264 265 134 131 130 959 957 958 1006 1287 
15 32 34 11 50 268 168 167 271 278 170 961 960 973 995 1288 
15 12 17 54 50 172 216 179 177 215 354 963 967 965 962 1289 
15 17 16 54 50 201 207 216 215 205 354 966 970 964 965 1290 
15 11 17 12 50 166 172 163 170 215 177 969 971 967 968 1291 
15 11 16 17 50 165 201 166 170 205 215 972 975 970 971 1292 
15 11 34 16 50 168 203 165 170 278 205 976 973 974 975 1293 
15 11 7 48 12 137 145 169 163 138 175 980 977 978 979 1294 
15 64 50 90 66 355 360 432 425 356 444 999 981 982 983 1295 
15 90 89 84 64 513 501 502 432 431 428 986 984 985 1013 1296 
15 85 59 58 80 402 387 397 491 401 395 1043 1067 1072 987 1297 
15 60 45 47 44 324 323 332 321 318 319 991 988 989 990 1298 
15 11 32 50 48 167 271 170 169 270 336 995 992 993 994 1299 
15 50 64 90 48 355 432 360 336 338 341 999 996 997 998 1300 
15 43 12 85 48 173 181 316 309 175 340 1003 1000 1001 1002 1301 
15 59 43 85 64 312 316 402 399 314 429 1005 1056 1004 1044 1302 
15 30 6 26 46 130 129 248 265 134 252 1009 1006 1007 1008 1303 
15 46 41 58 42 300 302 328 304 299 306 1012 1010 1011 1025 1304 
15 90 84 85 64 502 499 504 432 428 429 1015 1013 1048 1014 1305 
15 84 62 78 79 420 418 486 488 419 484 1017 1077 1089 1016 1306 
15 70 54 50 48 375 354 359 339 337 336 1021 1018 1019 1020 1307 
15 78 74 79 58 474 475 484 393 391 394 1022 1094 1041 1090 1308 
15 58 46 42 64 328 304 306 389 330 307 1025 1023 1064 1024 1309 
15 54 39 17 55 294 214 216 373 295 217 1029 1026 1027 1028 1310 
15 43 6 48 42 133 135 309 303 132 305 1031 1030 1052 1060 1311 
15 84 64 62 58 428 417 420 396 389 388 1033 1047 1032 1078 1312 
15 58 80 75 74 395 478 392 391 476 473 1071 1042 1034 1035 1313 
15 47 60 65 63 332 406 335 334 405 421 1039 1036 1037 1038 1314 
15 58 80 74 79 395 476 391 394 487 475 1042 1085 1040 1041 1315 
15 85 59 64 58 402 399 429 397 387 389 1044 1043 1057 1046 1316 
15 84 85 64 58 499 429 428 396 397 389 1048 1045 1046 1047 1317 
15 60 75 80 76 407 478 410 408 477 480 1073 1049 1050 1051 1318 
15 48 6 46 42 135 134 326 305 132 304 1054 1052 1053 1063 1319 
15 58 43 59 64 311 312 387 389 314 399 1058 1055 1056 1057 1320 
15 64 43 48 42 314 309 338 307 303 305 1061 1059 1060 1062 1321 
15 64 48 46 42 338 326 330 307 305 304 1065 1062 1063 1064 1322 
15 86 59 85 80 403 402 503 492 401 491 1069 1066 1067 1068 1323 
15 59 58 80 75 387 395 401 400 392 478 1072 1070 1071 1074 1324 
15 60 75 59 80 407 400 398 410 478 401 1076 1073 1074 1075 1325 
15 62 84 58 79 420 396 388 419 488 394 1078 1077 1084 1088 1326 
15 88 84 64 83 500 428 430 498 497 427 1082 1079 1080 1081 1327 
15 80 84 79 58 490 488 487 395 396 394 1086 1083 1084 1085 1328 
15 78 58 79 62 393 394 484 418 388 419 1090 1087 1088 1089 1329 
15 78 74 58 73 474 391 393 472 471 390 1094 1091 1092 1093 1330 

CELL_TYPES 236
24
24
24
24
24
24
24
24
24
24
24
24
24
24
24
24
24
24
24
24
24
24
24
24
24
24
24
24
24
24
24
24
24
24
24
24
24
24
24
24
24
24
24
24
24
24
24
24
24
24
24
24
24
24
24
24
24
24
24
24
24
24
24
24
24
24
24
24
24
24
24
24
24
24
24
24
24
24
24
24
24
24
24
24
24
24
24
24
24
24
24
24
24
24
24
24
24
24
24
24
24
24
24
24
24
24
24
24
24
24
24
24
24
24
24
24
24
24
24
24
24
24
24
24
24
24
24
24
24
24
24
24
24
24
24
24
24
24
24
24
24
24
24
24
24
24
24
24
24
24
24
24
24
24
24
24
24
24
24
24
24
24
24
24
24
24
24
24
24
24
24
24
24
24
24
24
24
24
24
24
24
24
24
24
24
24
24
24
24
24
24
24
24
24
24
24
24
24
24
24
24
24
24
24
24
24
24
24
24
24
24
24
24
24
24
24
24
24
24
24
24
24
24
24
24
24
24
24
24
24
24
24
24
24
24
24

POINT_DATA 1331
VECTORS displacement float
0 0 0
0 0 0
0 0 0
0 0 0
0 0 0
0 0 0
0 0 0
0 0 0
0 0 0
0 0 0
0 0 0
0 0 0
0 0 0
0 0 0
0 0 0
0 0 0
0 0 0
0 0 0
0 0 0
0 0 0
0 0 0
0 0 0
0 0 0
0 0 0
0 0 0
-0.00777837 -0.00552787 -0.00534876
-0.00631871 -0.00535818 -0.00267386
-0.0053032 -0.00560362 4.98514e-05
-0.00601705 -0.00557189 0.00273494
-0.00791858 -0.00555053 0.00546977
-0.00592513 -0.002561 -0.00564001
-0.00587455 -0.00257838 0.00564213
-0.00555428 0.00016565 -0.00556984
-0.00571514 2.61374e-05 0.00546129
-0.00547667 0.00281773 -0.00560417
-0.00554832 0.00266383 0.00570057
-0.00791193 0.00572267 -0.00525911
-0.0063028 0.00539724 -0.00256492
-0.00521617 0.00557654 9.56682e-05
-0.00591301 0.00556915 0.00271773
-0.0079759 0.00564453 0.00546849
-0.0125539 -0.00689717 -0.00661522
-0.0123056 -0.00756336 -0.00380443
-0.0120204 -0.00775599 -0.000130102
-0.0132242 -0.00760251 0.00361136
-0.012642 -0.00695231 0.00678972
-0.0127056 -0.00392618 -0.00725508
-0.0127659 -0.00382165 0.00761772
-0.0122662 -7.69002e-05 -0.00781401
-0.0118388 -2.02917e-05 0.00789792
-0.0128646 0.00403525 -0.00793105
-0.0125979 0.00381262 0.00786863
-0.0125085 0.00728523 -0.0066092
-0.0126023 0.0077737 -0.00359735
-0.0117328 0.0078138 9.9569e-05
-0.0130587 0.00756071 0.00371854
-0.012528 0.00703341 0.00689542
-0.0171398 -0.00606313 -0.00563912
-0.0188387 -0.00607352 -0.00273212
-0.0198518 -0.00581089 0.000188195
-0.0190603 -0.00588704 0.00274516
-0.0172595 -0.00609806 0.0055367
-0.0189359 -0.00277116 -0.00640267
-0.0188646 -0.00285763 0.00642111
-0.0199365 0.00012136 -0.00616257
-0.0195064 3.5467e-05 0.00616319
-0.0198016 0.00282374 -0.00595896
-0.019209 0.00272129 0.00583699
-0.0172846 0.00575009 -0.00550596
-0.0184179 0.00580862 -0.00262006
-0.0193654 0.00589272 6.98808e-05
-0.0187319 0.00601962 0.00264895
-0.0172258 0.00576244 0.00546378
-0.025 0 0
-0.025 0 0
-0.025 0 0
-0.025 0 0
-0.025 0 0
-0.025 0 0
-0.025 0 0
-0.025 0 0
-0.025 0 0
-0.025 0 0
-0.025 0 0
-0.025 0 0
-0.025 0 0
-0.025 0 0
-0.025 0 0
-0.025 0 0
-0.025 0 0
-0.025 0 0
-0.025 0 0
-0.025 0 0
-0.025 0 0
-0.025 0 0
-0.025 0 0
-0.025 0 0
-0.025 0 0
0 0 0
0 0 0
-0.00441815 -0.00335948 -0.00474297
-0.00259479 -0.00418537 -0.0027315
0 0 0
0 0 0
0 0 0
0 0 0
-0.00210923 -0.00430426 -0.00180791
0 0 0
0 0 0
-0.00226247 -0.00442105 -0.00100054
-0.00208784 -0.00421985 9.54489e-05
-0.00217876 -0.0042956 0.00115944
0 0 0
0 0 0
0 0 0
0 0 0
-0.00201814 -0.00423521 0.00186073
0 0 0
-0.0025345 -0.00415077 0.00270638
-0.00448509 -0.0033455 0.00474772
0 0 0
0 0 0
0 0 0
-0.0035518 -0.00243135 -0.00428334
-0.00198729 -0.00296872 -0.00271984
-0.00268212 -0.00157931 -0.00402494
-0.00201282 -0.00019745 -0.00437286
0 0 0
0 0 0
-0.00187833 -0.00290781 -0.00157635
-0.00195398 -0.0015872 -0.00282206
-0.00145184 -0.000450277 -0.00312938
-0.00511696 -0.00399654 -0.00272303
-0.00453413 -0.0042549 -0.00137309
-0.00500724 -0.00264988 -0.00411144
-0.00421053 -0.00128998 -0.0045035
0 0 0
0 0 0
0 0 0
0 0 0
-0.00169252 -0.00305481 -0.000772518
-0.00152641 -0.00299002 8.75866e-05
-0.00149429 -0.00294616 0.000931119
-0.00435228 -0.00435678 -9.87712e-05
-0.00399033 -0.00450021 0.00154755
-0.00375624 -0.0013137 -0.00322633
0 0 0
0 0 0
-0.00161592 -0.00286501 0.00170895
-0.00184764 -0.00163577 0.00279248
-0.00154832 -0.000586498 0.00309493
-0.00434288 -0.00427515 0.00287811
-0.00482158 -0.00268224 0.0041597
-0.00442636 -0.00136858 0.0043755
0 0 0
0 0 0
-0.00190165 -0.00295718 0.0027247
-0.00357095 -0.00240998 0.00428484
-0.00260018 -0.00160968 0.00403251
-0.00204674 -0.000309617 0.00439478
0 0 0
0 0 0
-0.00197619 0.000281926 -0.00421798
0 0 0
0 0 0
0 0 0
0 0 0
-0.00146533 0.000248681 -0.00287269
-0.00136602 0.000962572 -0.00292688
-0.00374006 1.46454e-05 -0.00458467
-0.00382534 0.00164166 -0.00447549
0 0 0
0 0 0
-0.00422951 -0.00318995 -6.30133e-05
-0.00380735 -0.00318782 0.00150805
-0.00379409 3.54055e-05 -0.00327526
-0.00432257 1.13842e-05 0.00332993
-0.00365899 0.00158794 -0.0031551
-0.00405477 0.00148712 0.00318511
-0.00419994 0.00321138 4.68921e-05
-0.00389359 0.00312649 0.00160539
-0.0124256 4.49658e-06 2.20137e-05
0 0 0
0 0 0
0 0 0
0 0 0
-0.00159255 0.000144088 0.0030126
-0.00148625 0.000882288 0.0030677
-0.00397157 -0.00306477 0.00291508
-0.0043001 -3.49047e-05 0.00449647
-0.00428924 0.00146902 0.00442259
-0.00386528 0.00311808 0.00298395
0 0 0
-0.00205418 0.000175748 0.00437263
0 0 0
0 0 0
0 0 0
-0.00215772 0.00080203 -0.00423511
-0.00220087 0.00175911 -0.003898
-0.00345622 0.00239345 -0.00415347
-0.00195845 0.00289039 -0.00266367
0 0 0
0 0 0
-0.00157115 0.00167953 -0.00275048
-0.00185451 0.00285591 -0.00152473
-0.0042215 0.00295054 -0.00420202
-0.00481784 0.00414944 -0.00263965
-0.00440307 0.00429084 -0.00130024
0 0 0
0 0 0
0 0 0
0 0 0
-0.00165478 0.00302073 -0.00074361
-0.00149615 0.00295563 0.000101558
-0.00148223 0.00297017 0.000942005
-0.00387906 0.00293877 -0.00303044
-0.00422018 0.00436614 1.99936e-05
-0.00395348 0.00451842 0.00161064
0 0 0
0 0 0
-0.00163223 0.00161268 0.00293915
-0.00159668 0.00280196 0.00170925
-0.00442761 0.00279365 0.00438161
-0.00416118 0.00436508 0.00293494
0 0 0
0 0 0
-0.0022497 0.000721952 0.00443327
-0.00226646 0.00167389 0.00408221
-0.0018711 0.00285423 0.00273805
-0.00352497 0.00233504 0.00425292
0 0 0
-0.00442628 0.00333819 -0.00465356
-0.00259252 0.00414783 -0.00263738
0 0 0
-0.00209865 0.00426613 -0.00176537
0 0 0
-0.0022382 0.00436863 -0.000948081
-0.00205855 0.00417979 0.000118026
-0.002166 0.00429258 0.00117483
0 0 0
-0.00197694 0.00414447 0.00188075
-0.00250224 0.00405966 0.00267766
-0.00449263 0.00328238 0.00472708
-0.00686432 -0.00550989 -0.00420453
-0.00644898 -0.00403062 -0.00569106
-0.0101822 -0.00640308 -0.00602871
-0.00950773 -0.00508244 -0.0063031
-0.00571352 -0.00555648 -0.00131179
-0.00543225 -0.00399211 -0.00424489
-0.00968386 -0.00629734 -0.00482349
-0.00920319 -0.0064515 -0.00345074
-0.00889646 -0.00659913 -0.00192955
-0.00884022 -0.00499655 -0.00492906
-0.00561097 -0.00558748 0.00138337
-0.00849356 -0.0067207 -0.000116364
-0.00685421 -0.00557369 0.00430723
-0.00534534 -0.0040502 0.0043045
-0.00874316 -0.0068254 0.00165523
-0.00943491 -0.00669132 0.0034129
-0.00974453 -0.0064078 0.00504571
-0.00886394 -0.00504052 0.00512377
-0.00649147 -0.00404846 0.00577884
-0.010301 -0.00643638 0.00626234
-0.00958518 -0.00507735 0.00649522
-0.00564801 -0.00132617 -0.00565782
-0.00923246 -0.00345254 -0.00652788
-0.00564912 -0.00135726 0.00563357
-0.00923108 -0.00338639 0.00667382
-0.00543169 0.00140581 -0.00564403
-0.00869864 -0.00185601 -0.0067807
-0.00861433 2.60192e-05 -0.00689076
-0.00863779 0.00177421 -0.00693663
-0.00551907 0.00128536 0.00570031
-0.00867688 -0.00176312 0.00679938
-0.00857682 -5.28605e-05 0.0067481
-0.00858379 0.00165687 0.00684739
-0.00627357 0.00431622 -0.00560644
-0.00518844 0.00421496 -0.00413318
-0.00901586 0.00373436 -0.00674234
-0.00519253 0.00413096 0.00433991
-0.0063863 0.00415556 0.0058231
-0.00895937 0.00348003 0.00679517
-0.00692567 0.00563644 -0.00407907
-0.00942464 0.00552903 -0.0063107
-0.0102396 0.00686396 -0.00589328
-0.00565597 0.00553782 -0.00121026
-0.0086499 0.00532174 -0.00493227
-0.00967958 0.00666186 -0.00470483
-0.00927756 0.00666047 -0.00326005
-0.00879509 0.00664842 -0.00170044
-0.00553501 0.0056134 0.00139689
-0.00831816 0.00673924 3.84011e-05
-0.00685989 0.00561117 0.00430536
-0.00875591 0.00515117 0.00523568
-0.00860644 0.00685607 0.00174433
-0.00928209 0.00671059 0.0034888
-0.00969292 0.00650661 0.00511268
-0.00951 0.00522596 0.00661624
-0.0102649 0.00658136 0.00631252
-0.0123344 -0.00689066 -0.00541747
-0.0125243 -0.0056021 -0.00693788
-0.0148505 -0.00641988 -0.00633887
-0.0151052 -0.00638387 -0.00509033
-0.0121233 -0.00764808 -0.00207094
-0.0122593 -0.00562532 -0.00553187
-0.012172 -0.00381119 -0.00563752
-0.0155429 -0.00651565 -0.00353609
-0.0161802 -0.00346815 -0.00526145
-0.0122748 -0.00782803 0.00177209
-0.012171 -0.0038208 -0.00366463
-0.012171 -0.00374193 0.00373013
-0.0158187 -0.00664926 -0.00184675
-0.0161765 -0.00665483 4.69379e-05
-0.0159348 -0.00697903 0.00185129
-0.0165222 -0.00346085 -0.00354066
-0.0167725 -0.0035108 0.00378807
-0.0207545 -0.00316167 0.000136823
-0.020793 -0.00309047 0.00163025
-0.0126894 -0.00693493 0.0054552
-0.0126537 -0.0056082 0.00571702
-0.0123511 -0.00369369 0.00580284
-0.0162734 -0.00645052 0.00356511
-0.0164724 -0.00355196 0.00549709
-0.0126198 -0.00561503 0.0071877
-0.0154145 -0.00639176 0.00500183
-0.0149834 -0.00652423 0.00623435
-0.0122848 -0.0020825 -0.00756869
-0.0154186 -0.00509306 -0.00653076
-0.0157449 -0.0050404 -0.00517653
-0.0156776 -0.00356969 -0.00667288
-0.0160405 -0.00191177 -0.00680957
-0.0121438 -0.00199642 0.0077663
-0.0160704 -0.0051011 0.00522612
-0.0155724 -0.00519064 0.00651676
-0.0156584 -0.00368059 0.00680874
-0.0158693 -0.00197617 0.00710662
-0.0124881 0.0020246 -0.0078092
-0.0121486 0.00388151 -0.00351273
-0.0162998 -0.000107287 -0.00687281
-0.0167211 0.00367972 -0.00335372
-0.0206784 0.00010388 -0.00335076
-0.020656 0.00148317 -0.00322711
-0.0120455 0.0019878 0.00785592
-0.0121994 0.00375989 0.00364784
-0.0121744 0.0038167 0.0057719
-0.0160018 -0.000192585 0.00724034
-0.0167916 0.00369654 0.00341917
-0.0164393 0.00368172 0.0053272
-0.0208785 8.66079e-06 0.003402
-0.0208488 -0.000155833 0.0047274
-0.0209905 0.00136505 0.0034109
-0.0206859 0.00124043 0.00476648
-0.0125369 0.00593643 -0.0071008
-0.0124214 0.00601262 -0.00557273
-0.0122493 0.00593299 -0.00365112
-0.0162573 0.00194912 -0.00665225
-0.016452 0.00366582 -0.00657988
-0.0156347 0.00540414 -0.00633069
-0.0161173 0.00533765 -0.0049799
-0.0164586 0.00544688 -0.0033364
-0.0204434 0.00295407 -0.00293076
-0.0127645 0.0055887 0.00580589
-0.0125379 0.0056604 0.00733443
-0.0159414 0.00175443 0.00712443
-0.0159715 0.00354321 0.00685403
-0.0161644 0.005316 0.0051701
-0.0155737 0.00523626 0.00652051
-0.0202027 0.00277544 0.00448808
-0.0124432 0.00733093 -0.00531949
-0.0148182 0.00680044 -0.00599976
-0.0151354 0.00664016 -0.00479297
-0.0120763 0.00778017 -0.00183608
-0.0156917 0.00678665 -0.00342833
-0.0121635 0.00778748 0.00193253
-0.01568 0.00696758 -0.00172319
-0.015775 0.00713903 9.11492e-05
-0.0159081 0.00683664 0.00193527
-0.0203122 0.00320234 2.89057e-05
-0.020021 0.0044773 4.30114e-05
-0.0127012 0.00701379 0.00554637
-0.0162607 0.00647938 0.00360981
-0.0154221 0.00646093 0.00499746
-0.0148795 0.00660196 0.00620167
-0.0180315 -0.00604061 -0.00447685
-0.0183871 -0.00445576 -0.00620376
-0.020397 -0.00355424 -0.00507215
-0.0213156 -0.00268741 -0.00470383
-0.0194157 -0.00599739 -0.00127763
-0.0193188 -0.00446214 -0.00471309
-0.0198475 -0.00298049 -0.00467509
-0.0223545 -0.00434797 -0.00296951
-0.0229278 -0.00437312 -0.00202506
-0.0226959 -0.00459879 -0.00117862
-0.0229373 -0.00320495 -0.0031608
-0.0231934 -0.00310099 -0.00207764
-0.0232734 -0.00334059 -0.000985318
-0.0233206 -0.00194461 -0.00205863
-0.0234845 -0.00210879 -0.000967251
-0.0194964 -0.00597454 0.00155482
-0.0203112 -0.0029813 -0.00304495
-0.0228249 -0.00447146 5.51217e-05
-0.0233946 -0.003406 2.28719e-05
-0.0236164 -0.00240664 1.38862e-06
-0.0236002 -0.00253286 0.000849306
-0.0181985 -0.00599727 0.00440082
-0.0194792 -0.00447262 0.00470861
-0.0199871 -0.00305416 0.00469502
-0.0226767 -0.00469452 0.0012317
-0.022998 -0.00432848 0.00201597
-0.02241 -0.0043403 0.00288966
-0.0233216 -0.0034284 0.000997595
-0.0232816 -0.00307754 0.00203842
-0.0229904 -0.00320765 0.00308581
-0.0234522 -0.00193587 0.00199555
-0.0184655 -0.004551 0.00614908
-0.0204717 -0.00358453 0.00495521
-0.0213682 -0.00273113 0.00460283
-0.0194495 -0.00128602 -0.0063115
-0.0224699 -0.0018395 -0.00443227
-0.0231634 -0.0018319 -0.00331192
-0.023312 -0.000858685 -0.00327795
-0.0192423 -0.0013681 0.00634137
-0.0232265 -0.00187681 0.00317384
-0.0224794 -0.00190752 0.00429851
-0.0233682 -0.00088993 0.00307613
-0.0198358 0.0016563 -0.00605019
-0.022708 -0.000674593 -0.00473908
-0.0230711 -8.26868e-05 -0.00462511
-0.0234539 -5.08747e-05 -0.00358224
-0.0235205 0.000119238 -0.0025315
-0.0230506 0.000495715 -0.00474955
-0.0234241 0.000853467 -0.00376374
-0.0235788 0.000897829 -0.00284705
-0.0192802 0.00150969 0.00601833
-0.0227102 -0.00065334 0.0045021
-0.0233618 6.04215e-05 0.00309608
-0.0229962 -0.000152816 0.00441901
-0.0235158 0.000618734 0.00332817
-0.0229491 0.000296398 0.00457254
-0.0187413 0.00426663 -0.00585927
-0.0195768 0.00426331 -0.0044538
-0.0199917 0.00438139 -0.00286723
-0.0225419 0.00182292 -0.00444394
-0.0231361 0.00191888 -0.00341291
-0.0233116 0.00194141 -0.00236643
-0.0196129 0.00427593 0.00446938
-0.0185921 0.00421951 0.0059114
-0.0231854 0.00164317 0.0030541
-0.0224041 0.00159916 0.00424837
-0.0179656 0.00574187 -0.00428363
-0.021486 0.00264037 -0.00468218
-0.0205289 0.00345573 -0.0051018
-0.0190101 0.00590664 -0.00123223
-0.0229185 0.00314321 -0.00320038
-0.0231676 0.00310247 -0.00216395
-0.0232581 0.00304427 -0.00115607
-0.0222825 0.00433607 -0.00308376
-0.0227756 0.00452574 -0.0020442
-0.0226473 0.00446904 -0.00122612
-0.019112 0.0061521 0.00124866
-0.0229543 0.00284436 7.19093e-06
-0.0226682 0.00423223 3.14e-05
-0.0180885 0.00573853 0.00431671
-0.0232703 0.00278411 0.00109494
-0.0231727 0.00283927 0.00216666
-0.0230261 0.0030037 0.00308391
-0.0227378 0.00424572 0.0012969
-0.0229278 0.00424425 0.00199137
-0.0223974 0.00418353 0.00297088
-0.0214683 0.00247262 0.00457937
-0.0205155 0.00334868 0.0050061
-0.025 0 0
-0.025 0 0
-0.025 0 0
-0.025 0 0
-0.025 0 0
-0.025 0 0
-0.025 0 0
-0.025 0 0
-0.025 0 0
-0.025 0 0
-0.025 0 0
-0.025 0 0
-0.025 0 0
-0.025 0 0
-0.025 0 0
-0.025 0 0
-0.025 0 0
-0.025 0 0
-0.025 0 0
-0.025 0 0
-0.025 0 0
-0.025 0 0
-0.025 0 0
-0.025 0 0
-0.025 0 0
-0.025 0 0
-0.025 0 0
-0.025 0 0
-0.025 0 0
-0.025 0 0
-0.025 0 0
-0.025 0 0
-0.025 0 0
-0.025 0 0
-0.025 0 0
-0.025 0 0
-0.025 0 0
-0.025 0 0
-0.025 0 0
-0.025 0 0
-0.025 0 0
-0.025 0 0
-0.025 0 0
-0.025 0 0
-0.025 0 0
-0.025 0 0
-0.025 0 0
-0.025 0 0
-0.025 0 0
-0.025 0 0
-0.025 0 0
-0.025 0 0
-0.025 0 0
-0.025 0 0
-0.025 0 0
-0.025 0 0
-0.0204206 0.00480877 -0.00459325
-0.0221232 0.00202937 -0.00397351
-0.0107427 -0.00675285 0.00469664
-0.02345 0.00369003 -0.00180269
-0.025 0 0
-0.0236581 0.00261856 -0.00265188
0 0 0
-0.025 0 0
0 0 0
-0.00746227 0.00631843 -0.000990062
-0.025 0 0
-0.02291 -0.000161537 0.00270928
-0.00895457 0.00639949 -0.00490696
-0.0106301 0.00626926 -0.00639402
-0.025 0 0
-0.0214882 -0.00135214 0.00521598
-0.0240606 -0.000770983 0.00261116
-0.00448048 -0.00462421 -0.00424503
-0.00279834 -0.00195151 -0.00367888
-0.00973337 -0.0013682 -0.00716565
-0.0166156 -0.0043937 -0.00644111
-0.0106768 -0.00578942 -0.00638712
-0.00892455 -0.00605143 -0.00504695
-0.00317657 0.00490723 0.000818211
-0.000937906 -0.00186954 -0.00170386
-0.0082523 -0.00425662 -0.006142
-0.00825182 -0.00519867 -0.0051507
0 0 0
-0.0240879 -0.00043068 0.00273002
-0.025 0 0
-0.0236528 -0.00052705 0.00369899
-0.00395669 0.00276389 -0.00475225
0 0 0
-0.00126848 -0.0025108 -0.00235132
-0.00144949 -0.0035198 -0.00153621
-0.00105052 -0.0026274 -0.00168479
-0.0105519 0.00694478 -0.00444997
-0.0102775 0.00607965 -0.00558762
-0.00188229 -0.0012883 -0.0024916
-0.025 0 0
-0.00250457 -0.00296238 -0.000624356
0 0 0
-0.00128179 0.000604451 -0.00352241
0 0 0
-0.0170778 0.00451743 -0.00620611
-0.0205625 0.00288769 0.00210891
-0.010058 -0.00714881 0.00225469
-0.0208409 0.00274064 0.0051473
-0.016113 0.0062266 0.00519536
-0.0143857 0.00594283 0.00661094
-0.00994599 0.00607101 -0.00457532
-0.00340446 -0.00115032 -0.00498024
-0.00122847 -0.00113991 -0.00236592
-0.00404932 0.00267803 0.00488256
0 0 0
-0.00139748 -0.00345307 0.00153026
0 0 0
-0.000994209 -0.00257845 0.00166596
-0.025 0 0
-0.00363969 0.00363856 -0.00399184
-0.00452976 0.00463333 -0.00413286
-0.00273963 0.0018991 -0.00359015
-0.00124866 0.00244144 -0.00228393
-0.00142351 0.00344028 -0.00147993
-0.00102602 0.00252251 -0.00163159
0 0 0
0 0 0
-0.000922998 0.00122924 -0.00229152
-0.000902818 0.00175829 -0.00167371
-0.00298761 0.00292369 -0.00373468
0 0 0
0 0 0
-0.000916615 -0.000486371 -0.00262965
0 0 0
-0.000864601 -8.0123e-05 -0.00266241
-0.000859441 0.000210786 -0.00254871
-0.00126685 -0.000160727 -0.00356727
0 0 0
-0.00136353 0.000565159 0.003728
-0.0104762 -0.00661056 -0.00459648
-0.00996743 -0.00577614 -0.00463442
-0.0103176 -0.00570175 -0.00557173
-0.00277943 0.00185376 0.00361133
-0.00361748 0.00359153 0.0041063
-0.00452186 0.00456574 0.00423767
-0.0171648 0.00230337 0.00669578
0 0 0
-0.000970624 0.00253574 -0.00117541
0 0 0
-0.00100277 0.00282965 -0.000732377
-0.00141504 0.00369071 -0.00101262
-0.0242202 0.000290148 0.00216512
0 0 0
-0.0014359 -0.0037386 -0.00105479
-0.00632848 0.00458224 0.00110386
-0.00321725 0.00131425 0.0050587
-0.00090959 0.000737987 0.00263232
-0.000927041 0.000460008 0.0027688
-0.00322667 -0.00500117 -0.000624742
-0.000947169 -0.00273544 -0.000351989
-0.00336561 -0.00123408 0.00500596
0 0 0
-0.000884819 0.00258164 0.000535495
-0.00132926 0.00350726 0.00116689
0 0 0
-0.000911203 0.00265013 0.000881057
-0.000773264 0.00194923 0.000768003
-0.000888629 0.0023991 0.00126323
-0.00459106 -0.00473235 -0.000870427
-0.00756635 -0.00630629 -0.00116051
-0.002577 -0.00400606 -0.000645145
-0.00317807 0.0014326 -0.00486303
-0.000860097 0.00077917 -0.00244965
-0.000866795 0.000503019 -0.00258894
-0.00299635 0.00285507 0.00386048
-0.000953362 0.00119234 0.00243646
-0.00254141 0.00282425 0.0030402
-0.000860149 0.00173218 0.00172506
0 0 0
-0.0012054 0.00237335 0.00228084
-0.00135697 0.00334024 0.0015186
-0.000963982 0.00245423 0.00165968
-0.000887487 -0.00185849 0.00169915
-0.00116156 -0.0011814 0.00234219
-0.00122868 -0.00246453 0.00230235
-0.00281189 -0.00192529 0.00364346
-0.00450598 -0.00461753 0.00426109
-0.0240244 0.00246268 0.00146948
-0.025 0 0
-0.00185283 0.00265939 0.000896454
0 0 0
-0.00181547 0.00190159 0.00176691
-0.0218541 0.00290901 0.00418111
-0.0240249 0.00185576 0.00209697
-0.00421903 -0.00264523 -0.00487797
-0.00320174 -0.00282637 -0.00385739
-0.00597127 -0.00444978 -0.00481632
-0.00370643 -0.00362388 -0.0041126
-0.016179 -0.00623044 0.00524866
-0.0144249 -0.00584225 0.00656094
-0.0205917 8.70061e-05 -0.00420336
-0.00093394 -0.000590387 0.00266255
-0.000816479 -0.000226652 0.00201786
0 0 0
-0.0236493 -0.000512516 -0.00386513
-0.025 0 0
-0.00436362 -0.000728256 -0.00501453
-0.00182234 -0.000552902 -0.0033663
-0.000736386 -0.000136604 -0.00198925
-0.00507158 0.00455116 -0.00262044
-0.00994006 0.00707255 -0.00237403
-0.00767333 -0.00220741 0.00640249
-0.00265752 -0.00123338 0.00403623
0 0 0
-0.000884806 -0.00204033 -0.000581996
-0.000984974 -0.00258808 -0.00120805
-0.00101281 -0.00286159 -0.000755057
-0.025 0 0
-0.025 0 0
-0.0235242 0.00372627 -0.00126968
-0.00319548 -0.0049123 0.000808625
-0.000902872 -0.00254028 9.33902e-05
-0.00899257 -0.00612433 0.00525623
-0.010421 -0.00573831 0.00582757
-0.0107693 -0.00581818 0.00663192
-0.000912541 -0.00247035 0.00125373
0 0 0
-0.00828831 -0.00525372 0.0053393
-0.00831025 -0.00423826 0.00629934
-0.00477317 -0.00177357 0.00476899
-0.0045527 -0.000833861 0.00484554
-0.00968469 -0.00125772 0.00717673
-0.004994 -0.00267536 0.0046148
-0.00768343 -0.00422006 0.00537963
-0.00268276 -0.00284645 0.00299732
-0.0223736 0.00305676 -0.00174521
-0.0235498 0.0035127 0.00170615
-0.025 0 0
-0.0239356 0.00263689 0.00192941
-0.0169321 -0.00436411 -0.00554658
-0.0170619 -0.00230412 -0.00662359
0 0 0
-0.00132121 -0.000283048 0.00367849
-0.000917852 0.000140953 0.00271719
-0.000905127 -0.000171893 0.00274583
-0.0107038 0.005959 0.00676069
-0.00897299 0.00624515 0.00530672
0 0 0
-0.000893195 -0.0025737 0.000528536
-0.00134139 -0.00351732 0.00114931
-0.00091845 -0.00263649 0.00086901
-0.0142713 -0.00575393 -0.00657392
-0.015954 -0.00621352 -0.00537535
-0.0165174 -0.00537673 -0.00544124
-0.0202042 0.00387518 -0.00193821
-0.0203271 0.00293649 -0.00198964
-0.019885 0.00492312 4.94115e-05
-0.0145927 -0.0068979 -0.00256324
-0.00444513 -0.0047581 0.000958274
-0.00449819 -0.00475202 3.64105e-05
-0.00247173 -0.00393738 0.000813323
-0.00750349 -0.00639824 0.00100031
-0.00691269 -0.00214071 0.00555763
-0.00710202 -0.00428496 0.00437547
-0.0101744 -0.00582175 0.00478156
-0.00488014 -0.00363082 0.00373425
-0.00637323 -0.00215208 0.00350912
-0.00675237 -0.00316895 0.00451594
-0.0064265 -0.00217118 0.00459023
-0.00235681 -0.000729968 0.00304087
-0.0018113 -0.00184653 0.00168142
0 0 0
-0.00633355 -0.00459003 0.000986484
-0.00184917 -0.00264415 0.000790742
-0.00659593 -0.00555942 0.000953822
-0.00208118 -0.00233578 0.00225117
-0.00176106 -0.00262421 0.00149846
0 0 0
-0.00194562 -0.00322285 0.00163324
-0.00474757 -0.00471087 0.00280812
-0.00441408 -0.00486849 0.0019308
-0.000772538 -0.0019287 0.000770162
-0.0202353 0.00183321 0.00504702
-0.0146632 0.0012256 0.00744474
-0.0204962 0.000767825 0.00530244
-0.0179132 0.00223946 0.00576891
-0.025 0 0
-0.0241064 -0.00010553 0.00272928
-0.024095 0.000215466 0.00288969
-0.0236651 0.000273809 0.00378788
-0.0206853 -0.00303716 0.00528169
-0.0212941 -0.00402241 0.00443309
-0.0221143 -0.00211973 0.00385384
-0.020458 -0.00493156 0.0044651
-0.016787 0.00543541 0.00534612
-0.0190542 0.00465718 0.00501036
-0.0168178 0.00443926 0.00638966
-0.024075 0.000584569 0.00276194
-0.0215866 0.00126657 0.00522013
-0.0223749 0.00128679 0.0042595
-0.023845 0.00115971 0.00253074
-0.0217463 -0.00321526 0.00425251
-0.0239282 -0.00136128 0.00258725
-0.0237108 -0.00265559 0.00250747
-0.025 0 0
-0.0235582 -0.00357538 0.00164993
-0.0239598 -0.00270659 0.00186691
-0.025 0 0
-0.0240343 -0.00196683 0.00203918
-0.0240625 -0.00260058 0.00141955
-0.0106797 0.00682259 0.00476185
-0.0103657 0.00585384 0.00596381
-0.00469416 0.00271896 0.00479552
-0.000782188 0.000699872 0.00198585
-0.00227737 0.0015134 0.00307427
-0.00642957 0.00328566 0.00462752
-0.006332 0.00325541 0.00351027
-0.00643445 0.00214787 0.0034863
-0.00756073 0.00209999 0.00643339
-0.00445911 0.00184944 0.00486825
-0.00251814 0.000773673 0.00404637
-0.00968101 0.00118018 0.00713655
-0.00453374 0.000902567 0.0047716
-0.00448127 1.13753e-05 0.00482484
-0.00636532 0.00106647 0.00469298
-0.00223181 0.000921276 0.00253047
-0.00658908 0.00106689 0.00558423
-0.00249276 1.65159e-05 0.00263141
-0.00175651 0.00268766 0.00160731
0 0 0
-0.00193879 0.00326183 0.00166864
-0.00197977 0.00242122 0.00235897
-0.0147641 0.00584002 0.00581254
-0.012627 0.0061373 0.00622908
-0.0147255 0.00663021 0.00475833
-0.00817336 0.00436825 0.00641431
-0.00588192 0.00455385 0.0049185
-0.0074913 0.0043577 0.00549444
-0.00821614 0.00539631 0.00543687
-0.00584564 0.00465482 -0.00469098
-0.00808728 0.00463428 -0.00618709
-0.00814984 0.00556216 -0.00508745
-0.0146184 -0.00147123 0.00738751
-0.0150402 -0.00367045 0.00618682
-0.0122882 -0.00371349 0.00647886
-0.0166946 -0.00452002 0.00645588
-0.0189811 -0.00492383 0.00521842
-0.0167404 -0.00542144 0.00539866
-0.0176874 -0.00447526 0.00465102
-0.0148635 -0.00697002 0.00251834
-0.0149865 -0.00247155 0.00625463
-0.0152308 -0.00489042 0.00388288
-0.0122885 -0.00504338 0.00376031
-0.0101335 0.00587068 0.00488654
-0.00678496 0.00433365 0.00455897
-0.00461329 0.00474739 0.00284413
-0.00461925 0.00371836 0.00383388
-0.00244287 0.00395429 0.000821569
-0.00438799 0.00474361 0.000105792
-0.00738036 0.00643459 0.00108221
-0.0221466 0.00399759 -0.000812467
-0.0215538 0.00504378 -0.000747421
-0.0240051 0.00268945 -0.00059233
-0.00664165 0.00221919 0.00227578
-0.017831 0.00461534 0.00330155
-0.0152315 0.00497613 0.002347
-0.0169941 0.00669454 0.00117531
-0.0200375 0.00277975 0.00488085
-0.0222299 0.00293394 0.00337548
-0.0173889 0.00441488 0.0055353
-0.020008 0.00382151 0.00402702
-0.0152121 0.00581444 0.00489212
-0.0151461 0.00382065 0.00614587
-0.0122748 0.00381365 0.00645694
-0.00999635 -0.00693463 -0.00258354
-0.00522637 -0.00446062 -0.0027214
-0.00491634 -0.00466623 -0.00180465
-0.0203717 -0.00493172 -0.00457716
-0.0220613 -0.00208399 -0.00393463
-0.00319557 0.00493678 -0.000570599
-0.000885228 0.00250739 0.00010497
-0.00251443 0.00395565 -0.000602402
-0.000925201 0.00267604 -0.000326659
-0.0182359 -0.00225713 0.0036386
-0.0204967 -0.000105405 0.00515664
-0.0151556 -0.00241213 0.00507303
-0.0225188 -0.00343456 0.00157388
-0.0172858 -0.00653286 0.00123463
-0.0204895 -0.00396366 0.00201933
-0.020597 -0.00204272 0.00313761
-0.0178035 -0.00450153 0.00361149
-0.0225729 -0.00160033 0.00328938
-0.022356 -0.000669745 0.00421611
-0.0224099 -0.00235629 0.00330934
-0.0241562 -0.000894719 0.00201093
-0.0222495 -0.00317293 0.00339204
-0.00445634 0.00472563 -0.000779325
-0.0048058 0.00470696 -0.00172562
-0.000862418 0.00202098 -0.000559346
-0.0215943 0.00500241 0.00081473
-0.0238828 0.0025388 9.41147e-06
-0.0221416 0.00393477 0.000799823
-0.012199 0.00507831 0.00377359
-0.0149306 0.00704556 0.0025741
-0.015086 0.00499737 0.00366531
-0.0150639 0.00493719 0.00489633
-0.0236259 0.00343442 0.0013274
-0.024084 0.00247767 0.00101613
-0.025 0 0
-0.0240389 0.0024965 0.000616975
-0.0231015 0.000779654 0.00209498
-0.0182836 0.00234794 0.00224732
-0.0181864 0.00346973 0.00223214
-0.0240682 -0.000438384 -0.00297317
-0.0215229 -0.0012963 -0.00538914
-0.0180257 0.00349709 -0.00213741
-0.0228053 0.000827198 -0.00205388
-0.0221675 0.00250056 2.45483e-05
-0.0190448 0.00470056 -0.00496727
-0.0209647 0.00290131 -0.00524016
-0.0218927 0.00308663 -0.00431915
-0.0212443 0.00384584 -0.00451673
-0.00420425 -0.00265649 0.00488738
-0.00596353 -0.00448371 0.00489323
-0.00313529 -0.00284446 0.00385399
-0.00367079 -0.00363166 0.00412535
-0.00611082 0.00115542 -0.00464349
-0.0238599 0.00280241 -0.00197585
-0.025 0 0
-0.0239814 0.00203274 -0.00215001
-0.0212101 -0.00400621 -0.00452832
-0.0188393 -0.0048975 -0.00527296
-0.020648 -0.00297641 -0.00537509
-0.016881 0.0067107 -0.00101738
-0.023204 0.000495182 0.00300598
-0.0230136 0.000449026 0.00357725
-0.025 0 0
-0.00648245 0.0023565 -0.00220292
-0.0181114 0.00236457 -0.00220298
-0.0123956 0.00208713 1.2128e-05
-0.0223583 0.00159685 -0.00459401
-0.0218831 0.00148521 -0.00542864
-0.0237975 0.00135518 -0.00280344
-0.0240448 0.000735442 -0.00309912
-0.025 0 0
-0.0196188 0.00483911 -0.00284427
-0.0178122 0.00457254 -0.00425724
-0.0174638 0.00449826 -0.0052662
-0.0173198 0.00565152 -0.00317106
-0.0183051 -0.00223527 0.00250408
-0.0124886 1.89815e-05 0.00213058
-0.00662913 -0.00218893 0.00227209
-0.0213107 0.00372695 0.00439801
-0.0204735 0.00469133 0.00451349
-0.0237252 0.00248241 0.00255764
-0.0221657 0.00191147 0.00387753
-0.0239835 0.0028071 -0.00102725
-0.0239591 0.0026883 -0.00149576
-0.025 0 0
-0.0149256 0.00618436 -0.00351171
-0.0145827 0.00720025 -0.00244678
-0.0167341 0.00551206 -0.00514571
-0.0143613 0.0061642 -0.00639752
-0.0159515 0.00635757 -0.00503955
-0.00244683 -0.00246581 -0.000107181
-0.00633041 -0.00343582 -0.002224
-0.0240902 0.00205821 -0.00112348
-0.0240064 0.001441 -0.00188505
-0.0222319 0.00315224 -0.0034551
-0.0223168 0.00313146 -0.00255372
-0.0227815 -0.00179183 0.000937943
-0.0207278 -0.00407166 0.0010338
-0.0241339 -0.00232352 0.000998408
-0.025 0 0
-0.0241864 -0.00151503 0.00152113
-0.0242258 -0.00177977 0.00100149
-0.014839 0.00612172 -0.00460643
-0.0124689 0.00648743 -0.00597333
-0.0146215 0.00602745 -0.00559112
-0.0143336 0.00695463 -0.00455019
-0.0240961 0.00169774 0.00111517
-0.0203097 0.00289906 0.00405186
-0.023064 0.00133148 0.00282605
-0.0207054 0.00299069 0.00315032
-0.00479583 0.00377455 -0.0036091
-0.00263277 0.00286245 -0.00289852
-0.00742633 0.0045351 -0.00524769
-0.00698612 0.0044731 -0.00426182
-0.0121653 0.00661157 -0.00365279
-0.00690805 0.00548523 -0.00210029
-0.00476208 -0.00175393 -0.00480378
-0.00265626 -0.0011465 -0.00405847
-0.0076883 -0.00225811 -0.00639341
-0.00750373 0.00228194 -0.00648085
-0.00237915 0.000883187 -0.00393623
-0.00626581 0.00357518 -0.00214248
-0.0023865 0.00253271 6.5713e-06
-0.00665856 0.00455888 -0.00317081
-0.00637032 0.00459375 -0.00214462
-0.00237762 0.00298544 -0.000605866
-0.00176183 0.0016474 -0.00183352
-0.00173611 0.000855245 -0.00260724
0 0 0
-0.00203707 0.00224572 -0.0022563
-0.00170556 0.00152056 -0.00258756
0 0 0
-0.0041998 0.00197746 -0.0048717
-0.00454598 0.00285988 -0.00465133
-0.00185155 0.00164567 -0.00319083
-0.00071166 0.000767264 -0.00186951
0 0 0
-0.00177959 -0.000693218 -0.0019885
-0.00178114 0.000147409 -0.0027298
-0.00169266 -0.00047465 -0.00280919
-0.017541 0.00243 -0.00641807
-0.0204488 0.00298322 -0.00388694
-0.0225949 0.00163553 -0.00371655
-0.0242254 0.000921927 -0.00216889
-0.0241824 0.000339451 -0.0026914
-0.025 0 0
-0.0242357 -0.00169835 -0.00051445
-0.0147046 -0.00661788 0.00472929
-0.0126275 -0.00609836 0.00613316
-0.015108 -0.00582665 0.0048438
-0.0147094 -0.00572709 0.00576475
-0.00416902 0.000133251 -0.00489424
-0.009812 0.00124759 -0.00724357
-0.006439 0.00110914 -0.00566588
-0.00429578 0.00103932 -0.00479339
-0.0150146 0.00131232 -0.0070229
-0.0206439 0.000978326 -0.00433615
-0.0181931 0.00237626 -0.00445305
-0.0206163 0.00203931 -0.00410015
-0.00633878 -0.0023323 -0.00221822
-0.0123275 1.5433e-05 -0.00207457
-0.0180853 -0.00220447 -0.00230911
-0.0123454 -0.00206816 5.28e-05
-0.0205986 -0.00198508 -0.0021086
-0.0206676 -0.00395959 0.000117565
-0.00511153 -0.00264145 -0.00460766
-0.00515742 -0.0035501 -0.00364575
-0.00771808 -0.00419624 -0.00522009
-0.0028498 -0.00281631 -0.00296707
-0.0123584 -0.0060617 -0.00596222
-0.0141897 -0.00665182 -0.00473853
-0.0144347 -0.00567857 -0.0057703
-0.0242243 0.000410772 -0.00221241
-0.024281 0.000519914 -0.00167961
-0.025 0 0
-0.025 0 0
-0.0240314 -0.000723603 -0.00277978
-0.0150986 0.00504272 -0.00219862
-0.0122739 0.0039764 -0.00490303
-0.0154362 0.00385272 -0.00472033
-0.014941 0.00621653 -0.00229253
-0.025 0 0
-0.0172639 -0.00333437 -0.00562011
-0.0173046 -0.00439387 -0.00453115
-0.014558 -0.00577458 -0.00480211
-0.0099123 0.00717577 0.00237533
-0.00434189 0.00490363 0.00196444
-0.00649221 0.00560761 0.00109768
-0.00437852 0.00479665 0.00101089
-0.00706362 -0.00540338 -0.00225218
-0.00659046 -0.00341456 -0.00325908
-0.0196794 -0.00291733 -0.00529429
-0.0224084 -0.000695421 -0.00447445
-0.025 0 0
-0.0235594 -0.00372447 -0.00128128
-0.0171234 -0.00443503 0.00560256
-0.0197606 -0.00300937 0.00530875
-0.0169099 -0.00242004 0.00677351
-0.0174167 -0.00342791 0.00576157
-0.025 0 0
-0.0240304 -0.00260655 -0.00143007
-0.0240266 -0.00286135 -0.000965934
-0.0225171 -0.00341767 -0.000736906
-0.0227547 -0.00178147 -0.00164053
-0.0242716 -0.00100732 -0.00104617
-0.0226381 -0.00159954 -0.00252541
-0.0224762 -0.00152621 -0.00341896
-0.0242215 -4.01987e-05 -0.00197648
-0.0235617 -0.00379628 0.00129003
-0.025 0 0
-0.0240304 -0.00295887 0.000969052
-0.00705031 -0.00327295 -0.00431448
-0.00731087 -0.0042624 -0.00421924
-0.006996 -0.00218736 -0.0054898
-0.0175042 -0.00444617 -0.00342901
-0.0178129 -0.0044 -0.00231907
-0.0199607 -0.00399159 -0.00302125
-0.0171714 -0.0064456 -0.00104077
-0.0149442 -0.00479253 -0.00369224
-0.0121707 -0.00510757 -0.00376414
-0.0151841 -0.00245473 -0.00480363
-0.0149067 -0.00246043 -0.00595951
-0.0122487 -0.00381344 -0.00621475
-0.0148366 -0.00362138 -0.00594078
-0.0148562 -0.00139556 -0.00704577
-0.0242148 -0.00199905 0.000368078
-0.0242552 -0.00192016 -9.05426e-05
-0.025 0 0
-0.0243059 -0.00154429 0.000406597
-0.0217497 -0.00527989 -0.000700326
-0.0240083 -0.00289953 -0.000526907
-0.0222717 -0.00439348 -0.000709916
-0.0240182 -0.0029714 0.000552339
-0.0239812 -0.00281274 3.10331e-05
-0.0223585 -0.00444329 0.000801857
-0.0217305 -0.00533863 0.000838074
-0.0241106 -0.000869191 -0.00214846
-0.022294 -0.0023017 -0.00340722
-0.025 0 0
-0.0241057 -9.67634e-05 -0.0030224
-0.0236747 0.000372515 -0.00395655
-0.0240842 0.000259291 -0.00321043
-0.0241888 -0.00153703 -0.000997914
-0.0241039 -0.00148932 -0.00158271
-0.0241342 -0.00217473 -0.00098909
-0.025 0 0
-0.0216928 -0.00317835 -0.00435327
-0.0221298 -0.0031594 -0.00347753
-0.0239023 -0.00131745 -0.00272972
-0.0239944 -0.00196186 -0.0021133
-0.025 0 0
-0.0235229 -0.00360684 -0.00169118
-0.0236838 -0.00264413 -0.00256682
-0.0239278 -0.00273078 -0.00190405
-0.0220197 0.00339467 -0.00419472
-0.0110009 -0.00613666 0.00537075
-0.0241532 0.0024096 -0.00168734
-0.02075 -0.00153227 0.00256208
-0.00062896 -0.00177709 -0.00122315
-0.0244153 -0.000723021 0.00185326
-0.00103906 -0.000653076 -0.00224322
-0.00457618 0.0049504 -0.000559968
-0.00389741 0.00226916 0.00319176
-0.0239111 0.000308466 0.00202872
-0.0094752 0.00611825 -0.00549121
-0.0244466 0.000321849 0.002016
-0.0231905 -0.000807014 0.00377037
-0.002904 -0.0032441 -0.00383461
-0.0063496 -0.00157761 -0.00566988
-0.0172851 -0.0047649 -0.00568163
-0.00952091 -0.00570169 -0.0055401
-0.00169731 0.00356774 0.000551287
-0.00776401 0.00345855 0.00262778
-0.00190683 -0.00218061 -0.00280089
-0.00746688 -0.00453412 -0.00533155
-0.000516267 0.000667234 -0.00169597
-0.0243497 -0.000332561 0.00239336
-0.00397193 0.0034562 -0.00438272
-0.0187181 -0.00155909 -0.00342164
-0.000775162 -0.00228347 -0.00145498
-0.0108052 0.00643486 -0.00514636
-0.0234676 -0.00291481 0.000970504
-0.00412876 -0.00289994 -0.00215664
-0.0243488 0.00176364 0.00146731
-0.00306458 -0.00362202 -0.000974053
-0.00687112 -0.00455954 -0.00384655
-0.000624901 0.000373053 -0.00227857
-0.020489 0.00368577 0.00229547
-0.000592271 -0.00174201 0.00120953
-0.017662 0.00481429 -0.00538628
-0.01863 0.00417126 0.00162826
-0.00619068 -0.00561526 0.00153873
-0.0208935 0.00347528 0.00479735
-0.015541 0.0058812 0.00573217
-0.00663334 0.0047737 -0.00379236
-0.00191363 -0.00103677 -0.00362339
-0.00400669 0.00337884 0.00452409
-0.00367683 0.000805448 -0.00397025
-0.000606526 0.00167951 -0.00119303
-0.000738599 -0.00223133 0.00142093
-0.0245423 -0.000952451 -0.00060113
-0.00287888 0.00320969 -0.00373168
-0.00075118 0.00220076 -0.00140123
-0.000548961 0.000637067 0.00183412
-0.00471073 0.00344288 0.0043228
-0.00171402 0.00219183 -0.0027268
-0.000568171 0.00163288 0.00121648
-0.000526671 -0.000213669 -0.00186901
-0.000621745 -2.2886e-05 -0.00232049
-0.000675799 0.000340986 0.00244118
-0.010772 -0.00607187 -0.00519074
-0.00287676 0.00314808 0.00377855
-0.0200605 0.00208461 0.00524568
-0.00060871 0.00192911 -0.000577068
-0.000708082 0.00246857 -0.000469038
-0.0223409 0.000384402 0.00417027
-0.000721154 -0.00250844 -0.000493493
-0.00398005 0.00388188 0.000736519
-0.00172826 0.000813056 0.00373834
-0.00174925 -0.0036725 -0.000335257
-0.00188572 -0.00112604 0.00363348
-0.00265952 0.00379823 0.00184211
-0.000653233 0.00231836 0.000631282
-0.000550743 0.00180192 0.000702553
-0.0046881 -0.0049708 -0.000643847
-0.00166555 0.000899572 -0.00355007
-0.00169818 0.00215685 0.00282078
-0.000710941 0.00213216 0.00140199
-0.00183182 -0.00220393 0.00278042
-0.00289954 -0.00322074 0.00380724
-0.0184374 0.00329642 0.00500146
-0.0244328 0.00166559 0.000881491
-0.00105498 0.00182816 0.00107023
-0.0231119 0.00221478 0.00314715
-0.00414934 -0.00335544 -0.00451164
-0.0155351 -0.00580389 0.00573492
-0.00284817 -0.000506177 0.00371113
-0.0223683 0.000662863 -0.00306051
-0.0005555 -0.000297499 0.00192125
-0.0243353 -0.000316371 -0.00258423
-0.00252628 -0.000351985 -0.00390463
-0.00661035 0.00548042 -0.00229858
-0.004942 -0.00200793 0.0049771
-0.000617343 -0.0019573 -0.000596742
-0.0243957 -0.00204961 0.000824022
-0.02427 0.00244127 -0.000709794
-0.0203383 0.00365793 -0.0029388
-0.00171228 -0.00356881 0.00054363
-0.00960411 -0.00575646 0.00577582
-0.000554189 -0.00179628 0.000694441
-0.0074863 -0.00456478 0.00548241
-0.00638544 -0.00155637 0.00563528
-0.0049685 -0.00336507 0.00421325
-0.0217202 0.00374968 -0.00197178
-0.0242131 0.00228412 0.00162117
-0.0177466 -0.00323138 -0.00579109
-0.000660589 -0.000101339 0.00242629
-0.00955252 0.00590106 0.00588873
-0.000657037 -0.00230727 0.000625764
-0.0153038 -0.00575032 -0.00580732
-0.0186864 0.00336617 -0.00319419
-0.0184869 0.00418667 -0.00153198
-0.0161343 -0.00513671 -0.00358579
-0.00459732 -0.00497162 0.000732154
-0.0081706 -0.00337689 0.00527347
-0.00662975 -0.0046612 0.00396914
-0.00776138 -0.00345028 0.00259549
-0.00399842 -0.00146444 0.00317671
-0.00422268 -0.00211775 0.00367182
-0.00104087 -0.00176989 0.000980395
-0.00400966 -0.00386164 0.000598401
-0.00110729 -0.00211481 0.0013828
-0.0027009 -0.00375718 0.00182455
-0.0184872 0.00159192 0.00593583
-0.0243399 0.000105397 0.00249603
-0.0207978 -0.00377978 0.00491864
-0.0220423 -0.00350532 0.00405835
-0.0175895 0.00475295 0.00556836
-0.0231216 0.00112579 0.00379703
-0.0231201 -0.0024452 0.0031596
-0.0242221 -0.00235252 0.00155916
-0.0243728 -0.00182897 0.00140074
-0.0109655 0.00621083 0.00548868
-0.00280933 0.00169544 0.00373376
-0.00410406 0.00289703 0.00375897
-0.00768051 0.00249458 0.00451145
-0.00465968 0.00135078 0.00504545
-0.0061939 0.000761179 0.00559437
-0.00418728 0.000756519 0.00386466
-0.001097 0.00215856 0.00148167
-0.0143436 0.00612178 0.00541222
-0.0073676 0.00470376 0.00557857
-0.00728445 0.00487882 -0.00529837
-0.0163729 -0.00436379 0.00540729
-0.0142548 -0.00282946 0.00659871
-0.0174499 -0.0048344 0.00567084
-0.0164753 -0.00521841 0.00372279
-0.0144412 -0.00368371 0.00479665
-0.00640452 0.00473342 0.00406892
-0.00452177 0.00499676 0.000775288
-0.0230726 0.00363421 -0.000516645
-0.0124586 0.00164347 0.00164143
-0.016421 0.0053696 0.00263666
-0.0199907 0.00351301 0.00450261
-0.0144772 0.00472193 0.00558337
-0.00673808 -0.00539688 -0.00243092
-0.0219838 -0.00348436 -0.00415081
-0.00171277 0.00360982 -0.000304408
-0.0187506 -0.00166483 0.00436801
-0.0204146 -0.00448893 0.00152576
-0.0205362 -0.00302124 0.00310629
-0.0218938 -0.00189356 0.0040283
-0.0233762 -0.00196593 0.00257373
-0.00297875 0.00361843 -0.000931131
-0.0230809 0.0035403 0.000546192
-0.0143933 0.00558065 0.00374425
-0.0243358 0.002195 0.000749183
-0.0231107 0.00243842 -0.00329027
-0.0207101 0.00238144 0.00158624
-0.0231905 -0.000787988 -0.00401224
-0.0234316 0.00149228 -0.00312394
-0.0205086 0.00238936 -0.00152776
-0.0209191 0.00361542 -0.00488519
-0.00411971 -0.00336833 0.00452932
-0.00760553 0.00276432 -0.00345328
-0.024305 0.001914 -0.00149203
-0.0207214 -0.00374478 -0.00500724
-0.0161071 0.00622313 -0.00251904
-0.02389 0.000667639 0.00242199
-0.0123501 0.00167876 -0.00161111
-0.0231509 0.00135902 -0.00413359
-0.0244007 0.000388867 -0.00235865
-0.0181005 0.00492627 -0.00385809
-0.0124512 -0.00160647 0.00172632
-0.0220763 0.00326001 0.00408692
-0.0243689 0.00194197 -0.000893188
-0.0142048 0.00656749 -0.00356257
-0.0154459 0.00603317 -0.00553248
-0.00398502 -0.00232371 -0.0015681
-0.0232724 0.00246857 -0.00224632
-0.0223794 -0.00278443 0.000687433
-0.0244837 -0.00138646 0.000909964
-0.0140627 0.00642951 -0.00517287
-0.0222495 0.00239687 0.00278163
-0.00473946 0.00353801 -0.00413859
-0.00807377 0.00532647 -0.00335582
-0.00497407 -0.00197929 -0.00499772
-0.00445612 0.00148492 -0.0050458
-0.0039401 0.00315647 -0.00144894
-0.00419622 0.00365522 -0.00208082
-0.0010054 0.000979187 -0.00174174
-0.00107312 0.00137565 -0.00207746
-0.00254606 0.00182365 -0.00372557
-0.00100593 -0.000260315 -0.00191027
-0.020477 0.00232002 -0.00450464
-0.0244915 0.000505607 -0.00180293
-0.0234606 -0.00284572 -0.000493831
-0.0142786 -0.00609739 0.00536863
-0.00604274 0.000835685 -0.00568177
-0.0187947 0.00173997 -0.00494547
-0.012253 -0.00164532 -0.00162163
-0.0206424 -0.00305547 -0.0014629
-0.00514353 -0.00331533 -0.00415042
-0.0138607 -0.00607272 -0.00533317
-0.0245242 0.000252953 -0.00148911
-0.0243951 -0.000687139 -0.00198564
-0.0144888 0.00485091 -0.00347846
-0.0243515 -0.00183841 -0.00143483
-0.0160292 -0.00429256 -0.00525033
-0.00611099 0.00566003 0.00162486
-0.00810129 -0.00437841 -0.00343736
-0.0218149 -0.00181468 -0.00413676
-0.0242837 -0.002511 -0.000683297
-0.017824 -0.00333111 0.00588182
-0.0244021 -0.00194949 -0.000813872
-0.0221023 -0.00267174 -0.0019285
-0.023553 -0.000967342 -0.00220971
-0.0242768 -0.00259145 0.000683272
-0.00832824 -0.00346863 -0.00507677
-0.0181529 -0.00483981 -0.00249412
-0.0143141 -0.0037027 -0.00457832
-0.0142272 -0.00282556 -0.0063064
-0.024543 -0.00138183 0.000162497
-0.0231424 -0.00396545 -0.000443094
-0.0231674 -0.00401975 0.000526744
-0.0232863 -0.00193317 -0.0026846
-0.0243198 0.00014745 -0.00272101
-0.024479 -0.00125395 -0.000916659
-0.023058 -0.00241564 -0.00327239
-0.0242013 -0.00236611 -0.00159742

CELL_DATA 236
TENSORS stress float
-7240.02 -407.671 218.041
-407.671 -1744.36 278.915
218.041 278.915 0.514149

-6384.12 49.9866 146.314
49.9866 -220.658 356.254
146.314 356.254 118.952

-7860.43 -1604.96 1497.34
-1604.96 -3935.74 -402.238
1497.34 -402.238 -4538.26

-7096.71 10.858 -394.345
10.858 -1407.79 147.429
-394.345 147.429 -1625.43

-7423.97 -1514.96 -1180.18
-1514.96 -3925.93 471.026
-1180.18 471.026 -4599.82

-7777.42 629.347 -1472
629.347 -5226.69 -181.307
-1472 -181.307 -4708.82

-8993.24 -131.731 -589.052
-131.731 -5701.25 -120.714
-589.052 -120.714 -5869.74

-6055.95 -57.4076 47.0575
-57.4076 -394.217 28.4834
47.0575 28.4834 -362.683

-7625.57 238.661 400.182
238.661 -1671.41 -92.1189
400.182 -92.1189 -2187.23

-9898.36 -380.915 -569.73
-380.915 -6780.52 22.6915
-569.73 22.6915 -6449.2

-5516.98 -192.248 8.61436
-192.248 475.341 108.004
8.61436 108.004 279.881

-7217.54 -400.203 -1686.22
-400.203 -5285.78 1.35328
-1686.22 1.35328 -4005.3

-5969.69 328.978 -966.097
328.978 -1543.38 71.3834
-966.097 71.3834 -373.871

-7321.69 -375.447 -134.546
-375.447 -1715.84 -197.441
-134.546 -197.441 -125.311

-6282.83 38.1631 114.639
38.1631 304.265 -155.065
114.639 -155.065 -518.644

-5868.37 -137.098 -217.389
-137.098 834.046 -180.429
-217.389 -180.429 484.598

-5569.74 117.446 37.5875
117.446 313.634 -72.4479
37.5875 -72.4479 185.927

-6347.52 764.609 108.596
764.609 -1347.09 147.144
108.596 147.144 -2277.23

-7588.38 296.312 155.104
296.312 -583.262 -44.6106
155.104 -44.6106 -445.066

-7039.2 -675.686 -860.144
-675.686 -2061.5 139.869
-860.144 139.869 -2172.37

-5894.53 10.2483 218.665
10.2483 771.729 -21.3984
218.665 -21.3984 437.668

-7121.82 632.514 -1436.07
632.514 -4988.61 -100.263
-1436.07 -100.263 -4288.59

-7305.21 155.932 -1856.47
155.932 -5320.61 -230.528
-1856.47 -230.528 -3266.76

-6252.39 73.683 12.3071
73.683 -959.26 -117.67
12.3071 -117.67 -135.976

-7042.85 10.9937 130.272
10.9937 -341.098 -86.7808
130.272 -86.7808 -530.26

-7889.4 -1536.68 -1309.11
-1536.68 -4007.32 377.852
-1309.11 377.852 -4753.99

-6034.24 -4.03709 -122.053
-4.03709 110.968 333.583
-122.053 333.583 396.961

-7426.2 717.753 -229.744
717.753 -3382.36 76.7721
-229.744 76.7721 -3464.84

-6849.72 -172.351 -133.357
-172.351 -1179.83 -303.414
-133.357 -303.414 -1544.89

-7413.32 -1579.03 -1432.8
-1579.03 -4097.3 479.617
-1432.8 479.617 -4753.31

-6996.9 -494.618 -188.288
-494.618 -1466.34 -148.791
-188.288 -148.791 -2145.89

-6141.74 -168.673 -148.98
-168.673 -6.24168 -30.8314
-148.98 -30.8314 34.6236

-6841.01 278.087 -1793.71
278.087 -4868.69 -234.85
-1793.71 -234.85 -2923.39

-7221.96 -294.961 -209.681
-294.961 -986.312 -93.7013
-209.681 -93.7013 -1171.37

-6955.83 -1562.34 1208.21
-1562.34 -3591.48 -491.382
1208.21 -491.382 -4322.91

-5950.4 220.625 -148.712
220.625 790.364 177.616
-148.712 177.616 445.227

-6948.2 -198.266 -79.1245
-198.266 -343.886 -83.9814
-79.1245 -83.9814 -342.846

-5505.77 255.675 76.6562
255.675 264.073 -46.7778
76.6562 -46.7778 1207.33

-6314.81 -150.284 80.7916
-150.284 -645.546 -16.7404
80.7916 -16.7404 -155.07

-5419.9 183.4 -18.1085
183.4 365.878 -213.035
-18.1085 -213.035 327.572

-6159.45 -35.0797 -162.306
-35.0797 69.6331 47.8742
-162.306 47.8742 125.739

-6768.35 -350.907 -680.756
-350.907 -1933.97 -205.523
-680.756 -205.523 -1665.26

-6309.94 45.3258 -35.3834
45.3258 -906.202 56.4952
-35.3834 56.4952 -103.434

-7080.82 78.0932 -417.681
78.0932 -1616.13 129.063
-417.681 129.063 -1935.74

-7114.84 1484.79 -1184.25
1484.79 -3590.38 -400.298
-1184.25 -400.298 -4277.68

-7778.31 -1538.69 1291.47
-1538.69 -3972.3 -373.422
1291.47 -373.422 -4741.36

-6870.2 811.217 533.108
811.217 -4302.56 -69.9796
533.108 -69.9796 -4484.79

-7317.33 366.025 -115.606
366.025 -1696.76 155.736
-115.606 155.736 -208.9

-7875.48 1508.02 -1265.58
1508.02 -3969.01 -357.419
-1265.58 -357.419 -4788.79

-7801.92 568.857 1440.52
568.857 -5678.67 95.3783
1440.52 95.3783 -4850.06

-6255.48 205.348 189.096
205.348 -312.714 -53.8258
189.096 -53.8258 -264.58

-6338.59 616.862 -964.683
616.862 -1775.06 -163.858
-964.683 -163.858 -1703.42

-6660.66 1526.45 1246.61
1526.45 -3307.08 423.681
1246.61 423.681 -3991.03

-6880.41 -283.333 -1621.77
-283.333 -4828.81 41.8449
-1621.77 41.8449 -3755.83

-6689.52 -12.9634 -1883.65
-12.9634 -4774.93 152.807
-1883.65 152.807 -2787.46

-7203.59 224.518 1826.59
224.518 -5204.94 244.774
1826.59 244.774 -3153.34

-5765.26 -20.2767 -64.4086
-20.2767 128.675 -255.592
-64.4086 -255.592 336.823

-7355.64 363.092 92.6079
363.092 -1780.18 -170.865
92.6079 -170.865 -150.48

-6411.97 -260.227 31.4538
-260.227 -418.569 -81.9095
31.4538 -81.9095 -471.185

-7608.37 1597.88 -542.179
1597.88 -4275.32 -142.08
-542.179 -142.08 -5452.39

-7113.18 1806.35 -411.104
1806.35 -3159.42 -460.984
-411.104 -460.984 -4839.97

-7025.41 -111.703 -302.136
-111.703 -2653.27 284.466
-302.136 284.466 -2406.55

-7234.08 -1811.2 -437.638
-1811.2 -3226.63 471.514
-437.638 471.514 -4964.93

-7320.31 452.46 304.405
452.46 -2087.62 79.4713
304.405 79.4713 -1633.59

-6285.47 429.212 746.372
429.212 -2436.5 -109.222
746.372 -109.222 -1031.32

-6539.86 -744.08 -28.8199
-744.08 -1429.03 183.727
-28.8199 183.727 -2375.4

-6829.27 -426.117 675.597
-426.117 -2219.42 231.497
675.597 231.497 -1700.18

-6871.37 136.486 412.689
136.486 -2706.76 -398.402
412.689 -398.402 -2505.76

-6835.77 1794.34 579.893
1794.34 -3008.58 466.787
579.893 466.787 -4678.92

-6652.43 1652.87 724.25
1652.87 -3505.25 157.207
724.25 157.207 -4542.06

-6223.79 30.6168 -11.0601
30.6168 -442.502 -54.7453
-11.0601 -54.7453 -406.998

-6028.5 472.014 -740.954
472.014 -2206.06 110.092
-740.954 110.092 -936.141

-6430.02 625.622 950.729
625.622 -1830.28 52.6414
950.729 52.6414 -1828.47

-7733.6 1505.34 1283.87
1505.34 -3954.74 358.721
1283.87 358.721 -4732.51

-6958.15 -663.039 812.047
-663.039 -2116.36 -148.017
812.047 -148.017 -2217.47

-7366.63 -366.002 97.4221
-366.002 -1784.61 195.29
97.4221 195.29 -126.496

-7287.75 -307.196 -293.672
-307.196 -1222.86 -465.942
-293.672 -465.942 -1118.76

-7415.97 -1507.84 -828.572
-1507.84 -3907.12 175.863
-828.572 175.863 -4770.13

-9209.08 534.597 439.722
534.597 -5872.95 -15.5467
439.722 -15.5467 -5988.57

-6992.42 -675.172 -861.147
-675.172 -2087.66 250.148
-861.147 250.148 -2365.59

-6416.49 -103.762 37.1953
-103.762 -800.611 58.5302
37.1953 58.5302 -172.974

-5400.31 -208.127 2.44346
-208.127 451.217 127.665
2.44346 127.665 337.792

-6787.46 -224.109 449.84
-224.109 -2220.23 262.638
449.84 262.638 -1749.32

-8215.76 -168.941 187.31
-168.941 -3618.03 -80.3973
187.31 -80.3973 -3264.88

-7516.98 -357.759 1543.44
-357.759 -5404.94 -0.574087
1543.44 -0.574087 -4281.86

-7129.07 139.533 2042.57
139.533 -5200.89 167.873
2042.57 167.873 -3252.71

-6446.32 -136.552 -183.603
-136.552 -2222.51 -114.417
-183.603 -114.417 -2338.25

-6226.46 -116.237 -37.4077
-116.237 -501.334 102.34
-37.4077 102.34 -121.67

-6458.77 -185.105 -45.334
-185.105 -680.166 108.171
-45.334 108.171 -558.126

-7736.85 -1602.61 -560.116
-1602.61 -4368.35 164.784
-560.116 164.784 -5546.76

-7156.89 1819.47 -823.54
1819.47 -3894.94 -18.0234
-823.54 -18.0234 -4772.88

-7395.3 -1768.74 598.551
-1768.74 -3299.33 -522.192
598.551 -522.192 -5009.53

-6482.78 -324.551 239.883
-324.551 -334.298 3.39985
239.883 3.39985 -444.707

-6439.64 -756.096 107.809
-756.096 -1372.01 -100.071
107.809 -100.071 -2331.58

-5601.3 144.233 -22.3967
144.233 429.782 103.969
-22.3967 103.969 203.913

-6594.83 -1649.87 721.274
-1649.87 -3410.59 -208.883
721.274 -208.883 -4461.45

-5968.09 82.3316 -228.196
82.3316 804.393 30.5112
-228.196 30.5112 419.1

-6228.22 -46.7223 -47.3126
-46.7223 58.3146 58.7705
-47.3126 58.7705 -500.905

-6267.63 -297.477 188.524
-297.477 -173.345 -151.995
188.524 -151.995 7.94486

-7103.52 -247.85 160.148
-247.85 -1323.29 74.6936
160.148 74.6936 -1687.46

-7810.4 -1571.05 -1440.27
-1571.05 -3994.45 359.123
-1440.27 359.123 -4618.04

-6236.89 13.0538 -226.869
13.0538 435.726 -87.8589
-226.869 -87.8589 412.999

-6981.61 -86.6344 1887.58
-86.6344 -5046.21 -128.54
1887.58 -128.54 -2994.62

-5538.32 -206.321 2.0758
-206.321 470.77 -129.856
2.0758 -129.856 259.495

-6878.21 -1783.77 569.708
-1783.77 -3009.11 -474.745
569.708 -474.745 -4723.71

-5477.62 -202.029 51.6788
-202.029 429.944 -79.0412
51.6788 -79.0412 343.972

-7204.92 -349.26 286.358
-349.26 -875.39 89.1947
286.358 89.1947 -807.375

-6870.02 -229.144 10.3523
-229.144 -330.587 107.854
10.3523 107.854 -351.06

-6550.33 81.7249 78.0463
81.7249 147.265 -75.3596
78.0463 -75.3596 520.561

-6054.28 43.8986 18.2421
43.8986 -301.795 -41.3541
18.2421 -41.3541 -231.732

-7195.96 10.9699 66.8727
10.9699 -738.478 114.308
66.8727 114.308 -1163.67

-6274.45 93.5032 -227.675
93.5032 -97.1388 273.69
-227.675 273.69 -51.5296

-7525.94 -265.695 191.229
-265.695 -349.302 96.7911
191.229 96.7911 -258.516

-7614.69 -216.392 424.074
-216.392 -1878.47 161.152
424.074 161.152 -2286.26

-6409.02 -212.475 110.491
-212.475 -1181.57 480.54
110.491 480.54 -962.924

-8911.84 -539.61 390.687
-539.61 -5583.6 86.297
390.687 86.297 -5651.1

-7063.02 -405.737 356.229
-405.737 -1828.91 -123.519
356.229 -123.519 -1196.88

-8790.64 -633.218 276.987
-633.218 -5715.1 70.7672
276.987 70.7672 -5576.06

-6574.98 -128.583 330.5
-128.583 -2190.81 367.455
330.5 367.455 -2075.98

-6163.63 -84.0801 164.004
-84.0801 789.872 -147.735
164.004 -147.735 -3.30206

-7049.72 -116.055 -1994.02
-116.055 -5149.98 174.196
-1994.02 174.196 -3078.04

-6497.05 218.458 -22.1734
218.458 -837.813 30.1967
-22.1734 30.1967 -242.566

-7262.73 510.07 -147.318
510.07 -1823.14 230.25
-147.318 230.25 3.75092

-5737.89 80.4249 201.453
80.4249 1027.81 -291.336
201.453 -291.336 570.005

-6782.58 -474.191 -746.426
-474.191 -2219.15 -222.115
-746.426 -222.115 -1708.25

-6801.89 722.441 -975.349
722.441 -2001.35 -206.978
-975.349 -206.978 -2138.79

-7857.27 1651.57 -1385.98
1651.57 -4053.1 -441.262
-1385.98 -441.262 -4774.8

-7047.21 1693.93 -1390.16
1693.93 -3686.36 -474.055
-1390.16 -474.055 -4292.81

-6604.15 -88.0254 146.897
-88.0254 -419.759 -318.527
146.897 -318.527 -81.0733

-6890.5 371.967 469.534
371.967 -2238.85 -227.389
469.534 -227.389 -1789.58

-6717.75 268.808 232.824
268.808 -1462.31 -286.593
232.824 -286.593 -1330.27

-7512.32 127.285 194.25
127.285 -708.891 -17.7915
194.25 -17.7915 -340.07

-5861.69 226.052 -117.946
226.052 101.293 22.1494
-117.946 22.1494 70.4048

-5578.73 20.5101 -44.5491
20.5101 853.484 -47.5125
-44.5491 -47.5125 151.551

-6726.3 166.318 500.975
166.318 -824.026 -106.121
500.975 -106.121 -1480.81

-8554.21 674.489 410.164
674.489 -5499.66 -72.2224
410.164 -72.2224 -5345.02

-5435.17 67.7317 49.8952
67.7317 690.673 -281.798
49.8952 -281.798 990.881

-6010.3 -185.184 -220.449
-185.184 785.69 -33.4811
-220.449 -33.4811 393.99

-5980.74 -119.343 234.666
-119.343 796.196 52.1992
234.666 52.1992 435.398

-5975.42 26.6657 202.544
26.6657 708.703 287.98
202.544 287.98 634.486

-5909.83 152.468 -80.4617
152.468 2174.17 -128.249
-80.4617 -128.249 1812.45

-5675.53 -74.5348 284.871
-74.5348 916.57 225.78
284.871 225.78 518.056

-6321.74 220.173 -261.252
220.173 337.361 291.702
-261.252 291.702 706.249

-7151.83 164.339 -26.0067
164.339 442.755 -20.214
-26.0067 -20.214 353.051

-5861.27 -303.033 -293.408
-303.033 425.801 -349.65
-293.408 -349.65 347.293

-5980.79 -27.588 39.7684
-27.588 -340.805 43.1758
39.7684 43.1758 -273.368

-6938.17 -788.007 116.984
-788.007 -1405.57 -155.879
116.984 -155.879 -2196.33

-7614.91 73.3285 -4.4021
73.3285 -751.133 238.108
-4.4021 238.108 -756.903

-6830.32 128.864 -112.255
128.864 129.895 140.89
-112.255 140.89 624.934

-6242.87 -298.189 -278.371
-298.189 68.2408 34.6513
-278.371 34.6513 -177.488

-5649.46 -330.931 -471.648
-330.931 1553.1 -110.751
-471.648 -110.751 2266.84

-6256.89 44.3316 -81.3116
44.3316 -405.366 -175.483
-81.3116 -175.483 -92.8956

-7338.61 494.342 153.107
494.342 -1841.85 -266.103
153.107 -266.103 56.9143

-6423.51 739.067 -8.98537
739.067 -1361.81 -156.965
-8.98537 -156.965 -2318.72

-6639.22 -267.786 -6.44505
-267.786 -223.777 77.8869
-6.44505 77.8869 -77.5669

-6631.91 -12.8655 -67.7602
-12.8655 -667.626 77.0975
-67.7602 77.0975 -542.034

-6903.17 196.183 -330.635
196.183 -1028.14 49.4735
-330.635 49.4735 -697.202

-7251.91 343.228 -463.074
343.228 -2158.24 105.195
-463.074 105.195 -1528.8

-6691.27 686.726 -870
686.726 -2475.81 -134.832
-870 -134.832 -2108.48

-6834.8 449.589 -175.555
449.589 -1561.56 203.89
-175.555 203.89 -1978.77

-7187.55 -916.562 -126.911
-916.562 -1664.5 64.8553
-126.911 64.8553 -2569.05

-6445.2 -283.584 -274.013
-283.584 631.338 -57.1127
-274.013 -57.1127 1206.88

-7437.22 -1676.74 -639.53
-1676.74 -3413.93 491.884
-639.53 491.884 -5119.23

-6932.43 -654.308 943.401
-654.308 -2364.95 -25.7649
943.401 -25.7649 -2327.18

-7642.99 -298.069 -263.199
-298.069 -2128.86 -175.427
-263.199 -175.427 -1527.55

-5859.06 268.465 1034.74
268.465 -1693.14 -207.652
1034.74 -207.652 -334.349

-6816.22 -573.345 699.299
-573.345 -2768.34 259.192
699.299 259.192 -2661.9

-7551.2 -283.27 177.773
-283.27 -1983.46 202.482
177.773 202.482 -1563.62

-6069.88 2.01448 -64.542
2.01448 -559.653 40.2345
-64.542 40.2345 -24.7279

-6432.42 -75.6132 -76.7662
-75.6132 -842.9 -64.627
-76.7662 -64.627 -145.494

-7552.27 180.2 -204.245
180.2 -265.051 -17.2374
-204.245 -17.2374 -229.012

-7345.92 -1636.9 1444.17
-1636.9 -3902.18 -472.31
1444.17 -472.31 -4547.52

-6510.45 171.596 17.9649
171.596 -732.424 -82.5009
17.9649 -82.5009 -162.122

-6661 194.49 104.624
194.49 -115.348 30.1603
104.624 30.1603 352.307

-9078.03 -260.127 -655.54
-260.127 -5667.13 -89.5417
-655.54 -89.5417 -5844.33

-7612.49 48.1907 -50.6036
48.1907 -667.674 -261.195
-50.6036 -261.195 -793.618

-6689.92 -573.173 956.679
-573.173 -2133.01 288.222
956.679 288.222 -2012.09

-7354.53 -477.209 1963.5
-477.209 -5232.88 -57.2376
1963.5 -57.2376 -4309.83

-6099.48 205.402 21.2131
205.402 544.604 194.552
21.2131 194.552 611.983

-7576.21 -51.3674 31.3046
-51.3674 -703.268 -268.061
31.3046 -268.061 -596.766

-7261.21 -418.599 -150.27
-418.599 -1728.28 -264.325
-150.27 -264.325 -26.0067

-7367.89 -1642.12 866.738
-1642.12 -3941.01 -180.121
866.738 -180.121 -4893.29

-5663.98 -217.188 237.791
-217.188 1667.5 40.1248
237.791 40.1248 2047.8

-5548.56 219.557 94.6112
219.557 481.877 141.73
94.6112 141.73 291.366

-7374.81 -408.677 -252.061
-408.677 -2008.36 -210.991
-252.061 -210.991 -1524.82

-6905.01 -803.442 694.817
-803.442 -2414.57 32.2332
694.817 32.2332 -2587.27

-7962.06 198.004 -261.713
198.004 -2996.22 28.3191
-261.713 28.3191 -3178.05

-7047.91 1178.84 -841.055
1178.84 -4445.04 18.5469
-841.055 18.5469 -4657.51

-5879.55 -27.1628 155.646
-27.1628 153.453 384.539
155.646 384.539 448.397

-6773.15 -460.323 -331.322
-460.323 -1640.08 -223.084
-331.322 -223.084 -2000.97

-6348.16 159.083 -288.568
159.083 -486.679 46.739
-288.568 46.739 -255.387

-6990.41 74.9371 -29.8726
74.9371 -967.492 111.924
-29.8726 111.924 -515.208

-6439.91 -143.047 66.1835
-143.047 -631.14 -170.216
66.1835 -170.216 -545.141

-5566.84 270.393 239.179
270.393 445.509 37.3421
239.179 37.3421 152.282

-7576.4 415.445 -197.613
415.445 -2379.71 126.963
-197.613 126.963 -1841.5

-6152.48 116.296 -259.029
116.296 -791.349 494.21
-259.029 494.21 -907.571

-8473.95 385.106 -586.35
385.106 -5291.87 49.7116
-586.35 49.7116 -5160.03

-8384.99 298.84 -695.54
298.84 -5173.46 102.698
-695.54 102.698 -5282.1

-6070.23 370.945 -342.823
370.945 -1494.84 415.1
-342.823 415.1 -1544.38

-9248.46 -243.489 -605.659
-243.489 -6175.71 -61.3348
-605.659 -61.3348 -5893.25

-6708 -266.166 54.3009
-266.166 -827.446 184.51
54.3009 184.51 -885.815

-7846.17 -570.461 1474.2
-570.461 -5795.45 -136.751
1474.2 -136.751 -5412.88

-6799.15 748.545 20.8538
748.545 -2444.54 -173.149
20.8538 -173.149 -3001.02

-5475.94 76.6908 72.4356
76.6908 568.308 393.65
72.4356 393.65 903.079

-5295.31 -110.845 224.633
-110.845 1390.76 -44.0364
224.633 -44.0364 523.409

-6544.28 -179.585 130.089
-179.585 483.947 182.875
130.089 182.875 -309.436

-7577.54 -32.2144 -77.2687
-32.2144 -607.768 278.952
-77.2687 278.952 -589.02

-7086.72 143.12 57.2285
143.12 -1213.93 -99.3514
57.2285 -99.3514 -996.336

-6351.79 -374.309 -323.041
-374.309 -219.48 157.234
-323.041 157.234 65.0967

-5913.19 80.5784 135.956
80.5784 113.993 -286.44
135.956 -286.44 361.064

-9247.19 -337.735 1020.76
-337.735 -7446.09 -170.686
1020.76 -170.686 -7030.95

-8009.84 588.516 1527.42
588.516 -5456.94 136.094
1527.42 136.094 -4825.4

-7067.17 -144.227 273.505
-144.227 721.937 -166.027
273.505 -166.027 979.363

-7239.33 1682.2 1412.22
1682.2 -3818.16 463.959
1412.22 463.959 -4400.97

-6352.12 -6.93278 -13.1224
-6.93278 389.279 -97.5373
-13.1224 -97.5373 401.821

-5605.53 -222.646 120.642
-222.646 111.986 -45.6331
120.642 -45.6331 951.076

-6892.99 -68.8152 23.8521
-68.8152 -516.618 -157.48
23.8521 -157.48 -254.132

-7266.96 232.177 437.144
232.177 -2128.74 -152.157
437.144 -152.157 -1418.09

-7206.77 1932.48 588.668
1932.48 -3204.58 437.158
588.668 437.158 -4850.46

-5908.45 77.385 331.041
77.385 770.913 159.153
331.041 159.153 655.021

-7066.82 1781.61 814.962
1781.61 -3700.97 81.9838
814.962 81.9838 -4566.59

-7154.66 305.27 192.925
305.27 -1998.43 -207.837
192.925 -207.837 -1827.1

-6819.09 249.417 768.408
249.417 -2881.39 -209.596
768.408 -209.596 -2596.3

-7140.02 1962.32 -618.886
1962.32 -3153.76 -444.642
-618.886 -444.642 -4873.06

-6839.61 -68.9662 -166.185
-68.9662 -346.177 -228.816
-166.185 -228.816 -514.882

-6800.79 -71.1909 -24.9024
-71.1909 -114.023 -7.30409
-24.9024 -7.30409 119.516

-6805.62 42.7932 -9.35011
42.7932 696.716 51.3084
-9.35011 51.3084 727.288

-6263.12 103.824 272.305
103.824 1385.5 80.2248
272.305 80.2248 948.791

-8434.14 953.889 -226.82
953.889 -6215.23 -97.7219
-226.82 -97.7219 -6477.95

-6423 963.706 -8.56982
963.706 -1435.78 131.881
-8.56982 131.881 -1941.18

-6328.41 908.257 -102.723
908.257 -1411.17 -254.464
-102.723 -254.464 -2052.63

-6755.61 678.841 921.993
678.841 -2514.97 84.461
921.993 84.461 -2043.25

-6641.26 -157.778 2250.2
-157.778 -4756.86 -275.809
2250.2 -275.809 -2869.06

-7159.39 1061.63 810.77
1061.63 -4315.6 94.4428
810.77 94.4428 -4481.89

-6973.17 695.153 1001.78
695.153 -2056.38 130.232
1001.78 130.232 -2219.58

-7946.27 1635.25 1409.95
1635.25 -4103.79 429.275
1409.95 429.275 -4757.98

