# vtk DataFile Version 3.0
vtk output at time 0.1
ASCII
DATASET UNSTRUCTURED_GRID
POINTS 1331 float
0 0 0 0 0 0.05 0 0 0.1 
0 0 0.15 0 0 0.2 0 0.05 0 
0 0.05 0.05 0 0.05 0.1 0 0.05 0.15 
0 0.05 0.2 0 0.1 0 0 0.1 0.05 
0 0.1 0.1 0 0.1 0.15 0 0.1 0.2 
0 0.15 0 0 0.15 0.05 0 0.15 0.1 
0 0.15 0.15 0 0.15 0.2 0 0.2 0 
0 0.2 0.05 0 0.2 0.1 0 0.2 0.15 
0 0.2 0.2 0.0485163 -0.00123951 -0.00116911 0.0487799 -0.001206 0.0494228 
0.0489477 -0.00125813 0.100006 0.0488302 -0.00125171 0.150596 0.0484918 -0.00123345 0.201205 
0.0488476 0.049432 -0.00125736 0.0488562 0.049442 0.201258 0.0488975 0.100024 -0.00126726 
0.0488778 0.100004 0.201231 0.0489188 0.150613 -0.00125738 0.0489152 0.150577 0.201264 
0.0484883 0.201278 -0.00116207 0.0487781 0.201213 0.0494404 0.0489634 0.201252 0.100014 
0.0488504 0.201251 0.150588 0.0484817 0.201255 0.201205 0.0974866 -0.00150853 -0.00145542 
0.097529 -0.00166189 0.0491784 0.0975851 -0.00172978 0.099976 0.0973452 -0.00167212 0.150774 
0.0974723 -0.00151807 0.201483 0.097453 0.0491524 -0.00160384 0.0974447 0.0491755 0.201673 
0.0975319 0.0999824 -0.0017513 0.0976233 0.0999989 0.201754 0.0974162 0.150862 -0.00176574 
0.097477 0.150821 0.201731 0.0974933 0.201584 -0.00145217 0.0974669 0.2017 0.0492169 
0.097637 0.201731 0.10002 0.0973816 0.201664 0.150789 0.0974942 0.201536 0.201497 
0.146492 -0.00133171 -0.00122661 0.146167 -0.00135486 0.0494224 0.145994 -0.00129632 0.100038 
0.146132 -0.00131705 0.150578 0.146469 -0.00133978 0.201206 0.146166 0.0494055 -0.00140532 
0.146182 0.0493887 0.201418 0.145974 0.100022 -0.00137218 0.146071 0.10001 0.201381 
0.14599 0.150606 -0.00130555 0.146124 0.150596 0.201286 0.146469 0.201278 -0.00119539 
0.14625 0.201311 0.0494459 0.146098 0.201328 0.100011 0.146196 0.201346 0.150557 
0.146474 0.201282 0.201183 0.195 0 0 0.195 0 0.05 
0.195 0 0.1 0.195 0 0.15 0.195 0 0.2 
0.195 0.05 0 0.195 0.05 0.05 0.195 0.05 0.1 
0.195 0.05 0.15 0.195 0.05 0.2 0.195 0.1 0 
0.195 0.1 0.05 0.195 0.1 0.1 0.195 0.1 0.15 
0.195 0.1 0.2 0.195 0.15 0 0.195 0.15 0.05 
0.195 0.15 0.1 0.195 0.15 0.15 0.195 0.15 0.2 
0.195 0.2 0 0.195 0.2 0.05 0.195 0.2 0.1 
0.195 0.2 0.15 0.195 0.2 0.2 0 0 0.025 
0 0.025 0 0.0242102 -0.000750189 -0.00106525 0.0245393 -0.000926656 0.024413 
0 0 0.075 0 0.025 0.025 0 0.025 0.05 
0 0.025 0.075 0.0246293 -0.00097139 0.049615 0 0 0.125 
0 0.025 0.1 0.0245904 -0.00100324 0.0747903 0.0246197 -0.000963079 0.100019 
0.0245999 -0.000977573 0.125243 0 0 0.175 0 0.025 0.125 
0 0.025 0.15 0 0.025 0.175 0.0246422 -0.000954666 0.150399 
0 0.025 0.2 0.0245466 -0.000914831 0.175585 0.0241986 -0.000741482 0.20107 
0 0.05 0.025 0 0.075 0 0 0.075 0.025 
0.0243533 0.0244741 -0.000956347 0.0246427 0.0243593 0.024404 0.0245146 0.0496511 -0.000913223 
0.0246306 0.074941 -0.000993595 0 0.05 0.075 0 0.075 0.05 
0.0246447 0.0243556 0.0496586 0.0246321 0.0496483 0.024374 0.0247261 0.0748925 0.0242997 
0.0489905 0.0241154 0.0494066 0.0491006 0.0240515 0.0747016 0.0490145 0.0494158 0.0240902 
0.0491498 0.074707 0.0240009 0 0.05 0.125 0 0.075 0.075 
0 0.075 0.1 0 0.075 0.125 0.0246827 0.0243229 0.0748386 
0.0247059 0.0243292 0.100018 0.0247214 0.0243397 0.125201 0.0491309 0.0240251 0.099979 
0.0491938 0.0240019 0.125331 0.0492229 0.0747013 0.0492997 0 0.05 0.175 
0 0.075 0.15 0.0246963 0.0243663 0.150372 0.0246502 0.049646 0.17562 
0.0247079 0.0748706 0.175689 0.0491337 0.0240602 0.150628 0.0490448 0.0494222 0.175919 
0.0491182 0.0747052 0.175969 0 0.075 0.175 0 0.075 0.2 
0.0246561 0.0243654 0.175598 0.0243486 0.0244847 0.200959 0.0245283 0.0496533 0.200915 
0.0246291 0.074926 0.200995 0 0.1 0.025 0 0.125 0 
0.0246351 0.100052 -0.000962579 0 0.1 0.075 0 0.125 0.025 
0 0.125 0.05 0 0.125 0.075 0.0247175 0.100044 0.0243498 
0.0247379 0.125207 0.0243415 0.0492442 0.0999978 0.0239694 0.0492213 0.125349 0.0239969 
0 0.1 0.125 0 0.125 0.1 0.0491337 0.0492982 0.0999856 
0.0492098 0.0493073 0.12532 0.0492127 0.100007 0.0492725 0.0491184 0.100004 0.150728 
0.0492337 0.125336 0.0493064 0.0491686 0.125319 0.15069 0.0491385 0.150703 0.100007 
0.0491961 0.150679 0.125338 0.0975024 0.1 0.100001 0 0.1 0.175 
0 0.125 0.125 0 0.125 0.15 0 0.125 0.175 
0.0246946 0.100027 0.175671 0.0247166 0.125188 0.175678 0.0491878 0.0493455 0.150639 
0.0491426 0.0999947 0.176001 0.0491428 0.125312 0.175978 0.0492052 0.150665 0.150651 
0 0.125 0.2 0.0246291 0.100035 0.200991 0 0.15 0.025 
0 0.175 0 0 0.175 0.025 0.0245982 0.125174 -0.000960758 
0.0245914 0.15038 -0.00088153 0.0243628 0.175521 -0.000931259 0.0246458 0.175628 0.0244156 
0 0.15 0.075 0 0.175 0.05 0.0247002 0.150367 0.024387 
0.0246465 0.175633 0.0496687 0.0491555 0.150644 0.0240663 0.0490375 0.175913 0.0494236 
0.0491207 0.175952 0.0747162 0 0.15 0.125 0 0.175 0.075 
0 0.175 0.1 0 0.175 0.125 0.0246881 0.175671 0.0748442 
0.0247116 0.175664 0.100021 0.0247238 0.175665 0.125202 0.049204 0.150642 0.0493422 
0.0491537 0.175974 0.100002 0.0492012 0.176 0.12534 0 0.15 0.175 
0 0.175 0.15 0.0246908 0.15035 0.175646 0.0246998 0.175622 0.150369 
0.0491207 0.150603 0.175962 0.0491697 0.175959 0.150634 0 0.175 0.175 
0 0.175 0.2 0.0245905 0.125159 0.200996 0.0245864 0.150361 0.200913 
0.0246613 0.175618 0.175596 0.0243545 0.175505 0.200948 0 0.2 0.025 
0.0242028 0.200749 -0.00105011 0.0245349 0.200922 0.0244309 0 0.2 0.075 
0.0246283 0.200963 0.0496225 0 0.2 0.125 0.0245925 0.200993 0.0748003 
0.0246245 0.200955 0.100023 0.0246028 0.200977 0.125245 0 0.2 0.175 
0.0246484 0.200936 0.150399 0.0245493 0.2009 0.175575 0.0241953 0.200734 0.201063 
0.0486956 -0.00123968 0.0240889 0.0487645 0.0241045 -0.00126126 0.0730031 -0.00141733 -0.00133496 
0.073128 0.0238821 -0.0013986 0.0488876 -0.00125393 0.0747096 0.0489529 0.0241168 0.0240699 
0.073099 -0.00139651 0.0239413 0.0731766 -0.00143532 0.0492507 0.073232 -0.00147665 0.0745802 
0.0732487 0.0239041 0.0239169 0.0488987 -0.00126322 0.125301 0.0733019 -0.00150904 0.0999729 
0.0486943 -0.00124685 0.175941 0.0489647 0.0241134 0.175945 0.073251 -0.00152597 0.125358 
0.0731215 -0.00148897 0.150743 0.0730834 -0.00141515 0.176109 0.0732401 0.0239018 0.176124 
0.0487558 0.0241127 0.201283 0.0729817 -0.00141568 0.201386 0.0731136 0.0238924 0.201438 
0.0488979 0.074703 -0.00127829 0.0731692 0.0492425 -0.00145336 0.0489024 0.0747085 0.201268 
0.0731704 0.0492676 0.201482 0.048926 0.125303 -0.00128029 0.0732658 0.0745887 -0.00151754 
0.0732696 0.0999991 -0.00155528 0.0732643 0.125376 -0.00156303 0.0489212 0.12528 0.201279 
0.0732739 0.074619 0.201515 0.0732898 0.0999905 0.201512 0.0732868 0.125358 0.201526 
0.0487881 0.17595 -0.00124866 0.04899 0.175927 0.024089 0.0731982 0.150812 -0.00151138 
0.0489906 0.175906 0.175949 0.0487733 0.175911 0.201288 0.0732205 0.150755 0.201506 
0.0486778 0.201268 0.0241065 0.073137 0.176208 -0.00140641 0.0729901 0.201512 -0.00131277 
0.0488942 0.201248 0.0747285 0.0732739 0.17616 0.0239125 0.073093 0.201472 0.0239618 
0.0731559 0.201477 0.0492868 0.0732465 0.201482 0.0746269 0.0489135 0.201268 0.125301 
0.0733334 0.201508 0.100003 0.0486911 0.201258 0.175939 0.0732567 0.176124 0.176143 
0.0732781 0.201529 0.125372 0.0731533 0.201493 0.150753 0.0730905 0.201439 0.176116 
0.0731273 0.176142 0.20146 0.0729888 0.20145 0.201392 0.0975269 -0.001512 0.0238228 
0.0974909 0.0237819 -0.0015283 0.121989 -0.00141725 -0.00139826 0.121932 -0.00141482 0.0238845 
0.0975651 -0.00169084 0.0745547 0.09754 0.0237778 0.0237926 0.0975574 0.0491762 0.0237643 
0.121856 -0.00145153 0.0492344 0.121745 0.0492447 0.023843 0.0975305 -0.00173167 0.12538 
0.0975559 0.0491702 0.0491987 0.0975543 0.0491875 0.150809 0.121807 -0.00148772 0.074603 
0.121744 -0.00149278 0.100012 0.121789 -0.00156396 0.125398 0.121686 0.0492432 0.0492292 
0.121643 0.0492357 0.150821 0.145846 0.0493052 0.100027 0.14584 0.049326 0.125353 
0.0974599 -0.00151634 0.17618 0.0974663 0.0237822 0.176242 0.0975223 0.0492025 0.176264 
0.121718 -0.00142961 0.150768 0.121693 0.0492307 0.176204 0.0974752 0.0237813 0.201575 
0.121878 -0.00140963 0.176092 0.121964 -0.00143524 0.201374 0.0975336 0.0745522 -0.001683 
0.121879 0.0238832 -0.0014449 0.121816 0.0238953 0.0238636 0.121833 0.0492215 -0.00148092 
0.121769 0.0745846 -0.00151958 0.0975645 0.0745728 0.201714 0.121761 0.0238869 0.176143 
0.121851 0.0238672 0.20144 0.12184 0.0492018 0.201508 0.121807 0.0745748 0.201579 
0.0974902 0.125434 -0.00174113 0.0975517 0.150838 0.0492316 0.12172 0.0999748 -0.00153796 
0.121646 0.150799 0.0492718 0.145861 0.100022 0.0492666 0.14586 0.125324 0.0492975 
0.0975824 0.125429 0.201735 0.0975517 0.150815 0.150789 0.0975532 0.150825 0.176257 
0.121787 0.0999578 0.201613 0.121644 0.150805 0.150734 0.121703 0.150799 0.176156 
0.145837 0.1 0.150739 0.145832 0.099969 0.176042 0.14582 0.125304 0.150724 
0.145861 0.125272 0.176043 0.0974839 0.176282 -0.00156458 0.0975016 0.1763 0.0237792 
0.0975323 0.176285 0.0492037 0.121727 0.12542 -0.0014805 0.121681 0.150789 -0.00146185 
0.121837 0.176179 -0.0014039 0.121745 0.176165 0.0239055 0.121689 0.176194 0.049277 
0.1459 0.150645 0.0493717 0.097441 0.176217 0.176257 0.0974906 0.176229 0.2016 
0.121801 0.125385 0.201574 0.121787 0.150772 0.201508 0.12174 0.176162 0.176119 
0.121851 0.176144 0.201429 0.145953 0.150604 0.175972 0.0975005 0.2016 0.0238425 
0.12199 0.201491 -0.0013306 0.121921 0.201466 0.0239467 0.0975687 0.201711 0.0746009 
0.121824 0.201501 0.0492535 0.0975537 0.201718 0.125408 0.121834 0.201546 0.0746246 
0.121825 0.201593 0.100016 0.121797 0.20152 0.125409 0.145942 0.1507 0.100003 
0.14598 0.175996 0.100006 0.0974553 0.201536 0.176191 0.121722 0.201434 0.150772 
0.121874 0.201429 0.176083 0.121981 0.201453 0.201359 0.146311 -0.00133914 0.0240386 
0.146256 0.024035 -0.00135809 0.17081 -0.000781186 -0.00111862 0.170658 0.0244381 -0.00102488 
0.146069 -0.00133694 0.0747283 0.14608 0.0240291 0.0239812 0.145995 0.0493588 0.0239822 
0.170458 -0.000948837 0.0243853 0.170354 -0.000966273 0.049588 0.170406 -0.00102229 0.0747608 
0.170356 0.0243197 0.0243373 0.170333 0.0243353 0.0495722 0.170322 0.0242826 0.0748033 
0.170317 0.0495887 0.0495667 0.170293 0.04955 0.0747989 0.146054 -0.00133734 0.125323 
0.145921 0.049353 0.0493433 0.170378 -0.00100153 0.100012 0.170297 0.0242609 0.100006 
0.17027 0.0494834 0.0999995 0.170272 0.0494647 0.125183 0.146283 -0.00132888 0.175945 
0.146053 0.0240279 0.176022 0.145974 0.0493464 0.176029 0.170408 -0.00104243 0.125251 
0.170343 -0.000960254 0.150416 0.170449 -0.000947136 0.175605 0.17031 0.0242604 0.125205 
0.170317 0.0243373 0.150428 0.170348 0.0243182 0.175654 0.170292 0.0495868 0.15043 
0.146242 0.0240146 0.20135 0.170798 -0.000787321 0.201099 0.17065 0.0244264 0.201011 
0.146071 0.074725 -0.001395 0.170452 0.0496183 -0.000969721 0.170339 0.0496153 0.0243 
0.170312 0.074821 0.0242936 0.146117 0.0747102 0.201412 0.170328 0.0496046 0.175682 
0.170455 0.0496025 0.200951 0.170308 0.0748151 0.175674 0.145985 0.12535 -0.00134361 
0.170408 0.074861 -0.00104039 0.170334 0.099987 -0.00102271 0.170287 0.0999903 0.0242288 
0.170284 0.100021 0.0494593 0.170333 0.125109 -0.00104062 0.170286 0.125187 0.0242002 
0.170268 0.125191 0.0494002 0.146108 0.12533 0.201341 0.170418 0.0748601 0.201005 
0.170313 0.100013 0.175686 0.17036 0.0999723 0.200996 0.170274 0.125131 0.175734 
0.170368 0.125073 0.201026 0.146189 0.175931 -0.00128442 0.146028 0.175937 0.0240402 
0.145968 0.175967 0.0493875 0.170419 0.150386 -0.000974577 0.170333 0.15041 0.0242753 
0.170315 0.150418 0.0495055 0.146031 0.175937 0.175959 0.146221 0.175928 0.201291 
0.170343 0.150357 0.175667 0.170468 0.15035 0.200951 0.146322 0.20129 0.0240804 
0.170624 0.175554 -0.00101418 0.170787 0.200761 -0.00112178 0.146156 0.201328 0.0747355 
0.170356 0.175668 0.0243281 0.170332 0.175668 0.0495558 0.170327 0.175667 0.0747683 
0.170468 0.20095 0.024362 0.170381 0.201006 0.0495845 0.170425 0.201009 0.0747528 
0.146136 0.201377 0.125261 0.170386 0.175641 0.0999997 0.170418 0.200969 0.100005 
0.146303 0.201284 0.175922 0.170332 0.175615 0.125217 0.170337 0.175624 0.150446 
0.170344 0.175651 0.17565 0.170412 0.200963 0.125261 0.170361 0.200951 0.150403 
0.170455 0.200926 0.175613 0.170634 0.175535 0.200998 0.170792 0.200752 0.201099 
0.195 0 0.025 0.195 0.025 0 0.195 0 0.075 
0.195 0.025 0.025 0.195 0.025 0.05 0.195 0.025 0.075 
0.195 0 0.125 0.195 0.025 0.1 0.195 0 0.175 
0.195 0.025 0.125 0.195 0.025 0.15 0.195 0.025 0.175 
0.195 0.025 0.2 0.195 0.05 0.025 0.195 0.075 0 
0.195 0.075 0.025 0.195 0.05 0.075 0.195 0.075 0.05 
0.195 0.05 0.125 0.195 0.075 0.075 0.195 0.075 0.1 
0.195 0.075 0.125 0.195 0.05 0.175 0.195 0.075 0.15 
0.195 0.075 0.175 0.195 0.075 0.2 0.195 0.1 0.025 
0.195 0.125 0 0.195 0.1 0.075 0.195 0.125 0.025 
0.195 0.125 0.05 0.195 0.125 0.075 0.195 0.1 0.125 
0.195 0.125 0.1 0.195 0.1 0.175 0.195 0.125 0.125 
0.195 0.125 0.15 0.195 0.125 0.175 0.195 0.125 0.2 
0.195 0.15 0.025 0.195 0.175 0 0.195 0.175 0.025 
0.195 0.15 0.075 0.195 0.175 0.05 0.195 0.15 0.125 
0.195 0.175 0.075 0.195 0.175 0.1 0.195 0.175 0.125 
0.195 0.15 0.175 0.195 0.175 0.15 0.195 0.175 0.175 
0.195 0.175 0.2 0.195 0.2 0.025 0.195 0.2 0.075 
0.195 0.2 0.125 0.195 0.2 0.175 0.162503 0.201046 0.0156854 
0.1788 0.183779 -0.000854905 0.0812004 -0.00148613 0.167693 0.178569 0.200795 0.0329674 
0.195 0.183333 0.0166667 0.178541 0.183885 0.0161156 0 0.0333333 0.0333333 
0.195 0.0666667 0.166667 0 0.0666667 0.0666667 0.0651815 0.201415 0.0831128 
0.195 0.116667 0.116667 0.162093 0.0999664 0.150592 0.0649226 0.201416 0.0155791 
0.0812246 0.184703 -0.00141942 0.195 0.133333 0.166667 0.162331 0.0663841 0.201159 
0.178498 0.0665052 0.183904 0.0325026 -0.00101832 0.0157382 0.0161964 0.0162295 -0.000813369 
0.0813829 0.0830306 -0.00160228 0.129967 0.0323752 -0.00142457 0.0812205 0.015395 -0.00141426 
0.0649334 -0.0013455 0.0155564 0.0327217 0.201106 0.116839 0.0165004 0.0329308 0.0329653 
0.0650478 0.0323964 -0.00136499 0.0650538 0.0155192 0.0155303 0 0.133333 0.0333333 
0.178491 0.0832449 0.183933 0.195 0.0833333 0.183333 0.17855 0.0832325 0.200819 
0.0325846 0.167272 -0.0010641 0 0.0166667 0.0166667 0.016459 0.0161291 0.0161592 
0.0164371 -0.000768163 0.0330061 0.0164959 0.0160984 0.0329761 0.0812342 0.201526 0.0323566 
0.0812846 0.184659 0.0154346 0.0329382 0.0663752 0.0494581 0.195 0.166667 0.166667 
0.0328423 0.0326697 0.0831982 0 0.116667 0.0166667 0.0164554 0.116783 -0.000789178 
0 0.0333333 0.166667 0.129879 0.167647 -0.00137544 0.145893 0.150634 0.133778 
0.0813205 -0.00159124 0.13382 0.162436 0.167268 0.201126 0.130053 0.201377 0.184462 
0.113763 0.184633 0.201448 0.0813405 0.184658 0.0323306 0.0326868 0.0664023 -0.00111846 
0.0164498 0.04975 0.0161358 0.0325729 0.167249 0.201086 0 0.166667 0.0333333 
0.0164432 -0.000754284 0.166994 0 0.0166667 0.183333 0.016504 0.0161097 0.167021 
0.195 0.0833333 0.0833333 0.0326636 0.184135 0.0157911 0.032489 0.201025 0.0157577 
0.0162004 0.183763 -0.00079629 0.0164595 0.183859 0.0161725 0.0164374 0.200754 0.0330172 
0.0164966 0.183882 0.0329856 0 0.183333 0.0166667 0 0.133333 0.166667 
0.0165016 0.150265 0.0161532 0.0165055 0.167048 0.0329715 0.032769 0.167302 0.0158371 
0 0.166667 0.166667 0 0.0666667 0.0333333 0.0165038 0.0665532 0.0160786 
0 0.0833333 0.0166667 0.0165164 0.0833052 0.0160716 0.0165138 0.100038 0.0160938 
0.0164585 0.0832981 -0.000798915 0 0.116667 0.183333 0.0164492 0.116776 0.200827 
0.0812562 -0.00145868 0.0323292 0.0813467 0.0154001 0.0323212 0.0812852 0.0154164 0.0154414 
0.0161948 0.18375 0.2008 0.0326684 0.18412 0.184229 0.0324926 0.201007 0.184262 
0.129881 0.133836 0.201482 0 0.166667 0.0666667 0.0165005 0.183902 0.0497482 
0 0.183333 0.0833333 0.0164978 0.183955 0.0665104 0.016441 0.200816 0.0664525 
0.178475 0.11673 0.167142 0 0.0166667 0.0833333 0.01644 -0.000824399 0.0664447 
0.0653781 0.167672 0.116897 0.0327197 0.133615 0.201127 0.0165088 0.133492 0.183917 
0.016509 0.116762 0.183945 0.032716 -0.00112261 0.0831986 0.016504 0.0160602 0.0832608 
0.0326966 0.0663952 0.201121 0 0.183333 0.116667 0.0165121 0.18391 0.116778 
0.016452 0.200779 0.133578 0 0.166667 0.133333 0.016512 0.183918 0.13352 
0.0165247 0.167101 0.133502 0.016515 0.183871 0.150268 0.0490957 0.015608 0.0831444 
0.0651658 -0.00141685 0.0830787 0.0328397 0.0157724 0.0831969 0.032718 0.133639 -0.00109608 
0.0165134 0.133502 0.0161169 0.0165151 0.116771 0.0160875 0.0327693 0.167285 0.184183 
0.0164994 0.150256 0.183873 0.032846 0.167284 0.167329 0.0165145 0.167043 0.167036 
0 0.183333 0.183333 0.0164654 0.183843 0.183826 0.0164467 0.200734 0.166989 
0.016507 0.183868 0.167018 0.0165096 0.0329353 0.167035 0.0164614 0.0497466 0.183859 
0.0164631 0.0161422 0.183833 0.0161915 0.0162398 0.200809 0.0324972 -0.00101206 0.184271 
0.178496 0.183879 0.150299 0.195 0.166667 0.133333 0.032946 0.150582 0.116857 
0 0.116667 0.116667 0.032947 0.133738 0.133711 0.162247 0.167298 0.184236 
0.178498 0.167068 0.167101 0.0325469 0.0327501 -0.00108792 0.0327362 0.0327175 0.0158141 
0.0488591 0.0156803 0.0156109 0.0326571 0.0158711 0.0157687 0.130045 -0.00137405 0.184482 
0.113756 0.0153891 0.201446 0.145869 0.100017 0.0324103 0.0165038 0.0665374 0.183927 
0.0165116 0.0832789 0.167114 0 0.0666667 0.166667 0.178542 0.083238 -0.000843815 
0.195 0.0833333 0.0166667 0.0491309 0.0831666 0.0155444 0.0329744 0.0832083 0.0325828 
0.0165302 0.0832945 0.0328879 0.0489986 0.184342 0.0494279 0.0813454 0.201566 0.0661482 
0.0651494 0.0661903 0.20143 0.0328231 0.0663979 0.184232 0 0.0333333 0.0666667 
0.0164996 0.0328841 0.0665382 0.0164999 0.0160873 0.0497426 0.0164974 0.0160394 0.066506 
0.195 0.0333333 0.133333 0.195 0.183333 0.0833333 0.178565 0.200817 0.0664079 
0.032717 -0.00110608 0.116838 0.0165077 0.0160891 0.100019 0.064918 -0.0013533 0.184493 
0.0812639 0.0154142 0.184611 0.081204 0.0153961 0.201463 0.0165117 0.0161147 0.150267 
0 0.0333333 0.133333 0.0650445 0.0155163 0.184511 0.065037 0.0324116 0.201398 
0.0490602 0.0662857 0.184395 0.0490997 0.0831529 0.184412 0.0813994 0.083063 0.201597 
0.04902 0.0494224 0.184356 0.065151 0.0324161 0.18452 0.0328197 0.0327144 0.167324 
0.162168 0.167342 0.0663015 0.17856 0.200767 0.167011 0.195 0.183333 0.183333 
0.178501 0.183904 0.16706 0.129905 0.0323817 0.0154462 0.12989 0.0661666 -0.00147338 
0 0.0833333 0.183333 0.0164538 0.0832795 0.200821 0.0165073 0.100025 0.183939 
0.0165114 0.0832897 0.183945 0.0812162 0.184637 0.201485 0.0649199 0.201382 0.184499 
0 0.0166667 0.116667 0.0165104 0.016092 0.116777 0.0164498 -0.00078031 0.133576 
0.0165102 0.0160845 0.133519 0.113784 0.0154031 -0.00145183 0.130084 -0.00137497 0.0154893 
0.129978 0.0154874 0.0154714 0.145939 0.167521 0.0662518 0.145926 0.150643 0.0662385 
0.146002 0.184433 0.100007 0.113726 -0.00153776 0.0661123 0.049112 0.0156015 0.11687 
0.049108 0.0156003 0.100005 0.0328538 0.0157837 0.116838 0.0651689 -0.00143771 0.116882 
0.0652861 0.0662072 0.184562 0.0652463 0.0324022 0.167624 0.0813033 0.0153943 0.167709 
0.049039 0.032542 0.167487 0.0653655 0.0662038 0.150763 0.0653065 0.0493166 0.167656 
0.0653636 0.066204 0.167674 0.0328647 0.0831795 0.167343 0.0329486 0.0662712 0.133695 
0 0.0833333 0.116667 0.065376 0.0323231 0.116876 0.032946 0.0494194 0.116837 
0.0653378 0.0154287 0.11687 0.0329093 0.049494 0.150493 0.0329754 0.0494248 0.133664 
0 0.0666667 0.133333 0.0329522 0.032618 0.133689 0.0490639 0.0156236 0.150612 
0.0491224 0.0155828 0.133751 0.0165246 0.0329033 0.133503 0.145939 0.133733 0.184442 
0.113722 0.116934 0.201648 0.145888 0.116833 0.184502 0.129746 0.133821 0.184597 
0.195 0.116667 0.183333 0.178488 0.0999828 0.183938 0.178484 0.116719 0.18397 
0.178545 0.116722 0.20084 0.162463 0.0326887 0.201161 0.162332 0.0158043 0.184284 
0.178808 0.0162025 0.200843 0.162496 -0.00106893 0.184296 0.129931 0.184523 0.184495 
0.146128 0.184357 0.184413 0.129933 0.167635 0.201401 0.178493 0.133463 0.183942 
0.16231 0.133617 0.201158 0.16217 0.133615 0.184269 0.178536 0.150252 0.183892 
0.162264 0.0326522 0.184255 0.178518 0.0497166 0.183894 0.178535 0.0161067 0.183864 
0.195 0.0166667 0.183333 0.178556 -0.00077335 0.167007 0.178495 0.016087 0.167054 
0.195 0.0333333 0.166667 0.178496 0.0329162 0.167093 0.178486 0.0160968 0.150295 
0.0812103 0.201503 0.167699 0.0812713 0.184613 0.184634 0.0490757 0.150588 0.18439 
0.0165188 0.133486 0.167105 0.0328807 0.133657 0.167345 0.0653629 0.150704 0.167675 
0.0653772 0.150704 0.150756 0.0653601 0.133798 0.150757 0.0651668 0.13379 0.201436 
0.0491166 0.133731 0.184411 0.0328498 0.116832 0.184233 0.0813981 0.116924 0.201589 
0.0491031 0.116861 0.184398 0.0491092 0.100002 0.184411 0.0653741 0.116897 0.167693 
0.032878 0.116863 0.150554 0.0653444 0.116895 0.184571 0.0328308 0.100004 0.15058 
0.0329778 0.150587 0.133685 0 0.133333 0.133333 0.0329539 0.167389 0.133692 
0.0329314 0.150527 0.150514 0.113692 0.18461 0.184596 0.0974702 0.184669 0.184682 
0.113697 0.20146 0.167692 0.0650614 0.167619 0.201419 0.0488705 0.184335 0.184412 
0.0651849 0.167615 0.184541 0.065056 0.184516 0.184528 0.0488749 0.184361 0.0156314 
0.0650697 0.167679 -0.00138193 0.0650654 0.184554 0.0155381 0.11373 0.0830144 0.201639 
0.113648 0.0492077 0.184691 0.0975366 0.0491997 0.184749 0.129953 0.0323521 0.201428 
0.146139 0.0155956 0.184466 0.12994 0.0154822 0.184518 0.129774 0.0323578 0.16768 
0.113674 -0.00155025 0.133875 0.113663 0.0661365 0.184709 0.113613 0.0322638 0.15084 
0.0975299 0.032235 0.150814 0.0813083 0.184618 0.167726 0.0653059 0.167608 0.167658 
0.0490901 0.184383 0.150615 0.0490872 0.167478 0.167503 0.0328596 0.18422 0.116838 
0.0491269 0.184396 0.100018 0.0651928 0.201442 0.116896 0.16221 0.184226 0.0831661 
0.162319 0.201134 0.0831791 0.178506 0.183925 0.0832139 0.0653195 0.133816 0.133824 
0.12976 0.167675 0.150707 0.113618 0.167756 0.133833 0.129908 0.201493 0.116913 
0.145973 0.150604 0.184399 0.16219 0.167307 0.167385 0.129825 0.167629 0.184535 
0.145975 0.167501 0.16753 0.113607 0.184605 0.167721 0.113627 0.150825 0.184674 
0.0975346 0.150823 0.184744 0.0813409 -0.00154209 0.0661071 0.0489777 0.0156745 0.049408 
0.0490342 0.0156253 0.0662732 0.16251 -0.0010689 0.0156858 0.178815 0.0162102 -0.000855078 
0.0327202 0.20111 0.0832087 0.0165106 0.183905 0.100021 0.0328488 0.184217 0.0832049 
0.0165064 0.183929 0.0832656 0.129692 0.0661803 0.150791 0.145893 0.0999801 0.184476 
0.113631 0.0661473 0.167776 0.162144 0.0325906 0.133669 0.12985 -0.00146236 0.116931 
0.145891 0.0324643 0.133769 0.14588 0.0662263 0.150683 0.129759 0.0323466 0.150783 
0.162136 0.0663279 0.167385 0.162173 0.0831913 0.184265 0.162162 0.0494987 0.167382 
0.178488 0.066481 0.1671 0.162184 0.032654 0.16739 0.0491154 0.184387 0.0831622 
0.0490504 0.18438 0.0662902 0.016503 0.167113 0.0665425 0.162311 0.201126 0.116831 
0.178531 0.18391 0.100001 0.162217 0.184213 0.116826 0.0975484 0.167772 0.150812 
0.113665 0.201558 0.133882 0.113642 0.167757 0.150788 0.11364 0.167741 0.167725 
0.178557 0.200766 0.1336 0.178491 0.183882 0.133541 0.195 0.183333 0.116667 
0.178505 0.183889 0.116789 0.162072 0.116832 0.133774 0.12969 0.133841 0.133814 
0.129705 0.150757 0.133807 0.178487 0.0832455 0.0160271 0.162317 0.0663964 -0.00118259 
0.129726 0.150762 0.066206 0.162108 0.116848 0.0662271 0.162226 0.150553 0.100002 
0.146124 0.184366 0.015591 0.162402 0.167288 -0.00113595 0.162226 0.167324 0.0157417 
0.162335 0.184164 0.0157097 0.0325478 0.0327575 0.201092 0.0488576 0.0156824 0.18441 
0.0327458 0.0327215 0.184186 0.032661 0.0158762 0.184237 0.0654111 0.116911 0.0323041 
0.178509 0.183931 0.0329309 0.195 0.166667 0.0333333 0.1785 0.167099 0.0328912 
0.162346 0.0158086 0.0157032 0.146163 0.0156002 0.0155246 0.162468 0.0327038 -0.00117197 
0.129928 0.201497 0.0831117 0.162029 0.116778 0.150649 0.162054 0.116765 0.167449 
0.195 0.133333 0.133333 0.0653411 0.133843 0.0661816 0.129713 0.133844 0.0661883 
0.097511 0.133786 0.0999981 0.162158 0.133676 0.0156772 0.162235 0.133655 -0.00118304 
0.178529 0.150288 0.016064 0.178487 0.133493 0.0160027 0.195 0.133333 0.0333333 
0.146034 0.184407 0.0493941 0.129744 0.167666 0.0324051 0.129801 0.167644 0.0155066 
0.129839 0.18458 0.0493132 0.129682 0.0661825 0.133874 0.0974925 0.100004 0.133794 
0.0653191 0.0661904 0.133827 0.162331 0.18415 0.184269 0.162497 0.201032 0.184296 
0.178536 0.183867 0.183867 0.1788 0.183766 0.200839 0.178501 0.18394 0.0664547 
0.178501 0.18392 0.0496943 0.195 0.166667 0.0666667 0.113661 0.184687 0.0492377 
0.113723 0.20159 0.0661332 0.129937 0.184541 0.0155341 0.113763 0.184677 -0.00141577 
0.130079 0.201404 0.0155589 0.0328386 0.0494511 0.0999775 0.0653743 0.0492435 0.0661868 
0.178496 0.167107 0.0664375 0.17851 0.150307 0.049609 0.162179 0.167345 0.0326051 
0.162172 0.16735 0.0494663 0.16211 0.0662758 0.116865 0.145846 0.0324407 0.11689 
0.178486 0.0328412 0.133544 0.195 0.0666667 0.133333 0.178481 0.0496795 0.150323 
0.178475 0.0496211 0.133547 0.113675 0.184671 0.0323278 0.0974955 0.184737 0.0153593 
0.113714 0.184647 0.0154378 0.113764 0.201529 0.0323368 0.178501 0.167043 0.133559 
0.145928 0.15063 0.167543 0.162066 0.133628 0.150603 0.145866 0.150652 0.150671 
0.049053 0.167496 0.0325382 0.0328268 0.167295 0.0326958 0.0651929 0.167655 0.0155021 
0.0652637 0.167642 0.0323975 0.0975508 0.18477 0.0492042 0.0652822 0.184544 0.0662079 
0.0490592 0.0662767 0.0155943 0.0328208 0.0664063 0.0157613 0.0651441 0.0661677 -0.00143225 
0.065165 0.133825 -0.00146114 0.0328698 0.116854 0.0157793 0.0653792 0.150775 0.0661999 
0.0328476 0.15056 0.1 0.0653194 0.167662 0.0493081 0.0653686 0.167672 0.0662037 
0.0328589 0.167332 0.0832011 0.0329572 0.133689 0.0662682 0.0329674 0.116849 0.0494194 
0 0.116667 0.0833333 0.032917 0.150491 0.0495045 0.0329861 0.133666 0.0494249 
0 0.133333 0.0666667 0.0491596 0.133761 0.015574 0.049098 0.150622 0.0156292 
0.032968 0.133692 0.0326194 0.0165344 0.133502 0.0329125 0 0.0833333 0.0833333 
0.0329478 0.0831803 0.0662362 0.0329599 0.100027 0.0493903 0.0329871 0.0832219 0.0493795 
0.129796 0.133855 -0.00142843 0.145885 0.15065 0.0324918 0.162124 0.133685 0.0325388 
0.178471 0.133532 0.0495507 0.178472 0.116743 0.0327692 0.195 0.133333 0.0666667 
0.178479 0.0496421 0.0832284 0.113701 -0.00145506 0.167694 0.0974724 0.0153422 0.184668 
0.11363 0.0153926 0.16772 0.113705 0.015415 0.184594 0.0491629 0.100022 0.0155637 
0.0813617 0.116934 -0.00162712 0.0653622 0.1169 0.0153971 0.0491367 0.116885 0.0155851 
0.113646 0.116948 -0.0015662 0.145857 0.116876 0.0323859 0.129686 0.133849 0.0323588 
0.145861 0.133774 0.0324398 0.0653668 0.0661571 0.0661814 0.0975184 0.100001 0.0662094 
0.129712 0.0661867 0.0661644 0.0975146 0.0662161 0.100011 0.145876 0.0662351 0.0662107 
0.145858 0.0324595 0.100026 0.0490004 0.0494163 0.0156452 0.0489954 0.0325482 0.0325333 
0.0651483 0.0324112 0.015514 0.032792 0.032713 0.0326845 0.0975223 0.0153471 0.0153629 
0.113795 -0.0014708 0.0322988 0.113752 0.0154194 0.0153996 0.178475 0.116754 0.0495403 
0.178473 0.116771 0.0663169 0.195 0.116667 0.0833333 0.195 0.0666667 0.0333333 
0.178499 0.0665153 0.0160688 0.113636 0.167768 0.0661923 0.097526 0.150855 0.032256 
0.113568 0.150834 0.0323005 0.113663 0.184698 0.0661713 0.195 0.0333333 0.0333333 
0.12985 0.0492751 0.0154276 0.129844 0.0323706 0.0323441 0.113731 0.0153975 0.0322846 
0.0813494 0.201594 0.133839 0.0491365 0.184423 0.133754 0.0653567 0.184578 0.116896 
0.0491243 0.184405 0.116879 0.065258 0.0154686 0.0661771 0.0653318 0.0492505 0.0492907 
0.146026 0.0493729 0.0155129 0.162153 0.0831859 0.0156928 0.195 0.0166667 0.0833333 
0.178557 -0.000810948 0.0664059 0.129873 0.0323714 0.184565 0.146014 0.0493557 0.184498 
0.129924 0.0661454 0.201505 0.129826 0.0492599 0.184602 0.195 0.0333333 0.0666667 
0.178492 0.0160981 0.0497073 0.178492 0.016054 0.0664694 0.162147 0.0325927 0.0831801 
0.162111 0.0662884 0.0663127 0.178474 0.0664532 0.0664494 0.162129 0.0663256 0.0494594 
0.162151 0.0663437 0.032598 0.178479 0.0999913 0.0495825 0.178554 -0.00082575 0.133598 
0.195 0.0166667 0.116667 0.178489 0.0160316 0.133535 0.0652522 0.0492835 0.0323858 
0.0652148 0.0323975 0.0324102 0.0652668 0.0661839 0.0154481 0.129813 0.0323552 0.0492555 
0.129757 0.0323642 0.066166 0.145981 0.0324619 0.0493522 0.129867 -0.00144318 0.0831114 
0.113666 0.0322813 0.0491984 0.0975569 0.0322217 0.0491811 0.113622 0.0661353 0.0322771 
0.113673 0.0661363 0.0153472 0.0975427 0.0491771 0.0153014 0.113682 0.0492141 0.0153554 
0.11368 0.0830295 -0.00157254 0.17848 0.0495778 0.116748 0.178475 0.049593 0.0999837 
0.195 0.0833333 0.116667 0.178471 0.0663438 0.116752 0.16227 -0.00116589 0.0831907 
0.1785 0.0160374 0.0832283 0.162183 0.0157078 0.0831895 0.178496 0.0160231 0.116778 
0.178502 0.0160444 0.100007 0.162165 0.0156973 0.11683 0.162272 -0.0011793 0.116838 
0.178495 0.0664883 0.0328801 0.162182 0.0495112 0.0326072 0.195 0.116667 0.0166667 
0.178478 0.099985 0.0160118 0.178532 0.116742 -0.000856127 0.178474 0.116727 0.0159808 
0.178485 0.049677 0.0664602 0.178497 0.0496868 0.049672 0.178489 0.0328758 0.0664644 
0.195 0.0666667 0.0666667 0.162272 0.0326612 0.0157327 0.162205 0.0326582 0.0326002 
0.178519 0.0497263 0.0160842 0.178502 0.032918 0.0328987 0.195 0.0166667 0.0166667 
0.178561 -0.000779235 0.0329905 0.178539 0.0161094 0.0161285 0.1785 0.0160829 0.0329427 
0.170506 0.188231 0.0116132 0.0853082 0.01116 0.176172 0.182614 0.188008 0.0246584 
0.145861 0.0746699 0.138054 0.0123997 0.0246127 0.0372415 0.182598 0.0623495 0.175401 
0.0247915 0.0748542 0.0495027 0.0490939 0.188607 0.0873754 0.0491974 0.137984 0.150691 
0.170225 0.112566 0.137941 0.0731294 0.18884 0.0112838 0.18259 0.125071 0.175442 
0.170335 0.0748292 0.188331 0.0244913 0.0117895 0.0116653 0.0612312 0.0746482 0.0112353 
0.133991 0.0239606 0.0112516 0.0731273 0.0112434 0.0112781 0.0246807 0.188302 0.112614 
0.073427 0.150753 0.138064 0.0246496 0.0370255 0.0243835 0.0610429 0.0240006 0.0113221 
0.0124107 0.137645 0.0246199 0.182598 0.0874375 0.188026 0.0367505 0.175757 0.0115298 
0.13375 0.0746618 0.049253 0.0123888 0.0120111 0.0246934 0.0853395 0.188902 0.0238703 
0.17029 0.0368758 0.125206 0.049156 0.0493579 0.0620348 0.1826 0.175384 0.162799 
0.036902 0.0241911 0.0747883 0.0611442 0.023994 0.03666 0.0124032 0.112571 0.0119927 
0.145901 0.163308 0.137985 0.0124053 0.0246216 0.162756 0.13392 0.17605 0.0113148 
0.133775 0.163416 0.125342 0.0612574 0.0112484 0.12533 0.158259 0.175759 0.188533 
0.121855 0.188789 0.188748 0.0611775 0.176047 0.0366688 0.0246427 0.0622654 0.011691 
0.0367465 0.175736 0.188495 0.0492357 0.112668 0.036617 0.0124014 0.175368 0.0372466 
0.0123927 0.0120228 0.175301 0.182587 0.0622998 0.0748757 0.0244909 0.188207 0.0116846 
0.0123895 0.187974 0.0247033 0.012407 0.137638 0.175407 0.0490744 0.163248 0.175948 
0.0246806 0.162976 0.0243974 0.0124081 0.175358 0.162756 0.0124108 0.0749473 0.0245836 
0.0124041 0.0874914 0.0119839 0.0123992 0.112565 0.188038 0.0853543 0.01117 0.0238637 
0.0244918 0.188191 0.188324 0.145969 0.137955 0.188654 0.0123978 0.175428 0.0623736 
0.0123943 0.18804 0.0749 0.158018 0.112585 0.175916 0.0123937 0.0119532 0.0748952 
0.0491846 0.163355 0.112655 0.0246812 0.125174 0.188329 0.0246745 0.0116793 0.0874298 
0.02465 0.0622547 0.18831 0.0369806 0.175843 0.137898 0.0124009 0.18801 0.125133 
0.0124078 0.1754 0.137651 0.0490768 0.011386 0.0873591 0.0246866 0.125193 0.0117023 
0.0246855 0.162967 0.175617 0.0123948 0.18796 0.175296 0.0246615 0.0370267 0.175613 
0.0244899 0.0117997 0.188333 0.133801 0.150716 0.176087 0.182596 0.175369 0.137681 
0.0247823 0.137901 0.125233 0.170342 0.16298 0.175675 0.0367256 0.0242637 0.0115069 
0.121858 0.011229 0.188759 0.0369386 0.0873908 0.175827 0.158018 0.112641 0.0493378 
0.0124068 0.0749326 0.175428 0.182594 0.0874419 0.0119423 0.0370015 0.0874159 0.0241257 
0.0611837 0.188714 0.0619976 0.0490304 0.0620669 0.188608 0.0123974 0.0245673 0.06237 
0.182594 0.0245607 0.137674 0.182608 0.188028 0.0748532 0.145909 0.163303 0.0493689 
0.0246774 0.0116988 0.112613 0.0731102 0.0112396 0.188772 0.012407 0.0246015 0.137651 
0.061037 0.0240043 0.188711 0.0612309 0.0746657 0.188753 0.0490272 0.0367703 0.175929 
0.158125 0.17583 0.0620877 0.182609 0.18799 0.175329 0.133915 0.0492993 0.0112235 
0.0124006 0.0874785 0.188038 0.0731181 0.188794 0.188791 0.0123999 0.0119931 0.125132 
0.121898 0.0112352 0.0112233 0.133752 0.150734 0.0493076 0.133795 0.163418 0.0746713 
0.121754 0.023867 0.049221 0.0490861 0.0113842 0.112654 0.0733595 0.0492718 0.176156 
0.0611823 0.023981 0.163369 0.0734244 0.049249 0.138062 0.0491767 0.0746878 0.150693 
0.0491434 0.0620478 0.163307 0.0247844 0.0621087 0.125216 0.0491795 0.0366465 0.112628 
0.0247808 0.0495328 0.137803 0.0369724 0.0241648 0.137898 0.133794 0.125348 0.188806 
0.182597 0.112524 0.188049 0.158274 0.0241926 0.188567 0.170506 0.0117473 0.188371 
0.133939 0.176038 0.18871 0.170347 0.137748 0.188336 0.170339 0.0369836 0.175677 
0.182607 0.0120008 0.175323 0.182595 0.0246068 0.16279 0.0853119 0.188858 0.176191 
0.0369468 0.137865 0.175825 0.0491682 0.150623 0.16332 0.0734436 0.138039 0.16348 
0.0490819 0.125292 0.188623 0.0612637 0.112664 0.188746 0.0491513 0.112662 0.16335 
0.0247843 0.150476 0.137822 0.109615 0.188839 0.17617 0.0610574 0.176027 0.188728 
0.0610687 0.176068 0.0113232 0.121708 0.0365522 0.176183 0.109641 0.0618922 0.188951 
0.133963 0.0239496 0.188746 0.121691 0.0238529 0.150806 0.109605 0.0492015 0.163544 
0.0612232 0.176035 0.163384 0.0491001 0.188619 0.112661 0.170359 0.188312 0.0873954 
0.0975019 0.125355 0.125351 0.121708 0.176179 0.138062 0.145975 0.163265 0.175973 
0.109593 0.163524 0.176212 0.0611658 0.0112996 0.0619707 0.170515 0.0117521 0.0116158 
0.0246798 0.188309 0.0874355 0.133751 0.0746431 0.163455 0.145901 0.0240125 0.125328 
0.145884 0.0493447 0.150674 0.158099 0.0620985 0.17588 0.170306 0.0495846 0.16305 
0.0369136 0.175806 0.0747964 0.17036 0.188294 0.112607 0.109611 0.176219 0.150805 
0.182604 0.187984 0.125152 0.170331 0.163019 0.0243046 0.145874 0.138017 0.125334 
0.170327 0.0748335 0.0116297 0.170289 0.13782 0.0368405 0.145902 0.13802 0.0746714 
0.158245 0.175778 0.0114529 0.0367285 0.0242697 0.188499 0.0734459 0.138095 0.0492413 
0.182603 0.175409 0.0371974 0.158287 0.0242011 0.0114222 0.121756 0.188872 0.0619557 
0.170218 0.125145 0.150525 0.0975161 0.125361 0.0746463 0.170325 0.137793 0.0116103 
0.182588 0.125084 0.0245011 0.133845 0.176082 0.0366611 0.0974997 0.0746518 0.125373 
0.170503 0.188215 0.188367 0.182601 0.175418 0.0623151 0.10964 0.188937 0.0492256 
0.121869 0.188819 0.0112814 0.0491736 0.0619886 0.0746611 0.170318 0.163031 0.0495332 
0.158019 0.049392 0.112646 0.18259 0.0497083 0.137695 0.109663 0.188902 0.0238674 
0.158051 0.150523 0.150593 0.0490663 0.163273 0.0240834 0.0733719 0.176163 0.0492678 
0.0490226 0.0620599 0.0113845 0.0491105 0.125318 0.0113632 0.0491838 0.150688 0.0746866 
0.0491455 0.163303 0.0620496 0.024791 0.125214 0.0621096 0.0247871 0.137801 0.0495362 
0.0369975 0.137896 0.0241664 0.0247895 0.0874398 0.0620737 0.145881 0.138002 0.0240172 
0.182585 0.125109 0.0496272 0.170295 0.0368905 0.0873999 0.109629 0.011168 0.176169 
0.0612818 0.112675 0.0112218 0.133729 0.125376 0.0239133 0.0975303 0.0746412 0.0746461 
0.145867 0.049334 0.074685 0.0490004 0.0367691 0.0240854 0.109705 0.0111668 0.023833 
0.182589 0.112551 0.0621906 0.182599 0.0623571 0.0245775 0.109588 0.163554 0.0492437 
0.182598 0.0246057 0.0372073 0.12177 0.0365625 0.0238469 0.0612727 0.188759 0.125344 
0.0733694 0.0365418 0.0492514 0.15811 0.0621139 0.0241068 0.182604 0.0119618 0.07486 
0.133905 0.0492824 0.188797 0.182595 0.0245841 0.0623325 0.158068 0.0494256 0.0620875 
0.170282 0.0747957 0.0495314 0.182602 0.0119449 0.125141 0.0733329 0.0492435 0.023883 
0.133848 0.0239315 0.0619627 0.109628 0.0491955 0.0364968 0.109642 0.0618901 0.0111037 
0.182587 0.0622101 0.112536 0.170336 0.0116322 0.0874124 0.17033 0.011621 0.112605 
0.170322 0.0495928 0.0369367 0.182591 0.112533 0.0119176 0.182593 0.0497394 0.0623107 
0.170349 0.0369907 0.0243086 0.182609 0.0119983 0.0246736 

CELLS 236 3776
15 69 93 88 68 456 511 453 449 451 450 532 527 528 888 1095 
15 28 47 45 44 260 323 259 258 319 318 690 731 989 529 1096 
15 93 69 88 94 456 453 511 523 457 512 532 530 894 531 1097 
15 43 49 86 85 310 349 317 316 348 503 850 916 538 937 1098 
15 5 1 26 6 103 106 124 120 104 129 562 533 682 551 1099 
15 82 86 81 63 495 494 493 423 424 422 534 543 861 769 1100 
15 7 11 48 6 137 169 145 127 128 135 980 535 674 565 1101 
15 37 17 54 38 212 216 289 285 213 291 863 848 825 536 1102 
15 55 13 12 51 191 171 180 361 190 178 658 782 792 783 1103 
15 90 86 49 85 506 349 350 504 503 348 901 537 538 877 1104 
15 37 52 50 36 287 352 286 282 284 283 564 539 540 808 1105 
15 91 92 65 86 519 438 437 507 508 435 764 541 755 618 1106 
15 82 65 86 63 434 435 495 423 421 424 555 542 859 543 1107 
15 25 5 0 26 123 99 100 243 124 101 545 664 560 544 1108 
15 46 32 6 48 269 131 134 326 270 135 957 546 673 1054 1109 
15 57 46 58 62 327 328 383 384 329 388 720 547 706 898 1110 
15 26 41 25 46 249 245 243 252 300 246 549 608 548 553 1111 
15 22 38 39 17 237 290 238 210 213 214 550 847 824 629 1112 
15 55 49 12 54 344 176 180 373 343 179 784 869 830 621 1113 
15 26 5 6 30 124 120 129 248 125 130 551 662 579 1009 1114 
15 25 30 26 46 244 248 243 246 265 252 663 552 1008 553 1115 
15 11 15 16 34 164 194 165 168 198 203 554 639 594 976 1116 
15 82 65 87 86 434 436 496 495 435 505 557 555 754 556 1117 
15 15 34 36 37 198 276 199 200 277 282 558 596 806 586 1118 
15 43 85 64 48 316 429 314 309 340 338 1004 1002 667 1061 1119 
15 1 5 26 0 103 124 106 98 99 101 562 559 560 561 1120 
15 52 37 50 53 287 286 352 368 288 353 564 563 577 944 1121 
15 60 80 59 86 410 401 398 413 492 403 1075 942 1066 853 1122 
15 48 7 6 43 145 127 135 309 143 133 565 932 567 1031 1123 
15 92 71 96 91 465 467 521 519 464 520 705 660 654 566 1124 
15 26 7 43 6 140 143 251 129 127 133 635 681 567 843 1125 
15 6 26 46 42 129 252 134 132 250 304 1007 842 607 1053 1126 
15 32 15 10 11 197 161 162 167 164 160 569 640 568 602 1127 
15 90 71 70 49 463 459 460 350 347 346 868 950 831 572 1128 
15 28 9 8 3 156 146 148 116 115 114 649 584 570 692 1129 
15 68 69 50 66 449 358 357 439 440 356 928 885 914 571 1130 
15 49 90 54 70 350 378 343 346 460 375 879 572 723 832 1131 
15 28 43 7 44 257 143 142 258 308 144 725 573 741 747 1132 
15 92 72 71 67 469 462 465 448 446 445 919 574 762 659 1133 
15 71 56 51 72 381 362 365 462 382 366 799 575 576 761 1134 
15 50 37 16 53 286 204 205 353 288 206 951 577 676 954 1135 
15 5 6 30 32 120 130 125 126 131 264 579 599 958 578 1136 
15 39 19 35 40 228 227 279 292 229 280 641 610 580 803 1137 
15 12 11 50 48 163 170 177 175 169 336 968 979 994 893 1138 
15 21 15 37 16 196 200 234 202 194 204 591 581 595 614 1139 
15 28 4 9 3 118 117 156 116 112 115 651 582 583 584 1140 
15 80 84 58 85 490 396 395 491 499 397 1083 585 1045 987 1141 
15 15 36 20 37 199 231 195 200 282 232 588 586 587 589 1142 
15 15 20 21 37 195 230 196 200 232 234 592 589 590 591 1143 
15 19 18 35 13 218 220 227 185 184 187 642 593 780 623 1144 
15 39 51 35 18 293 281 279 221 222 220 804 823 779 643 1145 
15 15 34 37 16 198 277 200 194 203 204 596 594 952 595 1146 
15 19 23 39 18 224 240 228 218 219 221 648 597 634 644 1147 
15 5 6 32 11 120 131 126 122 128 167 599 598 675 601 1148 
15 10 5 32 11 121 126 162 160 122 167 603 600 601 602 1149 
15 19 33 14 13 226 193 192 185 186 182 605 624 710 604 1150 
15 26 41 46 42 249 300 252 250 299 304 608 606 1010 607 1151 
15 24 19 39 40 225 228 241 242 229 292 646 609 610 611 1152 
15 51 91 67 65 367 447 364 363 437 433 834 749 766 612 1153 
15 17 21 37 16 209 234 212 201 202 204 616 613 614 865 1154 
15 37 22 21 17 236 233 234 212 210 209 617 849 615 616 1155 
15 49 91 65 86 351 437 345 349 507 435 751 902 618 851 1156 
15 7 1 26 2 105 106 140 108 102 109 683 619 620 626 1157 
15 17 55 12 54 217 180 172 216 373 179 656 1028 621 963 1158 
15 19 33 13 35 226 186 185 227 272 187 624 622 787 623 1159 
15 7 2 26 27 108 109 140 141 110 247 626 688 625 637 1160 
15 33 9 8 31 159 146 150 266 158 149 668 627 650 679 1161 
15 55 18 39 17 223 221 295 217 208 214 822 797 633 1027 1162 
15 23 22 39 17 235 238 240 211 210 214 630 628 629 632 1163 
15 18 23 39 17 219 240 221 208 211 214 634 631 632 633 1164 
15 26 7 27 43 140 141 247 251 143 254 637 635 726 636 1165 
15 32 15 11 34 197 164 167 268 198 168 640 638 639 961 1166 
15 39 19 18 35 228 218 221 279 227 220 644 641 642 643 1167 
15 23 19 39 24 224 228 240 239 225 241 648 645 646 647 1168 
15 28 9 31 8 156 158 256 148 146 149 891 649 650 701 1169 
15 28 4 29 9 118 119 255 156 117 157 653 651 652 892 1170 
15 51 91 49 71 367 351 342 365 464 347 752 837 948 839 1171 
15 96 71 90 91 467 463 518 520 464 515 874 654 947 655 1172 
15 13 55 12 17 191 180 171 183 217 172 658 795 656 657 1173 
15 92 71 91 67 465 464 519 448 445 447 660 659 835 767 1174 
15 25 5 26 30 123 124 243 244 125 248 664 661 662 663 1175 
15 47 61 45 60 333 325 323 332 404 324 666 814 665 991 1176 
15 33 49 8 13 274 153 150 186 189 147 697 790 736 669 1177 
15 85 90 64 48 504 432 429 340 341 338 1014 883 997 667 1178 
15 13 9 8 33 154 146 147 186 159 150 670 711 668 669 1179 
15 78 64 84 83 426 428 486 485 427 497 880 671 1080 672 1180 
15 6 32 11 48 131 167 128 135 270 169 675 673 992 674 1181 
15 16 37 54 53 204 289 207 206 288 371 864 676 677 956 1182 
15 47 33 8 31 273 150 152 267 266 149 696 678 679 699 1183 
15 1 7 26 6 105 140 106 104 127 129 683 680 681 682 1184 
15 76 80 60 81 480 410 408 481 489 411 1051 684 939 776 1185 
15 90 94 69 95 516 457 455 517 524 458 923 685 686 829 1186 
15 90 50 70 66 360 359 460 444 356 441 721 982 913 702 1187 
15 7 2 27 28 108 110 141 142 111 253 688 715 687 727 1188 
15 29 28 47 45 255 260 263 262 259 323 694 689 690 691 1189 
15 3 7 8 28 113 136 114 116 142 148 693 717 748 692 1190 
15 29 28 31 47 255 256 261 263 260 267 890 694 700 695 1191 
15 47 33 49 8 273 274 331 152 150 153 698 696 697 729 1192 
15 28 8 31 47 148 149 256 260 152 267 701 732 699 700 1193 
15 90 70 69 66 460 452 455 444 441 440 827 702 912 936 1194 
15 71 97 92 96 468 522 465 467 526 521 921 703 704 705 1195 
15 58 46 64 62 328 330 389 388 329 417 1023 706 707 1032 1196 
15 13 9 33 14 154 159 186 182 155 193 711 708 709 710 1197 
15 39 56 40 51 296 298 292 293 362 297 713 778 712 805 1198 
15 3 7 28 2 113 142 116 107 108 111 717 714 715 716 1199 
15 46 57 58 41 327 383 328 300 301 302 720 718 719 1012 1200 
15 90 50 48 70 360 336 341 460 359 339 998 721 1020 722 1201 
15 90 54 70 48 378 375 460 341 337 339 723 882 1018 722 1202 
15 58 43 64 42 311 314 389 306 303 307 1055 724 1059 1024 1203 
15 28 43 27 7 257 254 253 142 143 141 728 725 726 727 1204 
15 8 49 47 44 153 331 152 151 320 319 729 734 811 730 1205 
15 28 8 47 44 148 152 260 258 151 319 732 746 730 731 1206 
15 43 49 12 44 310 176 173 308 320 174 918 819 733 739 1207 
15 12 49 13 44 176 189 171 174 320 188 794 733 735 737 1208 
15 49 8 13 44 153 147 189 320 151 188 736 734 742 735 1209 
15 12 13 7 44 171 139 138 174 188 144 738 737 743 740 1210 
15 43 12 7 44 173 138 143 308 174 144 931 739 740 741 1211 
15 13 8 7 44 147 136 139 188 151 144 744 742 745 743 1212 
15 7 8 28 44 136 148 142 144 151 258 748 745 746 747 1213 
15 91 51 49 65 367 342 351 437 363 345 752 749 750 751 1214 
15 92 87 65 86 509 436 438 508 505 435 756 753 754 755 1215 
15 63 61 60 82 414 404 405 423 416 412 813 757 758 768 1216 
15 60 61 77 82 404 415 409 412 416 483 760 758 759 770 1217 
15 67 51 72 71 364 366 446 445 365 462 763 836 761 762 1218 
15 91 92 67 65 519 448 447 437 438 433 767 764 765 766 1219 
15 63 60 81 82 405 411 422 423 412 493 862 768 775 769 1220 
15 76 60 77 82 408 409 479 482 412 483 772 773 770 771 1221 
15 60 76 81 82 408 481 411 412 482 493 776 773 774 775 1222 
15 39 56 51 55 296 362 293 295 379 361 778 777 800 820 1223 
15 18 35 13 51 220 187 184 222 281 190 780 779 786 781 1224 
15 55 13 51 18 191 190 361 223 184 222 782 798 781 821 1225 
15 49 55 12 51 344 180 176 342 361 178 784 840 783 791 1226 
15 35 33 13 51 272 186 187 281 275 190 787 785 789 786 1227 
15 33 49 13 51 274 189 186 275 342 190 790 788 793 789 1228 
15 49 12 13 51 176 171 189 342 178 190 794 791 792 793 1229 
15 55 13 18 17 191 184 223 217 183 208 798 795 796 797 1230 
15 71 56 55 51 381 379 380 365 362 361 801 799 800 838 1231 
15 51 40 39 35 297 292 293 281 280 279 805 802 803 804 1232 
15 37 36 50 34 282 283 286 277 276 278 808 806 807 953 1233 
15 47 60 44 65 332 321 319 335 406 322 990 1039 815 810 1234 
15 49 47 44 65 331 319 320 345 335 322 811 809 810 817 1235 
15 47 61 60 63 333 404 332 334 414 405 814 812 813 1036 1236 
15 43 44 60 65 308 321 313 315 322 406 816 818 815 857 1237 
15 43 49 44 65 310 320 308 315 345 322 819 852 817 818 1238 
15 39 51 18 55 293 222 221 295 361 223 823 820 821 822 1239 
15 54 39 38 17 294 290 291 216 214 213 826 1029 824 825 1240 
15 90 70 95 69 460 461 517 455 452 458 867 827 828 829 1241 
15 49 12 54 85 176 179 343 348 181 377 830 917 906 878 1242 
15 71 49 54 70 347 343 376 459 346 375 871 831 832 833 1243 
15 51 91 71 67 367 464 365 364 447 445 837 834 835 836 1244 
15 49 55 51 71 344 361 342 347 380 365 840 872 838 839 1245 
15 6 43 26 42 133 251 129 132 303 250 843 1030 841 842 1246 
15 73 58 78 57 390 393 472 385 383 386 1093 844 897 845 1247 
15 37 22 17 38 236 210 212 285 237 213 849 846 847 848 1248 
15 43 49 65 86 310 345 315 317 349 435 852 850 851 856 1249 
15 59 43 60 86 312 313 398 403 317 413 854 938 855 853 1250 
15 60 43 65 86 313 315 406 413 317 435 857 855 856 858 1251 
15 63 60 65 86 405 406 421 424 413 435 1037 860 858 859 1252 
15 60 63 81 86 405 422 411 413 424 494 862 860 861 941 1253 
15 37 17 16 54 212 201 204 289 216 207 865 863 966 864 1254 
15 71 95 90 70 466 517 463 459 461 460 876 866 867 868 1255 
15 49 55 71 54 344 380 347 343 373 376 872 869 870 871 1256 
15 95 71 90 96 466 463 517 525 467 518 876 873 874 875 1257 
15 88 69 66 89 453 440 442 510 454 443 887 896 935 909 1258 
15 90 49 54 85 350 343 378 504 348 377 879 877 878 884 1259 
15 78 64 62 84 426 417 418 486 428 420 881 880 1033 1017 1260 
15 90 66 89 64 444 443 513 432 425 431 934 983 907 984 1261 
15 54 90 85 48 378 504 377 337 341 340 884 882 883 905 1262 
15 69 68 88 66 449 450 453 440 439 442 888 885 886 887 1263 
15 9 29 28 31 157 255 156 158 261 256 892 889 890 891 1264 
15 54 12 50 48 179 177 354 337 175 336 962 904 893 1019 1265 
15 88 69 89 94 453 454 510 512 457 514 896 894 924 895 1266 
15 78 58 62 57 393 388 418 386 383 384 1087 897 898 899 1267 
15 69 54 50 70 374 354 358 452 375 359 926 900 1021 915 1268 
15 90 86 91 49 506 507 515 350 349 351 903 901 902 949 1269 
15 12 54 85 48 179 377 181 175 337 340 906 904 905 1001 1270 
15 89 66 88 64 443 442 510 431 425 430 909 907 908 910 1271 
15 88 84 89 64 500 501 510 430 428 431 911 1082 985 910 1272 
15 69 70 50 66 452 359 358 440 441 356 915 912 913 914 1273 
15 49 43 12 85 310 173 176 348 316 181 918 916 1003 917 1274 
15 92 72 97 71 469 470 522 465 462 468 922 919 920 921 1275 
15 90 94 89 69 516 514 513 455 457 454 925 923 924 933 1276 
15 69 54 53 50 374 371 372 358 354 353 927 926 955 943 1277 
15 68 69 52 50 449 370 369 357 358 352 930 928 945 929 1278 
15 48 7 43 12 145 143 309 175 138 173 932 978 931 1000 1279 
15 69 90 66 89 455 444 440 454 513 443 936 933 934 935 1280 
15 59 43 86 85 312 317 403 402 316 503 938 1005 937 1069 1281 
15 60 80 86 81 410 492 413 411 489 494 942 939 940 941 1282 
15 69 53 52 50 372 368 370 358 353 352 946 943 944 945 1283 
15 90 71 49 91 463 347 350 515 464 351 950 947 948 949 1284 
15 50 37 34 16 286 277 278 205 204 203 953 951 952 974 1285 
15 54 16 53 50 207 206 371 354 205 353 956 964 954 955 1286 
15 46 32 30 6 269 264 265 134 131 130 959 957 958 1006 1287 
15 32 34 11 50 268 168 167 271 278 170 961 960 973 995 1288 
15 12 17 54 50 172 216 179 177 215 354 963 967 965 962 1289 
15 17 16 54 50 201 207 216 215 205 354 966 970 964 965 1290 
15 11 17 12 50 166 172 163 170 215 177 969 971 967 968 1291 
15 11 16 17 50 165 201 166 170 205 215 972 975 970 971 1292 
15 11 34 16 50 168 203 165 170 278 205 976 973 974 975 1293 
15 11 7 48 12 137 145 169 163 138 175 980 977 978 979 1294 
15 64 50 90 66 355 360 432 425 356 444 999 981 982 983 1295 
15 90 89 84 64 513 501 502 432 431 428 986 984 985 1013 1296 
15 85 59 58 80 402 387 397 491 401 395 1043 1067 1072 987 1297 
15 60 45 47 44 324 323 332 321 318 319 991 988 989 990 1298 
15 11 32 50 48 167 271 170 169 270 336 995 992 993 994 1299 
15 50 64 90 48 355 432 360 336 338 341 999 996 997 998 1300 
15 43 12 85 48 173 181 316 309 175 340 1003 1000 1001 1002 1301 
15 59 43 85 64 312 316 402 399 314 429 1005 1056 1004 1044 1302 
15 30 6 26 46 130 129 248 265 134 252 1009 1006 1007 1008 1303 
15 46 41 58 42 300 302 328 304 299 306 1012 1010 1011 1025 1304 
15 90 84 85 64 502 499 504 432 428 429 1015 1013 1048 1014 1305 
15 84 62 78 79 420 418 486 488 419 484 1017 1077 1089 1016 1306 
15 70 54 50 48 375 354 359 339 337 336 1021 1018 1019 1020 1307 
15 78 74 79 58 474 475 484 393 391 394 1022 1094 1041 1090 1308 
15 58 46 42 64 328 304 306 389 330 307 1025 1023 1064 1024 1309 
15 54 39 17 55 294 214 216 373 295 217 1029 1026 1027 1028 1310 
15 43 6 48 42 133 135 309 303 132 305 1031 1030 1052 1060 1311 
15 84 64 62 58 428 417 420 396 389 388 1033 1047 1032 1078 1312 
15 58 80 75 74 395 478 392 391 476 473 1071 1042 1034 1035 1313 
15 47 60 65 63 332 406 335 334 405 421 1039 1036 1037 1038 1314 
15 58 80 74 79 395 476 391 394 487 475 1042 1085 1040 1041 1315 
15 85 59 64 58 402 399 429 397 387 389 1044 1043 1057 1046 1316 
15 84 85 64 58 499 429 428 396 397 389 1048 1045 1046 1047 1317 
15 60 75 80 76 407 478 410 408 477 480 1073 1049 1050 1051 1318 
15 48 6 46 42 135 134 326 305 132 304 1054 1052 1053 1063 1319 
15 58 43 59 64 311 312 387 389 314 399 1058 1055 1056 1057 1320 
15 64 43 48 42 314 309 338 307 303 305 1061 1059 1060 1062 1321 
15 64 48 46 42 338 326 330 307 305 304 1065 1062 1063 1064 1322 
15 86 59 85 80 403 402 503 492 401 491 1069 1066 1067 1068 1323 
15 59 58 80 75 387 395 401 400 392 478 1072 1070 1071 1074 1324 
15 60 75 59 80 407 400 398 410 478 401 1076 1073 1074 1075 1325 
15 62 84 58 79 420 396 388 419 488 394 1078 1077 1084 1088 1326 
15 88 84 64 83 500 428 430 498 497 427 1082 1079 1080 1081 1327 
15 80 84 79 58 490 488 487 395 396 394 1086 1083 1084 1085 1328 
15 78 58 79 62 393 394 484 418 388 419 1090 1087 1088 1089 1329 
15 78 74 58 73 474 391 393 472 471 390 1094 1091 1092 1093 1330 

CELL_TYPES 236
24
24
24
24
24
24
24
24
24
24
24
24
24
24
24
24
24
24
24
24
24
24
24
24
24
24
24
24
24
24
24
24
24
24
24
24
24
24
24
24
24
24
24
24
24
24
24
24
24
24
24
24
24
24
24
24
24
24
24
24
24
24
24
24
24
24
24
24
24
24
24
24
24
24
24
24
24
24
24
24
24
24
24
24
24
24
24
24
24
24
24
24
24
24
24
24
24
24
24
24
24
24
24
24
24
24
24
24
24
24
24
24
24
24
24
24
24
24
24
24
24
24
24
24
24
24
24
24
24
24
24
24
24
24
24
24
24
24
24
24
24
24
24
24
24
24
24
24
24
24
24
24
24
24
24
24
24
24
24
24
24
24
24
24
24
24
24
24
24
24
24
24
24
24
24
24
24
24
24
24
24
24
24
24
24
24
24
24
24
24
24
24
24
24
24
24
24
24
24
24
24
24
24
24
24
24
24
24
24
24
24
24
24
24
24
24
24
24
24
24
24
24
24
24
24
24
24
24
24
24
24
24
24
24
24
24

POINT_DATA 1331
VECTORS displacement float
0 0 0
0 0 0
0 0 0
0 0 0
0 0 0
0 0 0
0 0 0
0 0 0
0 0 0
0 0 0
0 0 0
0 0 0
0 0 0
0 0 0
0 0 0
0 0 0
0 0 0
0 0 0
0 0 0
0 0 0
0 0 0
0 0 0
0 0 0
0 0 0
0 0 0
-0.00148374 -0.00123951 -0.00116911
-0.00122013 -0.001206 -0.000577213
-0.00105235 -0.00125813 6.42511e-06
-0.00116976 -0.00125171 0.000596152
-0.00150822 -0.00123345 0.00120465
-0.00115245 -0.000568004 -0.00125736
-0.00114384 -0.000558022 0.00125762
-0.00110245 2.42813e-05 -0.00126726
-0.00112219 3.80402e-06 0.00123122
-0.00108117 0.000612815 -0.00125738
-0.00108484 0.000576538 0.00126444
-0.00151166 0.0012779 -0.00116207
-0.00122193 0.00121301 -0.000559571
-0.0010366 0.00125175 1.39634e-05
-0.00114965 0.00125078 0.000587981
-0.00151834 0.00125485 0.00120519
-0.00251336 -0.00150853 -0.00145542
-0.00247103 -0.00166189 -0.00082165
-0.00241488 -0.00172978 -2.39699e-05
-0.00265481 -0.00167212 0.000774359
-0.00252774 -0.00151807 0.00148294
-0.002547 -0.00084761 -0.00160384
-0.00255534 -0.000824501 0.00167262
-0.0024681 -1.76356e-05 -0.0017513
-0.00237674 -1.07366e-06 0.00175383
-0.00258384 0.000862055 -0.00176574
-0.00252299 0.000820732 0.00173099
-0.00250671 0.0015838 -0.00145217
-0.0025331 0.00170046 -0.000783125
-0.00236303 0.00173128 1.96527e-05
-0.00261841 0.00166374 0.0007893
-0.00250582 0.00153621 0.00149678
-0.00350767 -0.00133171 -0.00122661
-0.00383322 -0.00135486 -0.000577571
-0.00400566 -0.00129632 3.79541e-05
-0.00386831 -0.00131705 0.000577979
-0.00353137 -0.00133978 0.00120562
-0.00383431 -0.000594474 -0.00140532
-0.00381848 -0.000611269 0.00141839
-0.00402615 2.21035e-05 -0.00137218
-0.00392937 1.03038e-05 0.00138108
-0.00401026 0.00060649 -0.00130555
-0.00387568 0.000596292 0.00128613
-0.00353107 0.00127769 -0.00119539
-0.00374985 0.00131094 -0.0005541
-0.00390212 0.00132753 1.13668e-05
-0.00380446 0.00134559 0.000556814
-0.0035256 0.0012821 0.00118266
-0.005 0 0
-0.005 0 0
-0.005 0 0
-0.005 0 0
-0.005 0 0
-0.005 0 0
-0.005 0 0
-0.005 0 0
-0.005 0 0
-0.005 0 0
-0.005 0 0
-0.005 0 0
-0.005 0 0
-0.005 0 0
-0.005 0 0
-0.005 0 0
-0.005 0 0
-0.005 0 0
-0.005 0 0
-0.005 0 0
-0.005 0 0
-0.005 0 0
-0.005 0 0
-0.005 0 0
-0.005 0 0
0 0 0
0 0 0
-0.00078984 -0.000750189 -0.00106525
-0.000460701 -0.000926656 -0.000587018
0 0 0
0 0 0
0 0 0
0 0 0
-0.000370708 -0.00097139 -0.000385015
0 0 0
0 0 0
-0.000409621 -0.00100324 -0.000209658
-0.000380262 -0.000963079 1.87625e-05
-0.000400088 -0.000977573 0.000243368
0 0 0
0 0 0
0 0 0
0 0 0
-0.000357848 -0.000954666 0.000398649
0 0 0
-0.000453351 -0.000914831 0.000585385
-0.000801427 -0.000741482 0.00107033
0 0 0
0 0 0
0 0 0
-0.00064671 -0.000525915 -0.000956347
-0.000357339 -0.000640666 -0.000595974
-0.000485433 -0.000348899 -0.000913223
-0.00036939 -5.90003e-05 -0.000993595
0 0 0
0 0 0
-0.000355279 -0.000644387 -0.000341393
-0.00036787 -0.000351746 -0.000625962
-0.000273926 -0.000107532 -0.000700335
-0.00100948 -0.000884645 -0.000593444
-0.000899353 -0.000948547 -0.000298385
-0.000985547 -0.000584245 -0.000909758
-0.000850158 -0.000293046 -0.000999128
0 0 0
0 0 0
0 0 0
0 0 0
-0.000317298 -0.000677083 -0.000161449
-0.000294094 -0.000670763 1.82113e-05
-0.000278625 -0.000660276 0.000201336
-0.000869115 -0.000974881 -2.10268e-05
-0.000806239 -0.000998114 0.000331038
-0.000777138 -0.0002987 -0.000700274
0 0 0
0 0 0
-0.00030372 -0.000633713 0.000371503
-0.000349757 -0.00035402 0.000619756
-0.00029213 -0.000129401 0.000688828
-0.000866332 -0.000939758 0.000627955
-0.000955167 -0.000577845 0.000918837
-0.000881764 -0.000294827 0.000969473
0 0 0
0 0 0
-0.000343873 -0.000634558 0.000597843
-0.000651417 -0.000515319 0.000958963
-0.000471686 -0.000346725 0.000914817
-0.000370929 -7.40231e-05 0.000994966
0 0 0
0 0 0
-0.000364852 5.15853e-05 -0.000962579
0 0 0
0 0 0
0 0 0
0 0 0
-0.000282542 4.44938e-05 -0.000650183
-0.000262051 0.000207416 -0.000658546
-0.000755823 -2.16457e-06 -0.0010306
-0.000778694 0.000348741 -0.00100307
0 0 0
0 0 0
-0.000866283 -0.000701807 -1.44077e-05
-0.000790171 -0.000692658 0.0003201
-0.000787346 7.17242e-06 -0.000727543
-0.000881566 3.62861e-06 0.000728326
-0.000766255 0.000336432 -0.00069363
-0.00083137 0.00031866 0.000689898
-0.000861478 0.000702519 6.96688e-06
-0.000803887 0.000678627 0.00033802
-0.00249763 3.09483e-07 5.45257e-07
0 0 0
0 0 0
0 0 0
0 0 0
-0.000305413 2.67887e-05 0.000671079
-0.000283372 0.000188451 0.000677764
-0.00081219 -0.000654548 0.000638771
-0.000857402 -5.28412e-06 0.00100126
-0.000857189 0.000312476 0.000978439
-0.000794766 0.000664779 0.00065117
0 0 0
-0.000370907 3.46469e-05 0.000991478
0 0 0
0 0 0
0 0 0
-0.000401776 0.000173708 -0.000960758
-0.00040857 0.000380328 -0.00088153
-0.000637217 0.000521308 -0.000931259
-0.000354214 0.000627512 -0.000584409
0 0 0
0 0 0
-0.00029982 0.000366512 -0.000613038
-0.000353504 0.00063293 -0.000331351
-0.000844532 0.000643531 -0.000933728
-0.000962477 0.000913434 -0.000576386
-0.000879297 0.000952298 -0.000283812
0 0 0
0 0 0
0 0 0
0 0 0
-0.000311942 0.000671109 -0.000155854
-0.000288387 0.000664207 2.06625e-05
-0.000276202 0.000664915 0.000201616
-0.000795996 0.000641956 -0.000657787
-0.000846289 0.000973821 2.14065e-06
-0.000798847 0.00100008 0.000340482
0 0 0
0 0 0
-0.000309176 0.000350251 0.00064581
-0.000300188 0.000621595 0.000368619
-0.000879337 0.00060333 0.000962108
-0.000830318 0.00095903 0.000633762
0 0 0
0 0 0
-0.000409463 0.000158959 0.00099579
-0.00041356 0.000360619 0.000913105
-0.000338683 0.000618499 0.000595638
-0.000645461 0.000505359 0.000948296
0 0 0
-0.00079719 0.000749081 -0.00105011
-0.000465126 0.0009218 -0.000569135
0 0 0
-0.000371687 0.000963454 -0.00037753
0 0 0
-0.00040748 0.000993198 -0.000199719
-0.000375531 0.000955298 2.28642e-05
-0.000397152 0.000976851 0.000245066
0 0 0
-0.000351601 0.000936356 0.00039946
-0.000450688 0.000899693 0.000575114
-0.000804735 0.00073363 0.00106259
-0.00130441 -0.00123968 -0.000911139
-0.00123546 -0.000895545 -0.00126126
-0.00199694 -0.00141733 -0.00133496
-0.00187205 -0.00111787 -0.0013986
-0.00111245 -0.00125393 -0.00029036
-0.00104708 -0.00088318 -0.000930109
-0.00190105 -0.00139651 -0.00105874
-0.00182337 -0.00143532 -0.000749252
-0.00176801 -0.00147665 -0.000419797
-0.00175132 -0.00109593 -0.00108306
-0.00110134 -0.00126322 0.000301385
-0.00169808 -0.00150904 -2.71032e-05
-0.0013057 -0.00124685 0.000941085
-0.00103531 -0.000886629 0.000945422
-0.00174897 -0.00152597 0.000357954
-0.00187851 -0.00148897 0.000742765
-0.0019166 -0.00141515 0.00110879
-0.00175987 -0.0010982 0.00112408
-0.00124417 -0.000887309 0.00128257
-0.00201826 -0.00141568 0.0013864
-0.0018864 -0.00110755 0.00143839
-0.00110205 -0.000296961 -0.00127829
-0.0018308 -0.000757513 -0.00145336
-0.00109756 -0.000291547 0.00126832
-0.00182959 -0.000732405 0.00148185
-0.00107395 0.000302517 -0.00128029
-0.00173423 -0.000411293 -0.00151754
-0.00173037 -8.71058e-07 -0.00155528
-0.00173566 0.000376159 -0.00156303
-0.00107884 0.000280478 0.00127873
-0.00172607 -0.000380991 0.00151494
-0.0017102 -9.5327e-06 0.00151153
-0.00171323 0.000358319 0.0015259
-0.00121186 0.00094993 -0.00124866
-0.00100999 0.000927068 -0.000911032
-0.00180183 0.000811599 -0.00151138
-0.00100939 0.000906019 0.000948582
-0.00122667 0.000910926 0.00128806
-0.00177954 0.000754946 0.00150598
-0.00132222 0.001268 -0.000893484
-0.00186301 0.00120847 -0.00140641
-0.00200985 0.00151208 -0.00131277
-0.0011058 0.00124849 -0.000271477
-0.0017261 0.00116042 -0.00108749
-0.00190698 0.00147153 -0.00103821
-0.00184408 0.0014769 -0.000713235
-0.00175348 0.00148234 -0.000373101
-0.00108648 0.00126773 0.000301315
-0.00166659 0.00150805 2.51294e-06
-0.00130894 0.00125847 0.000939086
-0.00174334 0.00112374 0.00114293
-0.0017219 0.00152942 0.000371981
-0.00184672 0.00149311 0.000752574
-0.00190949 0.00143879 0.0011163
-0.0018727 0.00114221 0.00145993
-0.00201119 0.00145039 0.00139164
-0.00247311 -0.001512 -0.00117721
-0.0025091 -0.00121805 -0.0015283
-0.00301138 -0.00141725 -0.00139826
-0.00306825 -0.00141482 -0.0011155
-0.0024349 -0.00169084 -0.000445341
-0.00246004 -0.00122216 -0.00120742
-0.00244262 -0.000823772 -0.00123574
-0.00314423 -0.00145153 -0.000765639
-0.00325485 -0.000755273 -0.00115703
-0.00246953 -0.00173167 0.000380266
-0.00244407 -0.000829754 -0.000801261
-0.00244573 -0.00081251 0.0008091
-0.00319289 -0.00148772 -0.000396965
-0.00325593 -0.00149278 1.20094e-05
-0.0032113 -0.00156396 0.000398142
-0.00331386 -0.000756772 -0.000770765
-0.00335689 -0.000764341 0.000821295
-0.00415357 -0.000694821 2.65818e-05
-0.00415985 -0.000674042 0.000352823
-0.00254006 -0.00151634 0.00118035
-0.0025337 -0.00121777 0.00124247
-0.00247769 -0.000797501 0.00126413
-0.00328238 -0.00142961 0.000767896
-0.00330694 -0.000769261 0.00120362
-0.00252476 -0.00121869 0.00157474
-0.00312152 -0.00140963 0.00109231
-0.00303644 -0.00143524 0.0013739
-0.00246636 -0.000447823 -0.001683
-0.00312102 -0.00111685 -0.0014449
-0.00318357 -0.00110471 -0.0011364
-0.00316658 -0.000778504 -0.00148092
-0.00323126 -0.000415371 -0.00151958
-0.00243549 -0.000427233 0.00171394
-0.0032387 -0.00111306 0.00114275
-0.00314851 -0.00113282 0.00144033
-0.00315993 -0.000798151 0.00150818
-0.00319292 -0.000425246 0.00157935
-0.00250984 0.000434403 -0.00174113
-0.00244829 0.000837731 -0.000768437
-0.00328002 -2.52283e-05 -0.00153796
-0.00335367 0.000799441 -0.000728191
-0.00413929 2.20959e-05 -0.000733425
-0.00413999 0.000324078 -0.000702524
-0.00241764 0.00042949 0.00173546
-0.00244827 0.000814732 0.000788547
-0.00244682 0.000825024 0.0012571
-0.0032127 -4.2195e-05 0.00161337
-0.00335571 0.000804801 0.000733584
-0.00329668 0.000798673 0.00115592
-0.00416302 4.32512e-07 0.000738641
-0.00416822 -3.10245e-05 0.00104248
-0.00417971 0.000304293 0.000723517
-0.00413882 0.000272485 0.00104271
-0.00251612 0.00128233 -0.00156458
-0.00249842 0.0012999 -0.00122081
-0.00246768 0.00128504 -0.000796282
-0.00327273 0.000419511 -0.0014805
-0.00331883 0.000788697 -0.00146185
-0.00316311 0.00117859 -0.0014039
-0.00325522 0.00116477 -0.00109453
-0.00331132 0.00119361 -0.000722989
-0.00410018 0.000645113 -0.000628281
-0.00255897 0.0012166 0.00125683
-0.00250943 0.00122882 0.0016001
-0.00319948 0.000385183 0.0015737
-0.0032129 0.000772065 0.00150847
-0.00326002 0.00116218 0.0011186
-0.00314937 0.00114365 0.00142853
-0.00404721 0.000603899 0.000972382
-0.0024995 0.00160005 -0.00115751
-0.00301005 0.0014913 -0.0013306
-0.00307878 0.0014656 -0.00105327
-0.00243126 0.00171078 -0.000399093
-0.00317571 0.00150099 -0.000746523
-0.00244631 0.00171815 0.000407526
-0.00316559 0.00154625 -0.000375441
-0.00317453 0.00159312 1.59078e-05
-0.00320302 0.00152023 0.000409148
-0.00405826 0.000700109 3.40525e-06
-0.00401973 0.000996321 5.74097e-06
-0.00254466 0.00153606 0.00119137
-0.00327827 0.00143422 0.000771701
-0.0031263 0.00142901 0.001083
-0.00301936 0.00145329 0.00135935
-0.00368902 -0.00133914 -0.000961396
-0.0037441 -0.000964976 -0.00135809
-0.00419043 -0.000781186 -0.00111862
-0.00434203 -0.000561944 -0.00102488
-0.00393081 -0.00133694 -0.000271726
-0.00391966 -0.000970897 -0.00101882
-0.00400458 -0.000641201 -0.00101775
-0.00454244 -0.000948837 -0.000614672
-0.00464609 -0.000966273 -0.000411963
-0.00459392 -0.00102229 -0.000239241
-0.00464352 -0.000680267 -0.000662683
-0.00466673 -0.000664728 -0.000427788
-0.00467788 -0.000717404 -0.000196715
-0.00468256 -0.000411349 -0.000433268
-0.00470701 -0.000450037 -0.000201154
-0.00394573 -0.00133734 0.000322934
-0.00407867 -0.000646979 -0.000656661
-0.00462243 -0.00100153 1.17877e-05
-0.00470308 -0.000739108 6.05732e-06
-0.0047305 -0.000516552 -5.17795e-07
-0.00472827 -0.00053526 0.000182825
-0.00371706 -0.00132888 0.000945489
-0.00394716 -0.000972058 0.00102175
-0.00402634 -0.000653651 0.00102887
-0.0045925 -0.00104243 0.000250863
-0.00465722 -0.000960254 0.000415903
-0.00455105 -0.000947136 0.000605018
-0.00469046 -0.000739643 0.000205471
-0.00468288 -0.000662685 0.000427717
-0.00465184 -0.000681833 0.000654113
-0.00470772 -0.000413161 0.000429964
-0.00375812 -0.000985424 0.00135012
-0.00420206 -0.000787321 0.00109928
-0.00434951 -0.00057365 0.00101118
-0.00392852 -0.000274954 -0.001395
-0.00454832 -0.000381713 -0.000969721
-0.00466144 -0.000384743 -0.000700013
-0.0046877 -0.00017897 -0.000706445
-0.00388266 -0.000289761 0.00141174
-0.00467171 -0.000395451 0.000681777
-0.00454539 -0.000397524 0.000951039
-0.00469164 -0.000184883 0.000673649
-0.0040152 0.000350364 -0.00134361
-0.00459234 -0.000139026 -0.00104039
-0.00466634 -1.30035e-05 -0.00102271
-0.00471341 -9.68131e-06 -0.000771224
-0.00471631 2.11863e-05 -0.000540731
-0.00466688 0.000108733 -0.00104062
-0.00471429 0.000187017 -0.000799807
-0.00473235 0.000191369 -0.000599766
-0.00389171 0.000329621 0.00134121
-0.00458171 -0.000139884 0.00100513
-0.00468678 1.32692e-05 0.00068591
-0.00464023 -2.77222e-05 0.00099599
-0.00472596 0.000131328 0.000733972
-0.00463222 7.30512e-05 0.00102595
-0.00381091 0.00093112 -0.00128442
-0.00397195 0.000936918 -0.000959772
-0.00403229 0.000966966 -0.000612475
-0.00458089 0.000385602 -0.000974577
-0.00466659 0.000409971 -0.000724663
-0.00468471 0.000418022 -0.000494497
-0.0039691 0.000937266 0.000958826
-0.00377859 0.000927603 0.00129145
-0.0046573 0.000357416 0.000667296
-0.00453177 0.000350477 0.000950701
-0.00367788 0.00128963 -0.000919583
-0.00437587 0.000553772 -0.00101418
-0.00421282 0.000761279 -0.00112178
-0.00384434 0.00132805 -0.00026451
-0.00464425 0.000668456 -0.000671922
-0.00466829 0.000668502 -0.000444222
-0.00467316 0.00066719 -0.000231654
-0.00453241 0.0009502 -0.000637957
-0.00461939 0.00100568 -0.000415527
-0.00457529 0.00100895 -0.000247219
-0.00386365 0.00137707 0.000261471
-0.00461404 0.000641196 -2.97121e-07
-0.00458239 0.000968779 4.90578e-06
-0.00369748 0.001284 0.000921688
-0.00466834 0.000614666 0.000216648
-0.00466349 0.000624044 0.000445917
-0.0046558 0.000650595 0.000650013
-0.00458841 0.000962822 0.000260687
-0.00463868 0.00095142 0.000402631
-0.00454456 0.000926334 0.000613093
-0.00436571 0.000535158 0.000998336
-0.00420768 0.000751863 0.00109943
-0.005 0 0
-0.005 0 0
-0.005 0 0
-0.005 0 0
-0.005 0 0
-0.005 0 0
-0.005 0 0
-0.005 0 0
-0.005 0 0
-0.005 0 0
-0.005 0 0
-0.005 0 0
-0.005 0 0
-0.005 0 0
-0.005 0 0
-0.005 0 0
-0.005 0 0
-0.005 0 0
-0.005 0 0
-0.005 0 0
-0.005 0 0
-0.005 0 0
-0.005 0 0
-0.005 0 0
-0.005 0 0
-0.005 0 0
-0.005 0 0
-0.005 0 0
-0.005 0 0
-0.005 0 0
-0.005 0 0
-0.005 0 0
-0.005 0 0
-0.005 0 0
-0.005 0 0
-0.005 0 0
-0.005 0 0
-0.005 0 0
-0.005 0 0
-0.005 0 0
-0.005 0 0
-0.005 0 0
-0.005 0 0
-0.005 0 0
-0.005 0 0
-0.005 0 0
-0.005 0 0
-0.005 0 0
-0.005 0 0
-0.005 0 0
-0.005 0 0
-0.005 0 0
-0.005 0 0
-0.005 0 0
-0.005 0 0
-0.005 0 0
-0.00416345 0.00104591 -0.000981236
-0.00453316 0.000446019 -0.000854905
-0.0021329 -0.00148613 0.00102601
-0.00476427 0.000795059 -0.00036589
-0.005 0 0
-0.00479244 0.000551865 -0.000551038
0 0 0
-0.005 0 0
0 0 0
-0.00148513 0.00141541 -0.000220581
-0.005 0 0
-0.00457356 -3.36495e-05 0.000592046
-0.0017441 0.00141617 -0.00108754
-0.00210873 0.0013693 -0.00141942
-0.005 0 0
-0.00433593 -0.000282578 0.00115855
-0.00483559 -0.00016143 0.000570779
-0.000830715 -0.00101832 -0.000928468
-0.000470246 -0.000437168 -0.000813369
-0.00195045 -0.000302782 -0.00160228
-0.00336655 -0.000958156 -0.00142457
-0.00211287 -0.00127171 -0.00141426
-0.00173331 -0.0013455 -0.00111023
-0.000611595 0.001106 0.000171956
-0.000166285 -0.000402563 -0.000368011
-0.00161886 -0.0009369 -0.00136499
-0.00161288 -0.00114748 -0.00113632
0 0 0
-0.00484233 -8.84776e-05 0.000599259
-0.005 0 0
-0.00478311 -0.000100819 0.000819394
-0.000748696 0.000605398 -0.0010641
0 0 0
-0.000207628 -0.000537569 -0.000507427
-0.00022961 -0.000768163 -0.000327279
-0.000170793 -0.000568309 -0.000357249
-0.00209917 0.00152618 -0.00097674
-0.00204874 0.00132585 -0.00123202
-0.000395097 -0.000291457 -0.000541864
-0.005 0 0
-0.000491056 -0.000663676 -0.000135161
0 0 0
-0.000211235 0.000116731 -0.000789178
0 0 0
-0.00345478 0.000980368 -0.00137544
-0.00410691 0.00063439 0.000444831
-0.00201287 -0.00159124 0.000486522
-0.00423027 0.000601146 0.00112623
-0.00328005 0.00137655 0.00112884
-0.00290386 0.00129944 0.00144761
-0.00199284 0.00132429 -0.00100274
-0.000646537 -0.000264355 -0.00111846
-0.000216821 -0.000250033 -0.000530857
-0.000760391 0.000582613 0.00108572
0 0 0
-0.000223509 -0.000754284 0.00032776
0 0 0
-0.000162642 -0.000556968 0.000354407
-0.005 0 0
-0.000669732 0.000801179 -0.000875586
-0.00084437 0.00102469 -0.000908957
-0.000466238 0.00042977 -0.00079629
-0.000207165 0.000526014 -0.000494205
-0.000229295 0.000754216 -0.00031613
-0.000170068 0.00054821 -0.000347718
0 0 0
0 0 0
-0.000165088 0.00026482 -0.000513499
-0.000161194 0.000381547 -0.000361857
-0.00056429 0.000635249 -0.000829565
0 0 0
0 0 0
-0.000162874 -0.000113512 -0.000588097
0 0 0
-0.0001503 -2.81653e-05 -0.000595023
-0.000152876 3.75221e-05 -0.000572826
-0.000208158 -3.51989e-05 -0.000798915
0 0 0
-0.00021746 0.000109408 0.000826806
-0.00207718 -0.00145868 -0.00100409
-0.00198662 -0.00126652 -0.00101216
-0.00204809 -0.00125027 -0.00122528
-0.000471901 0.000416809 0.000799826
-0.000664975 0.000787085 0.000895888
-0.000840752 0.00100703 0.000928883
-0.00345254 0.000502784 0.00148236
0 0 0
-0.000166199 0.000568725 -0.000251839
0 0 0
-0.000168845 0.000621927 -0.000156262
-0.000225626 0.000816328 -0.00021412
-0.00485875 6.31261e-05 0.00047502
0 0 0
-0.000226653 -0.000824399 -0.00022197
-0.0012886 0.00100576 0.000230191
-0.000613592 0.000281408 0.00112729
-0.000157839 0.000158587 0.000583306
-0.0001577 9.5093e-05 0.000611361
-0.000617322 -0.00112261 -0.00013475
-0.000162715 -0.000606464 -7.25186e-05
-0.000636708 -0.000271464 0.00112122
0 0 0
-0.000154531 0.000576608 0.000110994
-0.00021468 0.000779025 0.000244898
0 0 0
-0.000154619 0.00058508 0.00018684
-0.000141971 0.000434125 0.000168328
-0.00015171 0.000538098 0.000267958
-0.000904297 -0.00105862 -0.000188888
-0.00150091 -0.00141685 -0.000254642
-0.000493659 -0.000894283 -0.00013648
-0.000615294 0.000306117 -0.00109608
-0.000153269 0.000168372 -0.00054974
-0.000151551 0.000103898 -0.000579153
-0.000564016 0.000617944 0.000849355
-0.000167227 0.000256176 0.000539709
-0.00048731 0.000616861 0.000662057
-0.000152162 0.000375946 0.000369822
0 0 0
-0.000201292 0.000509765 0.000492339
-0.000219958 0.000733998 0.000322293
-0.000159645 0.000534316 0.000351156
-0.000157109 -0.000397991 0.000367944
-0.000205296 -0.000253403 0.000526029
-0.00020352 -0.000524473 0.000499613
-0.00047515 -0.0004269 0.000809361
-0.000836093 -0.00101206 0.00093767
-0.00483738 0.000545894 0.000299319
-0.005 0 0
-0.000387353 0.000581794 0.000190725
0 0 0
-0.00038638 0.000404545 0.000377578
-0.00441976 0.000631296 0.000902872
-0.00483544 0.000401526 0.000434314
-0.000786394 -0.000583208 -0.00108792
-0.000597161 -0.000615876 -0.00085257
-0.00114093 -0.000986376 -0.00105576
-0.000676198 -0.00079556 -0.000898006
-0.00328841 -0.00137405 0.00114879
-0.00291032 -0.00127761 0.00144591
-0.00413136 1.69497e-05 -0.000923026
-0.000162847 -0.000129291 0.000593481
-0.000155077 -5.44196e-05 0.000447305
0 0 0
-0.00479181 -9.53155e-05 -0.000843815
-0.005 0 0
-0.000869105 -0.000166764 -0.00112227
-0.000358949 -0.000124995 -0.000750555
-0.000136427 -3.88736e-05 -0.000445444
-0.0010014 0.0010083 -0.000572064
-0.00198793 0.00156578 -0.000518507
-0.00151726 -0.000476414 0.0014295
-0.000510225 -0.000268814 0.000898286
0 0 0
-0.000167112 -0.000449186 -0.000128499
-0.000166722 -0.000579414 -0.000257394
-0.00016922 -0.000627241 -0.000160648
-0.005 0 0
-0.005 0 0
-0.0047679 0.000816811 -0.000258731
-0.000616295 -0.00110608 0.000171278
-0.00015897 -0.000577606 1.91971e-05
-0.00174869 -0.0013533 0.0011593
-0.00206945 -0.00125245 0.00127717
-0.00212938 -0.00127061 0.00146304
-0.000154998 -0.000551981 0.000267457
0 0 0
-0.00162217 -0.00115041 0.00117816
-0.00162962 -0.000921729 0.00139769
-0.000939813 -0.000380956 0.00106166
-0.000900285 -0.00018044 0.0010789
-0.00193397 -0.000270344 0.00159669
-0.000979955 -0.000577584 0.00102253
-0.00151567 -0.000917208 0.00118649
-0.000513651 -0.000618969 0.000657213
-0.00449914 0.000675341 -0.000365148
-0.00477311 0.000767244 0.000344453
-0.005 0 0
-0.00483257 0.000570957 0.00039372
-0.0034283 -0.000951634 -0.00122043
-0.00344362 -0.000500066 -0.00147338
0 0 0
-0.000212818 -5.38171e-05 0.000821157
-0.000159403 2.52179e-05 0.00060528
-0.000155249 -4.36783e-05 0.000612073
-0.00211712 0.0013038 0.00148467
-0.00174674 0.00138163 0.00116529
0 0 0
-0.000156273 -0.000574707 0.000110673
-0.000216878 -0.00078031 0.000242618
-0.000156478 -0.000582131 0.000185854
-0.00288297 -0.00126359 -0.00145183
-0.00324924 -0.00137497 -0.00117736
-0.00335503 -0.00117928 -0.0011953
-0.00406067 0.000854361 -0.000414836
-0.00407433 0.000642527 -0.00042819
-0.00399781 0.00109948 7.19206e-06
-0.00294095 -0.00153776 -0.000554366
-0.000888003 -0.00106513 0.0002036
-0.000891969 -0.00106639 5.01016e-06
-0.000479541 -0.000882931 0.000171437
-0.00149775 -0.00143771 0.000215748
-0.00138059 -0.000459436 0.00122901
-0.00142034 -0.00093118 0.000957006
-0.00203002 -0.00127234 0.00104279
-0.000961025 -0.000791306 0.000820618
-0.00130119 -0.000462901 0.000763214
-0.00136019 -0.000683378 0.000989051
-0.00130305 -0.00046266 0.0010072
-0.000468628 -0.000153789 0.000676428
-0.000384749 -0.000395457 0.000361725
0 0 0
-0.00129071 -0.00101021 0.000209285
-0.000387309 -0.000580577 0.000170079
-0.0013289 -0.00123795 0.000202949
-0.000424041 -0.000505998 0.000492767
-0.000357946 -0.000575227 0.000330335
0 0 0
-0.000381166 -0.000715327 0.000355982
-0.000936117 -0.00104306 0.000612286
-0.000877582 -0.00108383 0.00041792
-0.00014203 -0.000429982 0.000170028
-0.00406141 0.00039975 0.00110902
-0.00294429 0.000267729 0.00164773
-0.00411194 0.000166411 0.00116881
-0.00358774 0.000487954 0.00126361
-0.005 0 0
-0.00484499 -1.72378e-05 0.000604548
-0.00484883 5.26211e-05 0.000636859
-0.00478823 5.52271e-05 0.000840369
-0.00420387 -0.000644669 0.001161
-0.0043345 -0.000862371 0.000950193
-0.00452493 -0.00046417 0.000842877
-0.00417076 -0.00106893 0.000962963
-0.00340242 0.00119008 0.0011612
-0.00387205 0.00102374 0.00107971
-0.00340044 0.000968498 0.00140076
-0.0048405 0.000129227 0.000609155
-0.00435699 0.000284167 0.00115758
-0.00449673 0.000281327 0.000935444
-0.00479757 0.000252421 0.000559144
-0.00440268 -0.000681134 0.000921431
-0.00481571 -0.00028339 0.000560437
-0.00479785 -0.000559948 0.000530822
-0.005 0 0
-0.00477753 -0.00077335 0.000340472
-0.0048382 -0.000579679 0.00038768
-0.005 0 0
-0.00483717 -0.000417104 0.000426093
-0.00484724 -0.000569821 0.000295235
-0.00212304 0.00150271 0.00103235
-0.00206204 0.00127923 0.0013004
-0.000924257 0.000587709 0.0010567
-0.000147916 0.000152957 0.000438544
-0.00045268 0.000323604 0.00067835
-0.00130377 0.000704111 0.00100871
-0.00128952 0.000704205 0.000755793
-0.00130662 0.000464262 0.000756533
-0.00149985 0.000456319 0.00143606
-0.000883374 0.000397792 0.00107755
-0.000483536 0.000165713 0.000899726
-0.00193527 0.000257721 0.00158907
-0.000896929 0.000194254 0.00106434
-0.000890788 2.12903e-06 0.00107743
-0.00129253 0.00022991 0.00102663
-0.000455363 0.000196328 0.000553742
-0.00132226 0.000228451 0.0012373
-0.000502574 4.44917e-06 0.000580209
-0.000355559 0.000586946 0.000351301
0 0 0
-0.000379445 0.00072219 0.000359082
-0.000401918 0.000527017 0.000513533
-0.00297465 0.00127708 0.00126239
-0.00252976 0.0013361 0.00134875
-0.00296985 0.00145987 0.00102507
-0.00160527 0.000952057 0.00141937
-0.00112952 0.00100181 0.00107865
-0.00148173 0.000947976 0.00120744
-0.00161063 0.00118302 0.00119481
-0.00112506 0.00102727 -0.00103529
-0.00159696 0.00101238 -0.00138193
-0.00160123 0.00122045 -0.00112856
-0.00293629 -0.000318904 0.0016385
-0.00301865 -0.000792291 0.00135775
-0.00246341 -0.000800255 0.00141529
-0.0033802 -0.000981254 0.00142798
-0.00386092 -0.0010711 0.001133
-0.00339326 -0.00118443 0.00118453
-0.00355887 -0.000975572 0.00101326
-0.00299275 -0.00155025 0.000542013
-0.00300375 -0.000530124 0.00137532
-0.00305369 -0.00106958 0.000840181
-0.0024701 -0.00109829 0.000813746
-0.00202508 0.00128503 0.00105926
-0.00136082 0.00094154 0.000991403
-0.000909915 0.00105005 0.000614633
-0.000912845 0.000810962 0.00083669
-0.000473714 0.000886533 0.000171647
-0.00087307 0.00106217 1.77943e-05
-0.00147391 0.00144248 0.000229159
-0.00445647 0.000892859 -0.000167221
-0.0043474 0.00113381 -0.000154248
-0.0048269 0.000592058 -0.000119412
-0.00134714 0.000482262 0.00049103
-0.00357382 0.00100849 0.0007066
-0.00304866 0.00108914 0.000499315
-0.00342502 0.00149295 0.000246601
-0.00402689 0.000604474 0.00106613
-0.00447689 0.00064003 0.000718538
-0.00350833 0.000962185 0.00120208
-0.00402527 0.000834034 0.000863644
-0.00305955 0.00127124 0.0010547
-0.00303956 0.000825339 0.00134033
-0.00246538 0.000823322 0.00141053
-0.00199241 -0.00154209 -0.000559599
-0.0010223 -0.000992141 -0.000592004
-0.000965777 -0.00104133 -0.000393429
-0.00415636 -0.0010689 -0.000980916
-0.00451864 -0.000456465 -0.000855078
-0.000613091 0.00111028 -0.000124682
-0.000156021 0.000571467 2.10819e-05
-0.00048454 0.000884048 -0.000128393
-0.000160267 0.00059599 -6.77338e-05
-0.00364084 -0.000486358 0.000791289
-0.00410664 -1.98975e-05 0.00114265
-0.00303588 -0.00051932 0.00110889
-0.00452313 -0.000742723 0.000335341
-0.00348352 -0.00146236 0.000264518
-0.00410947 -0.00086901 0.000436082
-0.00412022 -0.000440403 0.000683245
-0.00357469 -0.000986741 0.000783144
-0.00453098 -0.00033879 0.000718468
-0.00449414 -0.00014206 0.000932011
-0.00450506 -0.00050127 0.000715446
-0.00484526 -0.000185717 0.000433756
-0.00448316 -0.000679297 0.00072379
-0.000884604 0.00105385 -0.000171092
-0.000949622 0.00104654 -0.000376495
-0.000163699 0.000446648 -0.000124129
-0.00435539 0.00112593 0.000164705
-0.00480258 0.000576322 6.43562e-07
-0.00445002 0.000879902 0.000159473
-0.00245158 0.00110529 0.000812281
-0.00300131 0.00155805 0.000548916
-0.00302463 0.00109034 0.000788203
-0.00302628 0.00107387 0.00105858
-0.00477641 0.000765655 0.000266862
-0.00484209 0.000548526 0.000207307
-0.005 0 0
-0.0048287 0.000555392 0.00012272
-0.00459492 0.000165547 0.000440513
-0.0036431 0.000507434 0.000481092
-0.00362831 0.000756987 0.000473657
-0.00484667 -8.78622e-05 -0.000639603
-0.00434967 -0.000270281 -0.00118259
-0.00360755 0.000762005 -0.000460698
-0.00455886 0.000180923 -0.000439545
-0.00444101 0.000553288 2.4543e-06
-0.00387606 0.00103305 -0.00107567
-0.00426501 0.000620882 -0.00113595
-0.00444029 0.000657502 -0.00092499
-0.0043315 0.000830586 -0.000957014
-0.000785568 -0.000575872 0.00109162
-0.00114236 -0.000984232 0.0010766
-0.000587576 -0.000611806 0.000853109
-0.000672323 -0.000790469 0.000904008
-0.00125559 0.00024427 -0.00102927
-0.00482471 0.000597223 -0.00040242
-0.005 0 0
-0.00483374 0.00043185 -0.0004421
-0.00432101 -0.000858057 -0.000963504
-0.00383693 -0.00106645 -0.00114203
-0.00419917 -0.000629571 -0.00117197
-0.00340539 0.00149692 -0.000221627
-0.00463737 0.000111719 0.000648817
-0.00461297 9.86369e-05 0.000782221
-0.005 0 0
-0.00132557 0.00050956 -0.00048508
-0.00362069 0.00051115 -0.00047834
-0.00248896 0.000452267 -1.9307e-06
-0.00450891 0.000342744 -0.00098946
-0.00443204 0.000321354 -0.00118304
-0.00480462 0.000288344 -0.000602631
-0.0048467 0.000159837 -0.000663949
-0.005 0 0
-0.00396563 0.0010737 -0.000605933
-0.00358983 0.000998955 -0.000928196
-0.00353221 0.000977278 -0.00116003
-0.00349471 0.00124678 -0.000686819
-0.00365097 -0.000484152 0.000540577
-0.00250749 4.18071e-06 0.000460489
-0.00134756 -0.000476243 0.00049323
-0.0043359 0.000816391 0.000935745
-0.00416969 0.00103164 0.000962646
-0.00479768 0.000533518 0.000533899
-0.00453292 0.000432767 0.000838497
-0.00483191 0.000606758 -0.000211936
-0.00483199 0.000586296 -0.000305681
-0.005 0 0
-0.00300532 0.00135395 -0.000762296
-0.00294337 0.00158959 -0.000533477
-0.00339598 0.00120731 -0.00113252
-0.0029039 0.00134355 -0.00141577
-0.00325468 0.00140383 -0.00110778
-0.00049474 -0.000548918 -2.24591e-05
-0.00129238 -0.000756512 -0.00047988
-0.00483701 0.000440241 -0.00022922
-0.00482311 0.000307181 -0.00039096
-0.00448717 0.000678601 -0.000728251
-0.00449449 0.000683136 -0.000533731
-0.00455621 -0.000390852 0.000197978
-0.00415442 -0.000892621 0.000223147
-0.00484729 -0.000492153 0.000210956
-0.005 0 0
-0.00485209 -0.000320453 0.000323291
-0.00485856 -0.000378895 0.000213524
-0.00299195 0.00133719 -0.00100552
-0.00250451 0.00140399 -0.00130733
-0.00295236 0.00131357 -0.00122885
-0.00290259 0.00152863 -0.00099653
-0.00483193 0.000376188 0.000225605
-0.00407208 0.000629899 0.000876633
-0.00460083 0.000295139 0.000603264
-0.00413397 0.00065187 0.000670976
-0.000947029 0.000828933 -0.000795118
-0.000506549 0.000627825 -0.000637542
-0.00147372 0.000988738 -0.00116458
-0.00140292 0.00097537 -0.000935819
-0.00244923 0.00143683 -0.000795766
-0.00138452 0.00121105 -0.000458746
-0.000940806 -0.000389924 -0.00107236
-0.000512553 -0.000260381 -0.00090539
-0.00152255 -0.000498988 -0.00143225
-0.00150166 0.000491653 -0.00146114
-0.000463526 0.000186896 -0.000887338
-0.00128746 0.000774512 -0.000466776
-0.000485688 0.00055995 4.1037e-07
-0.00134723 0.000995161 -0.000691913
-0.00129808 0.00100517 -0.000462974
-0.000474415 0.000664887 -0.000132246
-0.000376174 0.000355382 -0.000398491
-0.000365912 0.000182173 -0.000580553
0 0 0
-0.000416316 0.000491107 -0.000495551
-0.00034719 0.000333055 -0.000575125
0 0 0
-0.000840383 0.000427622 -0.00109264
-0.000902049 0.000622153 -0.0010375
-0.000365335 0.00035819 -0.000713973
-0.00013229 0.000168971 -0.000420878
0 0 0
-0.000385518 -0.000153027 -0.000430427
-0.000373431 2.70108e-05 -0.000609739
-0.000346211 -0.0001114 -0.00062048
-0.00353767 0.000521369 -0.00142843
-0.00411463 0.000649648 -0.000841543
-0.00454311 0.000351466 -0.000794517
-0.00486231 0.000198332 -0.000449327
-0.00486129 7.61441e-05 -0.00056414
-0.005 0 0
-0.00485479 -0.000357919 -0.00010491
-0.00296567 -0.00145506 0.00102733
-0.00252763 -0.00132449 0.0013351
-0.00303701 -0.00127409 0.00105308
-0.00296188 -0.0012517 0.00126105
-0.000837058 2.15466e-05 -0.00110296
-0.00197163 0.000267011 -0.00162712
-0.00130447 0.000233584 -0.00126954
-0.000863267 0.00021854 -0.00108158
-0.00302031 0.000281758 -0.0015662
-0.00414282 0.000209083 -0.000947467
-0.00364691 0.000515487 -0.00097449
-0.00413856 0.000441108 -0.000893578
-0.00129984 -0.00050958 -0.000485307
-0.00248161 8.67837e-07 -0.00045726
-0.00362112 -0.000480019 -0.000502284
-0.0024854 -0.000450553 1.0574e-05
-0.00412416 -0.00043156 -0.000456004
-0.00414158 -0.000873823 2.5521e-05
-0.00099957 -0.000583707 -0.00102147
-0.00100456 -0.0007851 -0.00080004
-0.00151838 -0.000922139 -0.00115271
-0.000541307 -0.000620312 -0.000648836
-0.00247769 -0.00131952 -0.00130374
-0.00287128 -0.0014708 -0.00103456
-0.00291435 -0.00124727 -0.00126711
-0.00485868 8.78258e-05 -0.000459729
-0.00486076 0.000104534 -0.000349781
-0.005 0 0
-0.005 0 0
-0.00483462 -0.000151347 -0.000597836
-0.0030311 0.00110167 -0.000474353
-0.00247399 0.000854773 -0.00107734
-0.00309912 0.000833586 -0.00103287
-0.00300405 0.0013651 -0.000495332
-0.005 0 0
-0.00348371 -0.00072492 -0.00123905
-0.00348911 -0.000962706 -0.000989226
-0.00293603 -0.0012692 -0.00104875
-0.00198397 0.00159386 0.000506035
-0.000863548 0.00108986 0.000421158
-0.00130997 0.00124453 0.000229552
-0.00087567 0.00107138 0.00021191
-0.00140863 -0.00119809 -0.000489573
-0.00133487 -0.000749546 -0.000709318
-0.00397436 -0.000627104 -0.00115378
-0.00451351 -0.000147391 -0.000973825
-0.005 0 0
-0.00477588 -0.000810948 -0.000260812
-0.00346058 -0.000961957 0.00123171
-0.0039863 -0.000644344 0.00116437
-0.00340967 -0.000521291 0.00150532
-0.00350769 -0.00074005 0.00126821
-0.005 0 0
-0.00484147 -0.000568522 -0.00029269
-0.00484164 -0.000612687 -0.000197261
-0.00451992 -0.00074065 -0.000153267
-0.00455528 -0.000378277 -0.00035401
-0.00485972 -0.000213515 -0.000217305
-0.00453774 -0.000341075 -0.000540634
-0.00451541 -0.000322928 -0.000735313
-0.00485423 -8.69389e-06 -0.000417522
-0.00477922 -0.00082575 0.000264777
-0.005 0 0
-0.00484481 -0.000635056 0.000201491
-0.00141452 -0.000716509 -0.000947483
-0.00145189 -0.000935849 -0.000923179
-0.00139986 -0.00048276 -0.00121852
-0.00352023 -0.000978109 -0.000744455
-0.00357617 -0.00096914 -0.000500624
-0.00401936 -0.000871395 -0.000647833
-0.00346589 -0.00144318 -0.000221902
-0.00300044 -0.00105203 -0.000801595
-0.0024431 -0.0011116 -0.000818931
-0.00304487 -0.000531388 -0.00105627
-0.00299335 -0.000530402 -0.00131949
-0.00245732 -0.000822896 -0.0013653
-0.00298422 -0.000785866 -0.00131128
-0.00298714 -0.000303802 -0.00157254
-0.00485381 -0.000422229 8.09741e-05
-0.00485857 -0.000407027 -1.63377e-05
-0.005 0 0
-0.00486272 -0.000322895 8.49415e-05
-0.00439663 -0.00116589 -0.000142674
-0.00483323 -0.000629291 -0.000105052
-0.00448362 -0.00095883 -0.00014387
-0.00483725 -0.000643588 0.000110909
-0.00483086 -0.000622264 6.61675e-06
-0.00450141 -0.000969394 0.000163419
-0.00439426 -0.0011793 0.000171246
-0.00483817 -0.000178333 -0.000453239
-0.00448453 -0.000488834 -0.000726126
-0.005 0 0
-0.00485488 -1.50483e-05 -0.000654827
-0.00480151 7.54843e-05 -0.000856127
-0.00485946 6.01965e-05 -0.000685822
-0.00484843 -0.000322989 -0.000206486
-0.00483629 -0.000313243 -0.000327964
-0.00484456 -0.000457541 -0.000202226
-0.005 0 0
-0.00439441 -0.000672099 -0.000933976
-0.00446176 -0.000675096 -0.000733148
-0.00481425 -0.000273691 -0.000582477
-0.00483104 -0.000415306 -0.000434646
-0.005 0 0
-0.00477278 -0.000779235 -0.000342833
-0.00479407 -0.000557261 -0.000538194
-0.00483378 -0.000583804 -0.000390629
-0.00449355 0.000730988 -0.000886846
-0.00219178 -0.00134005 0.00117241
-0.00488585 0.000508408 -0.000341585
-0.00413893 -0.00033006 0.000554145
-0.000100259 -0.000387274 -0.000258523
-0.00490228 -0.000150545 0.000401062
-0.000208546 -0.000145823 -0.000497311
-0.000906104 0.00110722 -0.000124651
-0.000802627 0.000484258 0.000691473
-0.00477534 6.60398e-05 0.000440855
-0.00187057 0.00134041 -0.00121623
-0.00491001 7.13336e-05 0.000442438
-0.0046647 -0.000170843 0.000831054
-0.000508695 -0.000710457 -0.000834749
-0.00126882 -0.000351846 -0.0012647
-0.00350869 -0.00103941 -0.00124837
-0.00187272 -0.00125664 -0.00122186
-0.000319338 0.000801759 0.000113567
-0.00157303 0.000752584 0.000564432
-0.000350447 -0.000474476 -0.000616458
-0.00145708 -0.000999384 -0.00117787
-8.92633e-05 0.000144591 -0.000380116
-0.00490197 -6.25266e-05 0.000525666
-0.000749479 0.000757044 -0.000970162
-0.00375021 -0.00033821 -0.000746973
-0.000111228 -0.000488889 -0.000306635
-0.00216049 0.00140249 -0.00112968
-0.00471038 -0.000624214 0.000205898
-0.000844014 -0.000642145 -0.000465194
-0.00490015 0.000383774 0.000298562
-0.00059803 -0.000808875 -0.000211743
-0.00135576 -0.00100599 -0.000840003
-9.67937e-05 7.13493e-05 -0.000507302
-0.00409869 0.000807901 0.000485436
-9.46679e-05 -0.000378369 0.000256145
-0.00358009 0.00104964 -0.00118525
-0.00372451 0.000915935 0.000342317
-0.00124261 -0.0012516 0.000329662
-0.00424095 0.000759019 0.00103319
-0.00314507 0.00128852 0.00124789
-0.00132252 0.0010469 -0.000831183
-0.00035734 -0.000234637 -0.000808981
-0.000753501 0.000736438 0.000994554
-0.000764266 0.000167736 -0.000882985
-9.86415e-05 0.000367758 -0.000253406
-0.000107326 -0.00047717 0.00030105
-0.00491288 -0.000200245 -0.000124317
-0.00050915 0.000706976 -0.000815411
-0.000110541 0.000473771 -0.000296671
-9.29635e-05 0.000137971 0.000406992
-0.000925563 0.00074768 0.000947927
-0.000319393 0.000475741 -0.000602561
-9.19422e-05 0.000357864 0.000256233
-8.91875e-05 -5.27299e-05 -0.000416361
-9.58897e-05 -8.63719e-06 -0.000516077
-0.000100831 6.49561e-05 0.000537792
-0.00214569 -0.00133002 -0.00113632
-0.000508188 0.000690544 0.000823542
-0.00403088 0.000454777 0.00115356
-0.000102222 0.000427898 -0.000126395
-0.000105689 0.000540217 -9.99985e-05
-0.00448184 8.47091e-05 0.000916449
-0.00010634 -0.000546839 -0.000104784
-0.000815408 0.000855144 0.000154511
-0.000318774 0.000174494 0.000829281
-0.00032547 -0.000820667 -7.01805e-05
-0.000350017 -0.000245323 0.000809515
-0.000519397 0.000842856 0.000397501
-9.90611e-05 0.000509615 0.000132784
-9.22043e-05 0.000399992 0.000151286
-0.00092316 -0.00111401 -0.000140893
-0.000313393 0.00019258 -0.000797686
-0.000314535 0.000466845 0.000616889
-0.000105236 0.000459629 0.000295581
-0.000338453 -0.000473317 0.000613457
-0.000510067 -0.000700336 0.000833032
-0.00369906 0.000716217 0.00108668
-0.00490427 0.000369064 0.000180689
-0.000217728 0.000401503 0.000232936
-0.00465803 0.00048041 0.000674851
-0.000774437 -0.000736283 -0.000993052
-0.00314208 -0.00127096 0.00125855
-0.000561403 -0.000109199 0.000827287
-0.00448167 0.000141026 -0.000662235
-9.31708e-05 -6.73839e-05 0.000428223
-0.0049065 -5.80849e-05 -0.000557731
-0.000498488 -8.40475e-05 -0.000874269
-0.00131633 0.00121425 -0.000502352
-0.000969607 -0.0004331 0.00110831
-0.000102647 -0.000432693 -0.000130035
-0.00490567 -0.000439286 0.000173651
-0.00489158 0.000527509 -0.000146839
-0.00409129 0.000802875 -0.000631058
-0.000322607 -0.00080124 0.000113078
-0.00188978 -0.0012604 0.00127181
-9.30414e-05 -0.000398547 0.000150497
-0.00146298 -0.00099568 0.00121122
-0.00126912 -0.000334285 0.00125265
-0.000972815 -0.000729679 0.000929395
-0.00437462 0.000829812 -0.000412345
-0.00489058 0.000490422 0.000328882
-0.00358496 -0.000700704 -0.00127653
-9.94061e-05 -2.15348e-05 0.000537869
-0.00188189 0.00129367 0.00129063
-0.000100146 -0.00050691 0.000132426
-0.00310183 -0.00126484 -0.00127671
-0.00374848 0.000733821 -0.000692395
-0.00370483 0.000918275 -0.000328669
-0.00324572 -0.00113299 -0.000779007
-0.000913943 -0.00111577 0.000154425
-0.00164046 -0.00072823 0.00115562
-0.00131768 -0.00101899 0.000868603
-0.00157565 -0.000751036 0.000561938
-0.000823332 -0.000312197 0.000693346
-0.000856594 -0.000452224 0.0008074
-0.00021557 -0.000391277 0.000215708
-0.000820526 -0.000853538 0.000128079
-0.000219215 -0.000467152 0.000303015
-0.000527577 -0.000835249 0.00039772
-0.00370567 0.000347822 0.00130568
-0.0049026 2.43049e-05 0.000549055
-0.00422552 -0.000807428 0.00106659
-0.00449379 -0.000752729 0.000870737
-0.00356058 0.00103778 0.00121045
-0.00465305 0.000248255 0.000835867
-0.00466132 -0.000516388 0.000676721
-0.00489329 -0.000499176 0.000322723
-0.00490495 -0.000393189 0.000289946
-0.00218814 0.0013582 0.00119123
-0.000553226 0.00036508 0.000824569
-0.000831846 0.00062322 0.000820338
-0.00155637 0.000538915 0.000980414
-0.000918078 0.000291934 0.00112348
-0.00123629 0.000164141 0.00124576
-0.000848722 0.000162004 0.000849846
-0.00021571 0.000475844 0.00032191
-0.00288496 0.00133899 0.00116969
-0.0014426 0.00102728 0.00122824
-0.00143134 0.00106782 -0.00117681
-0.00329231 -0.00094779 0.00118287
-0.00285854 -0.000607759 0.00145117
-0.00353687 -0.00105035 0.00124618
-0.00330899 -0.00114709 0.000806133
-0.00289515 -0.000798481 0.00104373
-0.00127678 0.00103506 0.000883699
-0.000899923 0.00111943 0.000161057
-0.00464117 0.000812102 -0.000104558
-0.00249807 0.000355053 0.000350748
-0.00329183 0.00117923 0.000561593
-0.00402501 0.00076475 0.000972543
-0.00290723 0.00102393 0.00121216
-0.0013342 -0.00120042 -0.000529265
-0.00448512 -0.000747943 -0.0008842
-0.000320246 0.000808831 -6.44916e-05
-0.0037494 -0.000356864 0.000955062
-0.00409893 -0.000987535 0.000327737
-0.00411604 -0.000655279 0.000674447
-0.00440067 -0.00040151 0.000880293
-0.00469433 -0.000415401 0.000550216
-0.000586365 0.000806405 -0.000203601
-0.00463968 0.00079418 0.000107314
-0.00288865 0.00121941 0.000804736
-0.00489633 0.000484363 0.000151917
-0.00466914 0.000519174 -0.000695447
-0.00412577 0.000517057 0.000334332
-0.00467251 -0.00016653 -0.000870316
-0.0047106 0.000320002 -0.000659506
-0.00409841 0.000519646 -0.000328594
-0.00425532 0.000777932 -0.00104707
-0.000771486 -0.000730299 0.000999439
-0.00155406 0.000594909 -0.000758723
-0.00489682 0.000408965 -0.000302574
-0.00421334 -0.000798924 -0.00107783
-0.00324423 0.00137197 -0.000544293
-0.00478166 0.000145346 0.000525022
-0.00248391 0.000361003 -0.000353683
-0.00467503 0.000293243 -0.000889679
-0.0049121 8.44063e-05 -0.00049889
-0.00365468 0.00108155 -0.000838853
-0.00250026 -0.000348189 0.000372648
-0.00449671 0.000715177 0.000867112
-0.0048989 0.000417542 -0.000184951
-0.00286031 0.00143719 -0.000774426
-0.00313148 0.0013194 -0.0012186
-0.000826394 -0.000511384 -0.000338947
-0.0046825 0.000530807 -0.000466832
-0.00448123 -0.000607979 0.000146292
-0.00490957 -0.000291736 0.000194507
-0.00283668 0.00140175 -0.00113257
-0.00444885 0.000522864 0.000593325
-0.000933748 0.000773291 -0.000916552
-0.00162808 0.00116293 -0.000732191
-0.00097744 -0.000440108 -0.00111549
-0.000889523 0.000318471 -0.0011368
-0.000816212 0.000688197 -0.000313424
-0.000854517 0.000802642 -0.00045043
-0.000208978 0.000214262 -0.000390426
-0.000212858 0.00030086 -0.00046383
-0.000502465 0.000396464 -0.000833566
-0.000210466 -6.02264e-05 -0.000426338
-0.00411879 0.000502379 -0.000982846
-0.00491488 0.00010891 -0.000372821
-0.00470513 -0.0006095 -0.000100112
-0.00287077 -0.001332 0.00116922
-0.00121819 0.000174945 -0.00127816
-0.00377094 0.000375773 -0.0010867
-0.00246969 -0.000358794 -0.0003539
-0.00413263 -0.000665965 -0.000315018
-0.000999582 -0.000730862 -0.000914589
-0.00279508 -0.0013332 -0.00116696
-0.00491141 5.08017e-05 -0.000309397
-0.00490148 -0.000142856 -0.000422539
-0.00291177 0.00105414 -0.000756314
-0.00490192 -0.000394289 -0.000292741
-0.00323038 -0.000937544 -0.00115308
-0.00122733 0.00125864 0.000343833
-0.00163057 -0.000958204 -0.000748568
-0.00439012 -0.000386057 -0.000893208
-0.00489647 -0.00053825 -0.000139983
-0.00359539 -0.000717646 0.00129711
-0.0049045 -0.000415878 -0.000167499
-0.00443184 -0.000574383 -0.000412461
-0.00471846 -0.000204351 -0.00046861
-0.00489787 -0.000555105 0.000141462
-0.00166707 -0.000756455 -0.00111702
-0.0036519 -0.00106854 -0.000537254
-0.00287179 -0.000804476 -0.00100316
-0.00285786 -0.000609874 -0.00139632
-0.00491321 -0.000289926 3.58473e-05
-0.00466367 -0.000867838 -8.75645e-05
-0.00467041 -0.000879038 0.000105477
-0.00467807 -0.000407156 -0.000563279
-0.00490858 3.31339e-05 -0.000582355
-0.00490662 -0.000260633 -0.000189316
-0.00465129 -0.000509276 -0.000691443
-0.00489075 -0.000501664 -0.000326416

CELL_DATA 236
TENSORS stress float
-2017.72 -224.325 235.316
-224.325 -455.143 77.0513
235.316 77.0513 -128.456

-1745.66 -15.8816 54.1736
-15.8816 -54.7273 73.4997
54.1736 73.4997 3.22322

-2086.54 -578.396 503.235
-578.396 -1110.27 29.5586
503.235 29.5586 -1206.97

-2032.68 24.2936 -120.677
24.2936 -436.405 35.7131
-120.677 35.7131 -482.049

-1943.12 -494.026 -382.041
-494.026 -1069.71 15.6201
-382.041 15.6201 -1186.51

-2002.54 214.297 -508.526
214.297 -1284.79 5.49856
-508.526 5.49856 -1220.33

-2374.49 -75.4684 -248.16
-75.4684 -1459.75 -42.3362
-248.16 -42.3362 -1506.73

-1637.7 45.81 -5.36441
45.81 -116.348 7.92281
-5.36441 7.92281 -154.232

-2162.96 75.1954 142.821
75.1954 -507.993 -32.4198
142.821 -32.4198 -591.753

-2682.13 -121.09 -223.861
-121.09 -1754.09 -4.48274
-223.861 -4.48274 -1677.31

-1489.47 -10.6146 -31.3717
-10.6146 80.1285 25.2206
-31.3717 25.2206 45.3443

-1906.34 -120.505 -543.668
-120.505 -1327.03 -16.9463
-543.668 -16.9463 -1131.35

-1630.07 104.8 -332.245
104.8 -460.078 38.5101
-332.245 38.5101 -235.109

-2039.09 -214.676 -213.541
-214.676 -447.431 -59.7763
-213.541 -59.7763 -138.989

-1745.45 -20.0109 -26.4491
-20.0109 -35.1275 -38.9428
-26.4491 -38.9428 -150.664

-1607.54 14.3901 -21.1134
14.3901 141.701 -41.3627
-21.1134 -41.3627 78.28

-1496.55 -1.63301 -21.7627
-1.63301 50.7784 -18.5612
-21.7627 -18.5612 26.993

-1685.46 288.384 38.6286
288.384 -407.263 17.2443
38.6286 17.2443 -579.597

-2178.4 86.8913 44.9347
86.8913 -202.32 -20.1076
44.9347 -20.1076 -184.541

-1912.47 -243.339 -328.655
-243.339 -578.508 -22.7984
-328.655 -22.7984 -595.662

-1609.94 -50.7024 13.5718
-50.7024 128.072 -11.1405
13.5718 -11.1405 73.4812

-1834.64 207.915 -480.746
207.915 -1222.52 15.6973
-480.746 15.6973 -1122.29

-1912.05 54.9521 -639.624
54.9521 -1279.69 -19.1605
-639.624 -19.1605 -978.38

-1706.71 101.889 -66.0638
101.889 -234.085 -2.78569
-66.0638 -2.78569 -81.7065

-2004.3 15.8756 60.0771
15.8756 -182.84 -23.2808
60.0771 -23.2808 -212.422

-2096.88 -558.712 -457.858
-558.712 -1121.01 -14.9813
-457.858 -14.9813 -1229.82

-1651.17 29.319 -52.6099
29.319 1.44608 69.1872
-52.6099 69.1872 49.2425

-2041.52 258.456 -86.4714
258.456 -931.131 24.5921
-86.4714 24.5921 -926.597

-1885.35 -93.5048 -64.796
-93.5048 -351.391 -69.6839
-64.796 -69.6839 -425.236

-1947.49 -501.271 -441.399
-501.271 -1093.67 12.1046
-441.399 12.1046 -1232.83

-1912.95 -202.541 -78.8834
-202.541 -425.357 -37.5393
-78.8834 -37.5393 -579.002

-1688.1 -85.9669 -81.4586
-85.9669 -47.4119 -15.0625
-81.4586 -15.0625 -40.2285

-1789.46 86.9787 -606.748
86.9787 -1172.84 -19.5162
-606.748 -19.5162 -885.253

-2025.1 -131.302 -69.3478
-131.302 -295.058 -29.3907
-69.3478 -29.3907 -345.613

-1813.32 -488.29 382.324
-488.29 -984.779 -20.9781
382.324 -20.9781 -1115.62

-1632.36 -3.43028 0.257288
-3.43028 139.806 41.2745
0.257288 41.2745 75.76

-1952.29 -92.1899 -27.9684
-92.1899 -144.937 -19.9391
-27.9684 -19.9391 -168.714

-1563.82 6.27787 16.9331
6.27787 -4.53687 -3.5757
16.9331 -3.5757 129.359

-1728.22 -117.106 -50.4224
-117.106 -183.478 -26.8374
-50.4224 -26.8374 -87.2166

-1459.32 14.8605 -35.1897
14.8605 58.7313 -44.6107
-35.1897 -44.6107 48.6926

-1702.04 43.5407 -85.8697
43.5407 -29.0646 16.2171
-85.8697 16.2171 -19.3373

-1804.63 -140.99 -282.817
-140.99 -511.539 -62.2564
-282.817 -62.2564 -463.309

-1724.81 91.3744 68.5648
91.3744 -225.389 -7.69902
68.5648 -7.69902 -76.2429

-2018.88 22.7153 -154.111
22.7153 -490.084 33.1029
-154.111 33.1029 -525.214

-1860.07 478.042 -376.1
478.042 -989.024 -7.11054
-376.1 -7.11054 -1112.23

-2061.89 -550.442 452.29
-550.442 -1106.85 14.6416
452.29 14.6416 -1220.72

-1856.02 249.632 161.76
249.632 -1183.78 -30.2415
161.76 -30.2415 -1209.76

-2038.65 215.775 -205.265
215.775 -442.87 50.5003
-205.265 50.5003 -148.221

-2089.78 549.059 -444.528
549.059 -1103.65 12.9707
-444.528 12.9707 -1230.51

-2046.63 192.732 500.292
192.732 -1410.89 -14.8239
500.292 -14.8239 -1291.73

-1739.35 98.3318 98.2788
98.3318 -140.414 -26.0553
98.2788 -26.0553 -129.302

-1725.72 222.842 -329.429
222.842 -509.335 14.9839
-329.429 14.9839 -498.173

-1727.61 472.855 383.663
472.855 -910.706 11.9682
383.663 11.9682 -1040.74

-1822.51 -95.1736 -520.6
-95.1736 -1216.23 -4.45372
-520.6 -4.45372 -1058.83

-1750.58 -16.8514 -623.886
-16.8514 -1151.71 22.944
-623.886 22.944 -863.536

-1893.25 75.214 630.316
75.214 -1258.04 21.1397
630.316 21.1397 -960.903

-1558.95 -28.3372 -38.8126
-28.3372 9.59242 -53.2559
-38.8126 -53.2559 46.5066

-2044.62 214.279 209.8
214.279 -453.751 -54.5717
209.8 -54.5717 -135.807

-1753.71 -94.5995 -62.0633
-94.5995 -161.235 -27.0727
-62.0633 -27.0727 -134.729

-2074.97 520.236 -172.943
520.236 -1213.2 0.197712
-172.943 0.197712 -1390.63

-1904.95 617.664 -129.532
617.664 -984.211 -61.6272
-129.532 -61.6272 -1213.3

-1843.02 -39.5486 -161.45
-39.5486 -663.867 49.3082
-161.45 49.3082 -576.26

-1933.63 -624.563 -137.226
-624.563 -1003.2 61.6943
-137.226 61.6943 -1239.51

-2053.64 159.661 73.7557
159.661 -551.285 8.59563
73.7557 8.59563 -486.236

-1678.4 128.971 275.208
128.971 -613.458 -40.6932
275.208 -40.6932 -348.987

-1739.38 -283.195 -23.4486
-283.195 -426.499 30.0154
-23.4486 30.0154 -609.64

-1820.6 -149.973 279.512
-149.973 -571.916 67.3264
279.512 67.3264 -472.609

-1803.37 127.204 144.568
127.204 -636.315 -100.075
144.568 -100.075 -633.797

-1804.15 602.868 176.254
602.868 -916.74 52.3952
176.254 52.3952 -1159.61

-1760.79 510.621 217.917
510.621 -985.777 -6.26891
217.917 -6.26891 -1145.68

-1679.97 -51.3164 -24.5339
-51.3164 -127.085 -12.9733
-24.5339 -12.9733 -159.879

-1601.1 140.135 -274.592
140.135 -548.53 44.0645
-274.592 44.0645 -316.835

-1743.95 221.193 331.116
221.193 -519.169 -38.2974
331.116 -38.2974 -532.66

-2040.11 538.302 445.401
538.302 -1089.34 -13.3626
445.401 -13.3626 -1213.45

-1879.87 -236.457 317.634
-236.457 -580.06 21.9639
317.634 21.9639 -602.943

-2052.56 -212.558 212.575
-212.558 -457.541 59.9943
212.575 59.9943 -136.23

-2056.08 -126.024 -116.21
-126.024 -303.102 -100.848
-116.21 -100.848 -264.294

-1922.63 -488.906 -258.519
-488.906 -1053.36 -4.58176
-258.519 -4.58176 -1203.2

-2548.14 202.664 156.853
202.664 -1572.63 -11.0912
156.853 -11.0912 -1602.86

-1900.17 -252.632 -331.342
-252.632 -584.465 -8.21453
-331.342 -8.21453 -653.109

-1750.32 -102.492 -63.6144
-102.492 -209.57 -6.64689
-63.6144 -6.64689 -90.4256

-1454.64 -25.775 -25.3211
-25.775 77.4073 30.6305
-25.3211 30.6305 55.377

-1818.98 -77.1993 194.216
-77.1993 -586.371 54.4379
194.216 54.4379 -454.806

-2231.86 -67.5452 105.581
-67.5452 -955.843 -7.94795
105.581 -7.94795 -849.043

-2013.01 -114.564 514.609
-114.564 -1379.2 17.2987
514.609 17.2987 -1201.81

-1867.78 51.3618 683.451
51.3618 -1258.87 5.42757
683.451 5.42757 -998.341

-1701.39 -54.4662 -126.513
-54.4662 -574.487 -35.243
-126.513 -35.243 -576.286

-1706.75 32.4082 -32.966
32.4082 -130.465 31.2414
-32.966 31.2414 -96.7525

-1759.3 -76.1137 58.5161
-76.1137 -215.494 28.7575
58.5161 28.7575 -159.245

-2099.31 -525.472 -179.275
-525.472 -1229.83 3.91046
-179.275 3.91046 -1406.8

-1893.07 569.564 -250.61
569.564 -1103.2 43.7034
-250.61 43.7034 -1218.46

-1984.38 -616.284 185.192
-616.284 -1013.84 -52.7888
185.192 -52.7888 -1264.96

-1793.22 -135.179 94.6315
-135.179 -153.51 11.2642
94.6315 11.2642 -184.626

-1708.52 -288.217 39.1587
-288.217 -412.172 -8.04713
39.1587 -8.04713 -586.011

-1510.31 0.341114 27.1474
0.341114 72.8769 24.7308
27.1474 24.7308 27.7271

-1749.79 -508.533 218.994
-508.533 -966.801 -4.34224
218.994 -4.34224 -1128.59

-1632.8 -38.1656 -7.74241
-38.1656 139.438 13.1018
-7.74241 13.1018 70.6161

-1703.14 -29.1409 46.1743
-29.1409 -71.9077 16.5114
46.1743 16.5114 -134.107

-1739.4 -120.22 102.3
-120.22 -107.589 -12.3262
102.3 -12.3262 -68.6152

-1942.15 -138.377 82.1361
-138.377 -361.913 31.8768
82.1361 31.8768 -460.649

-2062.4 -565.705 -484.444
-565.705 -1108.63 -29.726
-484.444 -29.726 -1214.48

-1722.82 44.4864 -9.70043
44.4864 28.3502 -24.4823
-9.70043 -24.4823 44.7299

-1840.07 -33.1387 634.868
-33.1387 -1226.52 -11.9264
634.868 -11.9264 -929.762

-1496.7 -14.802 34.2832
-14.802 80.8794 -30.2996
34.2832 -30.2996 38.2158

-1812.73 -600.897 175.569
-600.897 -913.115 -53.957
175.569 -53.957 -1163.15

-1475.07 -23.875 34.164
-23.875 76.0868 -22.431
34.164 -22.431 53.9732

-2057.83 -120.115 99.1059
-120.115 -260.617 24.525
99.1059 24.525 -248.473

-1939.41 -96.9464 16.0841
-96.9464 -152.063 26.3299
16.0841 26.3299 -176.381

-1822.22 51.7966 44.0336
51.7966 1.65396 -22.5144
44.0336 -22.5144 55.4235

-1643.48 -53.2575 7.32171
-53.2575 -102.173 -4.74267
7.32171 -4.74267 -121.457

-2030.96 -20.1059 60.51
-20.1059 -211.186 30.0507
60.51 30.0507 -273.162

-1766.28 -25.5312 -3.0835
-25.5312 -83.5422 62.676
-3.0835 62.676 -81.4767

-2167.23 -77.4427 55.3302
-77.4427 -157.325 31.2527
55.3302 31.2527 -149.347

-2138.41 -65.7544 153.854
-65.7544 -537.122 44.9649
153.854 44.9649 -611.43

-1782.46 -76.9687 89.6656
-76.9687 -365.11 99.8858
89.6656 99.8858 -306.817

-2456.41 -202.793 144.144
-202.793 -1496.55 23.6511
144.144 23.6511 -1516.32

-1978.74 -151.026 82.099
-151.026 -496.324 -15.0245
82.099 -15.0245 -399.327

-2291.02 -249.707 131.811
-249.707 -1430.79 33.8031
131.811 33.8031 -1405.67

-1729.8 -122.82 125.892
-122.82 -525.484 94.5144
125.892 94.5144 -536.706

-1743.24 -40.0425 -12.4269
-40.0425 56.0297 -38.7236
-12.4269 -38.7236 -60.213

-1845.06 -43.9411 -665.966
-43.9411 -1242.76 21.8818
-665.966 21.8818 -951.38

-1791.77 136.792 -85.8096
136.792 -227.19 32.991
-85.8096 32.991 -109.599

-2024.47 257.181 -225.93
257.181 -470.996 72.8809
-225.93 72.8809 -114.765

-1562.29 -37.3698 9.58446
-37.3698 177.088 -59.4262
9.58446 -59.4262 103.512

-1814.72 -162.414 -297.477
-162.414 -566.669 -63.8965
-297.477 -63.8965 -481.137

-1876.17 253.856 -345.61
253.856 -577.025 10.1041
-345.61 10.1041 -612.586

-2068.74 587.254 -477.974
587.254 -1129.13 17.1684
-477.974 17.1684 -1235.48

-1860.16 522.817 -430.44
522.817 -1031.75 -9.35869
-430.44 -9.35869 -1149.69

-1816.87 6.09265 53.1255
6.09265 -92.7646 -69.3547
53.1255 -69.3547 -37.6162

-1850.19 135.185 200.155
135.185 -592.558 -58.9481
200.155 -58.9481 -471.344

-1869.68 103.439 115.341
103.439 -412.496 -70.583
115.341 -70.583 -382.48

-2142.71 47.8752 63.7368
47.8752 -222.785 -15.706
63.7368 -15.706 -141.014

-1604.95 66.2319 37.4175
66.2319 -69.4948 -1.2012
37.4175 -1.2012 -38.814

-1538.9 11.7109 41.4679
11.7109 72.8024 -12.5801
41.4679 -12.5801 -17.8292

-1853.72 45.7108 180.894
45.7108 -322.592 -31.4288
180.894 -31.4288 -427.174

-2250.44 257.281 161.899
257.281 -1397.72 -36.0772
161.899 -36.0772 -1371.49

-1475.09 -0.975733 -12.0381
-0.975733 111.467 -57.2516
-12.0381 -57.2516 159.849

-1649.76 19.2528 -0.762425
19.2528 134.08 -13.6643
-0.762425 -13.6643 64.9453

-1642.96 37.4625 9.40092
37.4625 133.502 18.1694
9.40092 18.1694 75.0412

-1638.23 34.1922 9.83156
34.1922 108.886 60.5363
9.83156 60.5363 107.8

-1646.18 36.4889 -40.306
36.4889 379.822 -19.8308
-40.306 -19.8308 346.484

-1554.01 24.8515 35.8883
24.8515 154.315 50.7941
35.8883 50.7941 83.391

-1748.22 84.2915 -78.9167
84.2915 35.9441 66.151
-78.9167 66.151 84.7155

-2038.64 48.8045 -10.3431
48.8045 51.2685 6.01657
-10.3431 6.01657 40.5209

-1663.42 -25.0549 -20.6538
-25.0549 21.4849 -74.6056
-20.6538 -74.6056 -1.75346

-1622.33 56.208 15.0303
56.208 -109.176 5.45681
15.0303 5.45681 -134.227

-1860.1 -314.171 40.3539
-314.171 -429.326 -15.4144
40.3539 -15.4144 -591.253

-2197.02 20.2314 0.111823
20.2314 -264.619 38.4608
0.111823 38.4608 -264.343

-1920.32 -2.85794 -52.8968
-2.85794 -0.400618 17.796
-52.8968 17.796 62.0535

-1741.82 -141.012 -124.071
-141.012 -82.1285 -13.165
-124.071 -13.165 -116.256

-1580.93 -75.4434 -127.761
-75.4434 307.3 -27.8794
-127.761 -27.8794 435.459

-1715.3 -47.1779 -48.4821
-47.1779 -112.744 -46.0621
-48.4821 -46.0621 -93.2155

-2055.44 253.593 231.837
253.593 -474.481 -78.3425
231.837 -78.3425 -111.333

-1709.66 279.652 -17.3789
279.652 -412.281 -25.7449
-17.3789 -25.7449 -598.767

-1902.8 -40.0031 -41.7468
-40.0031 -158.717 19.4217
-41.7468 19.4217 -118.672

-1829.39 58.9794 -45.5141
58.9794 -212.712 22.6437
-45.5141 22.6437 -223.095

-1938.62 90.0393 -126.678
90.0393 -308.422 22.0364
-126.678 22.0364 -254.759

-1989.46 133.256 -193.073
133.256 -544.451 39.2674
-193.073 39.2674 -414.768

-1840.15 221.233 -278.573
221.233 -686.417 12.9618
-278.573 12.9618 -626.289

-1868.96 199.59 -72.8419
199.59 -434.677 45.5882
-72.8419 45.5882 -554.652

-1919.81 -353.562 -37.8923
-353.562 -476.975 -3.1347
-37.8923 -3.1347 -653.181

-1808.73 -79.5592 -74.2463
-79.5592 103.156 -19.8456
-74.2463 -19.8456 191.314

-1965.57 -585.985 -192.562
-585.985 -997.442 51.0204
-192.562 51.0204 -1271.29

-1878.07 -244.678 350.299
-244.678 -651.714 50.1487
350.299 50.1487 -655.171

-2160.81 -112.086 -72.1442
-112.086 -584.388 -46.2387
-72.1442 -46.2387 -480.245

-1609.42 88.9543 340.452
88.9543 -496.204 -62.5415
340.452 -62.5415 -246.386

-1873.84 -182.988 234.96
-182.988 -778.378 72.2996
234.96 72.2996 -755.818

-2127.06 -107.536 60.3598
-107.536 -560.928 48.2219
60.3598 48.2219 -474.491

-1657.87 -77.5987 51.6926
-77.5987 -166.521 31.0374
51.6926 31.0374 -67.6494

-1757.88 -94.6616 60.6546
-94.6616 -213.917 6.30072
60.6546 6.30072 -83.567

-2189.77 52.9831 -56.3634
52.9831 -148.553 9.92794
-56.3634 9.92794 -125.961

-1932.55 -517.639 444.632
-517.639 -1066.63 -3.85308
444.632 -3.85308 -1196.13

-1806.51 126.768 85.0624
126.768 -212.884 -40.1815
85.0624 -40.1815 -100.895

-1842.29 9.71208 50.7288
9.71208 -36.5206 11.2633
50.7288 11.2633 23.9801

-2396.28 -103.25 -265.969
-103.25 -1455.57 -36.6575
-265.969 -36.6575 -1499.39

-2200.32 11.8749 -8.77366
11.8749 -249.606 -41.7586
-8.77366 -41.7586 -270.179

-1777.53 -194.465 355.033
-194.465 -576.087 87.3054
355.033 87.3054 -559.452

-1967.94 -149.261 623.705
-149.261 -1338.71 20.5479
623.705 20.5479 -1253.77

-1677.57 -8.67566 50.9461
-8.67566 78.6496 42.3465
50.9461 42.3465 84.064

-2190.36 -11.6073 11.9146
-11.6073 -252.179 -44.315
11.9146 -44.315 -233.12

-2017.85 -228.992 -220.865
-228.992 -451.218 -74.2203
-220.865 -74.2203 -124.731

-1955.4 -524.2 265.126
-524.2 -1095.7 11.0872
265.126 11.0872 -1250.96

-1574.38 -71.1174 68.0501
-71.1174 303.719 12.0714
68.0501 12.0714 356.409

-1491.82 19.0602 48.8598
19.0602 80.5212 34.2263
48.8598 34.2263 47.4208

-2084.78 -138.582 -75.0946
-138.582 -554.041 -53.0509
-75.0946 -53.0509 -468.387

-1904.84 -266.444 222.912
-266.444 -695.338 43.5387
222.912 43.5387 -731.202

-2157.38 101.734 -93.8118
101.734 -787.179 13.1701
-93.8118 13.1701 -857.285

-1886.51 360.46 -251.631
360.46 -1206.14 39.7466
-251.631 39.7466 -1227.67

-1598.41 -31.6335 57.1594
-31.6335 11.9425 78.483
57.1594 78.483 62.669

-1870.05 -173.045 -125.695
-173.045 -479.349 -62.155
-125.695 -62.155 -535.213

-1774.01 95.8253 -117.446
95.8253 -188.822 29.3186
-117.446 29.3186 -127.586

-1975.58 60.6452 -29.42
60.6452 -243.488 30.1786
-29.42 30.1786 -169.553

-1758.37 -74.8364 -51.7687
-74.8364 -207.084 -45.2965
-51.7687 -45.2965 -160.836

-1535.3 75.1394 -16.6126
75.1394 11.4819 13.9241
-16.6126 13.9241 -23.5082

-2122.95 154.083 -62.4047
154.083 -628.636 38.2005
-62.4047 38.2005 -524.957

-1711.67 87.7148 -90.1115
87.7148 -256.994 103.305
-90.1115 103.305 -296.365

-2344.23 141.492 -210.71
141.492 -1436.04 17.6941
-210.71 17.6941 -1401.89

-2185.07 134.176 -260.232
134.176 -1314.91 40.04
-260.232 40.04 -1338.89

-1609.02 133.653 -161.898
133.653 -429.13 104.443
-161.898 104.443 -417.473

-2539.61 -89.4619 -228.007
-89.4619 -1645.14 -19.8255
-228.007 -19.8255 -1581.68

-1845.41 -97.6708 68.882
-97.6708 -273.97 48.1709
68.882 48.1709 -263.21

-2137.56 -177.735 458.439
-177.735 -1519.22 -0.474593
458.439 -0.474593 -1504.63

-1871.42 245.24 21.374
245.24 -695.872 -46.9058
21.374 -46.9058 -808.699

-1479.3 35.8891 -2.8394
35.8891 90.3828 78.1437
-2.8394 78.1437 149.414

-1485.63 -20.3086 1.73696
-20.3086 183.537 -3.50447
1.73696 -3.50447 64.2047

-1836.93 -58.5928 76.1682
-58.5928 -16.1569 43.4461
76.1682 43.4461 -135.589

-2196.95 -4.64599 -17.3372
-4.64599 -236.534 44.0619
-17.3372 44.0619 -230.7

-2010.61 70.7634 40.3818
70.7634 -386.223 -27.1525
40.3818 -27.1525 -357.196

-1760.17 -138.56 -125.173
-138.56 -124.91 10.9485
-125.173 10.9485 -57.0447

-1606.05 37.0146 42.5597
37.0146 7.99581 -59.7228
42.5597 -59.7228 51.1348

-2523.52 -108.23 348.942
-108.23 -1934.39 -23.3943
348.942 -23.3943 -1885.33

-2066.08 204.278 529.913
204.278 -1341.26 -13.7877
529.913 -13.7877 -1263.21

-2039.8 -45.1533 79.2415
-45.1533 94.0858 -21.5204
79.2415 -21.5204 139.944

-1919.99 524.515 437.138
524.515 -1066.78 8.15823
437.138 8.15823 -1182.99

-1760.31 27.8038 31.1708
27.8038 37.7805 -26.157
31.1708 -26.157 53.3631

-1581.6 -1.10984 30.1569
-1.10984 -27.5886 -11.4423
30.1569 -11.4423 83.75

-1943.05 -48.9351 -19.9477
-48.9351 -174.395 -38.962
-19.9477 -38.962 -122.36

-1979.21 106.637 187.844
106.637 -527.197 -45.3019
187.844 -45.3019 -381.518

-1917.49 652.624 175.53
652.624 -993.676 39.1209
175.53 39.1209 -1219.82

-1618.32 57.9176 30.8114
57.9176 107.946 35.8621
30.8114 35.8621 109.033

-1870.31 551.614 243.019
551.614 -1049.17 -26.284
243.019 -26.284 -1172.67

-1972.49 129.75 93.4388
129.75 -551.003 -53.727
93.4388 -53.727 -531.674

-1891.65 94.9014 244.535
94.9014 -810.311 -56.2668
244.535 -56.2668 -763.788

-1900.38 662.773 -183.846
662.773 -996.368 -40.0631
-183.846 -40.0631 -1220.02

-1902.13 -45.0948 -80.5717
-45.0948 -132.417 -51.1013
-80.5717 -51.1013 -141.224

-1896.54 33.0194 29.3537
33.0194 -55.3406 -7.62106
29.3537 -7.62106 -42.0651

-1938.52 23.7785 14.2853
23.7785 79.2893 -0.558012
14.2853 -0.558012 96.0664

-1743.67 33.3207 88.1264
33.3207 226.146 9.19534
88.1264 9.19534 177.102

-2298.26 318.001 -73.9865
318.001 -1684.39 -13.4989
-73.9865 -13.4989 -1711.82

-1718.64 352.135 4.18748
352.135 -444.686 14.9958
4.18748 14.9958 -543.643

-1698.08 334.347 -31.7943
334.347 -442.651 -36.9921
-31.7943 -36.9921 -567.797

-1880.34 217.492 287.224
217.492 -691.264 -19.4537
287.224 -19.4537 -614.815

-1722.59 -53.2925 713.297
-53.2925 -1149.35 -34.2646
713.297 -34.2646 -925.526

-1919.85 322.056 243.868
322.056 -1175.55 -10.2036
243.868 -10.2036 -1203.08

-1928.48 250.794 355.792
250.794 -590.789 -23.1378
355.792 -23.1378 -635.423

-2100.97 586.7 484.618
586.7 -1145.58 -21.772
484.618 -21.772 -1244.34

