# vtk DataFile Version 3.0
vtk output at time 1
ASCII
DATASET UNSTRUCTURED_GRID
POINTS 1331 float
0 0 0 0 0 0.05 0 0 0.1 
0 0 0.15 0 0 0.2 0 0.05 0 
0 0.05 0.05 0 0.05 0.1 0 0.05 0.15 
0 0.05 0.2 0 0.1 0 0 0.1 0.05 
0 0.1 0.1 0 0.1 0.15 0 0.1 0.2 
0 0.15 0 0 0.15 0.05 0 0.15 0.1 
0 0.15 0.15 0 0.15 0.2 0 0.2 0 
0 0.2 0.05 0 0.2 0.1 0 0.2 0.15 
0 0.2 0.2 0.0333997 -0.00934576 -0.00961163 0.0373141 -0.00926151 0.0451855 
0.0395487 -0.00974655 0.100105 0.0380412 -0.00952928 0.154723 0.0331338 -0.00958303 0.209536 
0.03804 0.0456509 -0.0098512 0.0381553 0.0453932 0.209806 0.0391741 0.100443 -0.00946457 
0.038732 0.100099 0.20943 0.0392992 0.15491 -0.00962041 0.0390176 0.154721 0.209873 
0.0333509 0.209648 -0.00928313 0.0374474 0.209302 0.0454769 0.0397923 0.209629 0.100231 
0.0382731 0.20947 0.154736 0.0331804 0.209627 0.209492 0.0748727 -0.012502 -0.012077 
0.0754398 -0.0138892 0.0428924 0.0760981 -0.0141223 0.0997432 0.0740674 -0.0140985 0.156834 
0.0746954 -0.0126907 0.212466 0.0745806 0.0426951 -0.0132659 0.0744066 0.0427977 0.213902 
0.0757754 0.0999165 -0.0140832 0.0763208 0.0999706 0.214343 0.0748828 0.157606 -0.014374 
0.0751195 0.157216 0.214406 0.0750441 0.213306 -0.0120294 0.075004 0.214207 0.0433488 
0.0768142 0.214228 0.100201 0.0744444 0.213897 0.15709 0.0750009 0.212816 0.212732 
0.116971 -0.0105706 -0.0101663 0.112658 -0.010604 0.0449829 0.110337 -0.0101967 0.100289 
0.112247 -0.0102597 0.154979 0.116692 -0.0106324 0.209913 0.112421 0.0450615 -0.0113564 
0.112454 0.0448457 0.211235 0.110206 0.10019 -0.0107832 0.110895 0.0998988 0.210654 
0.110914 0.155001 -0.0106081 0.111692 0.154612 0.210278 0.116655 0.209804 -0.0100167 
0.113617 0.209949 0.0451702 0.111382 0.210359 0.10015 0.112988 0.210299 0.154948 
0.116857 0.209672 0.209986 0.15 0 0 0.15 0 0.05 
0.15 0 0.1 0.15 0 0.15 0.15 0 0.2 
0.15 0.05 0 0.15 0.05 0.05 0.15 0.05 0.1 
0.15 0.05 0.15 0.15 0.05 0.2 0.15 0.1 0 
0.15 0.1 0.05 0.15 0.1 0.1 0.15 0.1 0.15 
0.15 0.1 0.2 0.15 0.15 0 0.15 0.15 0.05 
0.15 0.15 0.1 0.15 0.15 0.15 0.15 0.15 0.2 
0.15 0.2 0 0.15 0.2 0.05 0.15 0.2 0.1 
0.15 0.2 0.15 0.15 0.2 0.2 0 0 0.025 
0 0.025 0 0.0151969 -0.00576216 -0.0079712 0.0194403 -0.00726521 0.0202003 
0 0 0.075 0 0.025 0.025 0 0.025 0.05 
0 0.025 0.075 0.0205247 -0.00730123 0.0467644 0 0 0.125 
0 0.025 0.1 0.0202978 -0.00747925 0.0731507 0.0206604 -0.00709626 0.100164 
0.0205374 -0.00722345 0.127079 0 0 0.175 0 0.025 0.125 
0 0.025 0.15 0 0.025 0.175 0.0207843 -0.0071517 0.153198 
0 0.025 0.2 0.0196183 -0.00727096 0.179603 0.0150924 -0.00585882 0.207809 
0 0.05 0.025 0 0.075 0 0 0.075 0.025 
0.0172316 0.0208319 -0.00738587 0.0207983 0.0197805 0.020227 0.0193224 0.0473738 -0.00680976 
0.0209325 0.0748629 -0.00732444 0 0.05 0.075 0 0.075 0.05 
0.0212096 0.0200186 0.047176 0.0210327 0.0473248 0.0201548 0.0221146 0.0742961 0.0197724 
0.0400305 0.0180044 0.0451357 0.0411684 0.0176108 0.0725351 0.0402283 0.0453949 0.0177764 
0.0419682 0.0728227 0.0172228 0 0.05 0.125 0 0.075 0.075 
0 0.075 0.1 0 0.075 0.125 0.021567 0.0197881 0.0735636 
0.0219769 0.0199303 0.100137 0.0219749 0.0200958 0.126604 0.0415986 0.017409 0.0998145 
0.0423781 0.0172071 0.127762 0.0430254 0.072734 0.0443432 0 0.05 0.175 
0 0.075 0.15 0.0217552 0.0201349 0.152939 0.0212748 0.0471282 0.179789 
0.021907 0.0739688 0.18024 0.041584 0.0175512 0.155038 0.0406365 0.0451638 0.182283 
0.0414362 0.0725231 0.182608 0 0.075 0.175 0 0.075 0.2 
0.021012 0.0197442 0.179683 0.017241 0.0207397 0.207269 0.0195082 0.0471684 0.206797 
0.0208016 0.0745398 0.207414 0 0.1 0.025 0 0.125 0 
0.0209722 0.100594 -0.00708656 0 0.1 0.075 0 0.125 0.025 
0 0.125 0.05 0 0.125 0.075 0.0221098 0.100517 0.0202079 
0.0223117 0.126669 0.0201454 0.0428265 0.100091 0.0171478 0.0427879 0.12797 0.0173666 
0 0.1 0.125 0 0.125 0.1 0.0422045 0.0442779 0.0999022 
0.042989 0.0443721 0.127719 0.0430996 0.100091 0.0442362 0.0421083 0.100004 0.155954 
0.0433774 0.127877 0.0445087 0.0425531 0.127642 0.155628 0.0424043 0.155752 0.100099 
0.0429118 0.1555 0.127872 0.0753569 0.0999784 0.100054 0 0.1 0.175 
0 0.125 0.125 0 0.125 0.15 0 0.125 0.175 
0.0218376 0.100269 0.180108 0.0220527 0.126533 0.180178 0.0425303 0.0445326 0.155108 
0.04169 0.0999146 0.182788 0.041803 0.127645 0.182659 0.0428345 0.155511 0.155204 
0 0.125 0.2 0.0207433 0.100348 0.207381 0 0.15 0.025 
0 0.175 0 0 0.175 0.025 0.0206406 0.126388 -0.00713212 
0.0205543 0.153019 -0.00656183 0.017644 0.179048 -0.00710633 0.0208998 0.180031 0.0203549 
0 0.15 0.075 0 0.175 0.05 0.021895 0.15288 0.0203614 
0.0213111 0.179884 0.0472868 0.0418954 0.155152 0.0177571 0.0407643 0.182265 0.0453331 
0.0415077 0.182432 0.0726955 0 0.15 0.125 0 0.175 0.075 
0 0.175 0.1 0 0.175 0.125 0.0216798 0.180102 0.0736432 
0.0220666 0.179951 0.100178 0.0220116 0.179915 0.126641 0.0427709 0.155167 0.0447006 
0.0419494 0.18255 0.100053 0.042503 0.182775 0.12789 0 0.15 0.175 
0 0.175 0.15 0.0217523 0.152785 0.180006 0.0218027 0.179722 0.152961 
0.0414448 0.154943 0.182611 0.0419519 0.182538 0.155144 0 0.175 0.175 
0 0.175 0.2 0.0203585 0.126242 0.207509 0.02034 0.15292 0.206908 
0.0210985 0.179975 0.179729 0.0174696 0.179013 0.207209 0 0.2 0.025 
0.015394 0.205655 -0.00775789 0.0195391 0.207137 0.0203961 0 0.2 0.075 
0.0205953 0.207209 0.0468756 0 0.2 0.125 0.0204049 0.207339 0.0732758 
0.0207683 0.206975 0.100222 0.0205901 0.20717 0.127116 0 0.2 0.175 
0.0208879 0.206961 0.15327 0.0197539 0.20702 0.179599 0.0152311 0.205624 0.207785 
0.0355172 -0.00936149 0.017442 0.036533 0.018113 -0.0100281 0.0539261 -0.0112965 -0.0106878 
0.0555636 0.0159468 -0.0111933 0.0384971 -0.00952466 0.0726921 0.0389368 0.0180729 0.0174714 
0.0551998 -0.0111181 0.0163083 0.0565651 -0.0114204 0.0437345 0.0572348 -0.0116251 0.0715265 
0.0572835 0.0160668 0.0161351 0.0388222 -0.00952879 0.127412 0.0581058 -0.0118394 0.0998219 
0.0356205 -0.00955798 0.182483 0.0392013 0.017849 0.182515 0.0577222 -0.012011 0.128009 
0.0564206 -0.0117992 0.156095 0.0551875 -0.0114086 0.183908 0.0573417 0.0158625 0.184117 
0.0364836 0.0178669 0.210041 0.0537005 -0.0115365 0.210917 0.0554186 0.015774 0.211432 
0.038677 0.0727889 -0.00964664 0.0564869 0.0438801 -0.0115787 0.0386028 0.0725594 0.209648 
0.0564767 0.0438009 0.211781 0.0393198 0.127515 -0.00956094 0.0576905 0.0717814 -0.0118959 
0.0580776 0.100131 -0.0119779 0.0581023 0.128339 -0.0120336 0.038991 0.127282 0.209769 
0.0576342 0.0717769 0.211964 0.0579196 0.0999168 0.211871 0.0579853 0.128069 0.212042 
0.0371375 0.1824 -0.00976425 0.0396174 0.182316 0.0177798 0.0573738 0.156668 -0.011783 
0.0396342 0.182199 0.182538 0.0368503 0.182223 0.210086 0.0572548 0.156297 0.211975 
0.0356024 0.209515 0.0178014 0.0560019 0.184791 -0.0110772 0.0539625 0.212055 -0.0103251 
0.0387161 0.209449 0.0729367 0.0579532 0.184483 0.016197 0.0553994 0.211707 0.0166233 
0.0565582 0.211732 0.0441707 0.0575585 0.211692 0.0719818 0.0390465 0.209506 0.12747 
0.0585684 0.211828 0.100136 0.0357587 0.209505 0.182465 0.0577806 0.184211 0.184312 
0.0580963 0.211993 0.128197 0.0567787 0.211755 0.156266 0.0554384 0.211459 0.184032 
0.0557395 0.184344 0.211603 0.0538812 0.211648 0.210992 0.0753484 -0.0125242 0.0149264 
0.0749477 0.014697 -0.0126593 0.0960364 -0.0114087 -0.0113174 0.0953127 -0.0113634 0.0157466 
0.0758304 -0.0139811 0.0711379 0.0755184 0.0146246 0.0147632 0.0757593 0.0429813 0.0146602 
0.0940828 -0.0115991 0.0434609 0.0925389 0.0436419 0.0154877 0.0757635 -0.0143454 0.128356 
0.0758199 0.0429998 0.0432894 0.0756896 0.0431208 0.15682 0.0934558 -0.0118264 0.0715623 
0.0926509 -0.0118723 0.100033 0.0932569 -0.0122893 0.12836 0.0916598 0.0436524 0.0435374 
0.0909737 0.043555 0.156803 0.107933 0.0442698 0.100203 0.107932 0.0444285 0.127846 
0.0747432 -0.0127577 0.185178 0.0747943 0.0145426 0.185554 0.075389 0.0430778 0.185657 
0.0928398 -0.0115824 0.15655 0.091853 0.0434796 0.184844 0.0747284 0.0145837 0.213133 
0.0946905 -0.0114518 0.18408 0.0957795 -0.0116393 0.211094 0.0755519 0.07114 -0.0137107 
0.0946913 0.0158103 -0.0116399 0.0937314 0.0159033 0.0156365 0.0939008 0.043515 -0.0119113 
0.0929336 0.0714796 -0.0121842 0.0756798 0.0712411 0.21413 0.0929869 0.0157581 0.184409 
0.0943314 0.015607 0.21156 0.0938285 0.0433004 0.212054 0.0931305 0.0713283 0.212584 
0.0754033 0.128801 -0.014147 0.075899 0.157095 0.0435669 0.0924501 0.0998022 -0.0122507 
0.0912089 0.15666 0.0438349 0.108128 0.100148 0.0439968 0.10823 0.127614 0.0442208 
0.0760252 0.128732 0.214323 0.0757463 0.156822 0.156713 0.0759311 0.157062 0.185605 
0.0927837 0.0995974 0.212823 0.0910374 0.156599 0.156306 0.0917824 0.15656 0.184749 
0.107777 0.0999399 0.156092 0.108066 0.0996326 0.183284 0.107493 0.127335 0.156134 
0.108322 0.127103 0.183351 0.0751611 0.185995 -0.0129217 0.0754554 0.186086 0.0147521 
0.0759067 0.18597 0.0432655 0.0926759 0.128535 -0.0118714 0.0925625 0.156711 -0.0117859 
0.0943656 0.184821 -0.0113093 0.0931035 0.184655 0.016005 0.0920839 0.184808 0.0438761 
0.108701 0.155252 0.044643 0.0748539 0.185358 0.185735 0.0750346 0.185503 0.213456 
0.0930201 0.128046 0.212686 0.0932 0.156306 0.212269 0.0929362 0.184545 0.184488 
0.0944489 0.184416 0.211768 0.109209 0.154832 0.183028 0.0752839 0.213347 0.0151709 
0.0962271 0.212182 -0.0106297 0.0953959 0.211822 0.0163231 0.0761002 0.21421 0.0716182 
0.0939589 0.212134 0.0437146 0.0760954 0.214199 0.128718 0.0938334 0.212443 0.071841 
0.0935274 0.212776 0.100188 0.0933017 0.212158 0.128585 0.108977 0.155791 0.100044 
0.109851 0.182932 0.100084 0.0748768 0.212837 0.185396 0.0929396 0.211614 0.156704 
0.0948391 0.211472 0.184184 0.0961372 0.211715 0.211142 0.114921 -0.0105009 0.016912 
0.114017 0.0170964 -0.0110153 0.135405 -0.00621072 -0.0085749 0.13327 0.0202273 -0.00820199 
0.111337 -0.0104728 0.0726221 0.111767 0.0170798 0.0165887 0.11044 0.0446941 0.0166986 
0.130876 -0.00766115 0.0196677 0.129552 -0.00757455 0.0462799 0.12989 -0.00788518 0.0728008 
0.129554 0.019266 0.0193262 0.12875 0.0195279 0.0462263 0.12854 0.0191786 0.0731555 
0.128386 0.0465401 0.0463514 0.127962 0.0463505 0.0732619 0.111231 -0.0103392 0.127806 
0.1092 0.0446908 0.0445107 0.129611 -0.0075901 0.100066 0.128265 0.0191452 0.100009 
0.127648 0.0458662 0.0999891 0.127735 0.0456734 0.126495 0.114542 -0.0104268 0.182882 
0.111401 0.0170451 0.183291 0.110061 0.0445088 0.183195 0.129958 -0.00803513 0.127225 
0.129409 -0.00749735 0.153617 0.130753 -0.00766834 0.180123 0.128476 0.0190825 0.126776 
0.128584 0.0195858 0.153621 0.129432 0.0192556 0.180472 0.128106 0.0465886 0.153442 
0.113789 0.0169186 0.210828 0.135181 -0.00628083 0.208328 0.133079 0.0201505 0.207956 
0.111297 0.0727098 -0.0110975 0.130434 0.0466849 -0.00770939 0.128827 0.0467003 0.0191078 
0.12847 0.0734442 0.0192862 0.111572 0.0724609 0.210985 0.128671 0.0466209 0.180555 
0.130327 0.0465529 0.207398 0.12829 0.0733525 0.180286 0.110671 0.127935 -0.0105342 
0.129878 0.0738155 -0.00821685 0.129153 0.0997835 -0.00795855 0.128149 0.0999 0.0188296 
0.127835 0.10023 0.0456522 0.12923 0.125729 -0.00820823 0.128266 0.126396 0.0184687 
0.127829 0.126593 0.0451529 0.11151 0.127507 0.210398 0.129747 0.0738076 0.207731 
0.128228 0.100013 0.180312 0.129191 0.0996107 0.20754 0.128004 0.126033 0.180653 
0.129234 0.125322 0.207754 0.113301 0.182471 -0.0104544 0.111296 0.182455 0.0169722 
0.1101 0.18268 0.0447869 0.130547 0.153154 -0.00770927 0.129016 0.15331 0.0189913 
0.128403 0.153332 0.0458341 0.111105 0.182398 0.183068 0.113514 0.182193 0.210554 
0.128651 0.152766 0.180284 0.130469 0.152628 0.207251 0.11514 0.209746 0.0172071 
0.132969 0.179621 -0.00826739 0.135141 0.205996 -0.00872166 0.112222 0.210227 0.0727143 
0.129651 0.180559 0.0192292 0.128891 0.18039 0.0460181 0.128565 0.180202 0.0728264 
0.131083 0.207572 0.0194093 0.129913 0.207746 0.0462089 0.129933 0.207576 0.0726676 
0.112066 0.210588 0.127404 0.129104 0.179948 0.100018 0.129984 0.207173 0.100068 
0.114878 0.209688 0.182917 0.128479 0.179729 0.127046 0.128792 0.179821 0.153932 
0.129326 0.180166 0.180549 0.129728 0.207191 0.12747 0.129503 0.207205 0.15373 
0.130723 0.207194 0.180436 0.132883 0.179109 0.208044 0.13511 0.20562 0.20859 
0.15 0 0.025 0.15 0.025 0 0.15 0 0.075 
0.15 0.025 0.025 0.15 0.025 0.05 0.15 0.025 0.075 
0.15 0 0.125 0.15 0.025 0.1 0.15 0 0.175 
0.15 0.025 0.125 0.15 0.025 0.15 0.15 0.025 0.175 
0.15 0.025 0.2 0.15 0.05 0.025 0.15 0.075 0 
0.15 0.075 0.025 0.15 0.05 0.075 0.15 0.075 0.05 
0.15 0.05 0.125 0.15 0.075 0.075 0.15 0.075 0.1 
0.15 0.075 0.125 0.15 0.05 0.175 0.15 0.075 0.15 
0.15 0.075 0.175 0.15 0.075 0.2 0.15 0.1 0.025 
0.15 0.125 0 0.15 0.1 0.075 0.15 0.125 0.025 
0.15 0.125 0.05 0.15 0.125 0.075 0.15 0.1 0.125 
0.15 0.125 0.1 0.15 0.1 0.175 0.15 0.125 0.125 
0.15 0.125 0.15 0.15 0.125 0.175 0.15 0.125 0.2 
0.15 0.15 0.025 0.15 0.175 0 0.15 0.175 0.025 
0.15 0.15 0.075 0.15 0.175 0.05 0.15 0.15 0.125 
0.15 0.175 0.075 0.15 0.175 0.1 0.15 0.175 0.125 
0.15 0.15 0.175 0.15 0.175 0.15 0.15 0.175 0.175 
0.15 0.175 0.2 0.15 0.2 0.025 0.15 0.2 0.075 
0.15 0.2 0.125 0.15 0.2 0.175 0.126656 0.208473 0.00846285 
0.140272 0.186756 -0.00688095 0.0618015 -0.0121703 0.175099 0.137083 0.206525 0.0300521 
0.15 0.183333 0.0166667 0.136585 0.188028 0.011857 0 0.0333333 0.0333333 
0.15 0.0666667 0.166667 0 0.0666667 0.0666667 0.0518976 0.211008 0.0816055 
0.15 0.116667 0.116667 0.120576 0.0996326 0.154695 0.0482445 0.211124 0.00804747 
0.0618936 0.194551 -0.0113492 0.15 0.133333 0.166667 0.12384 0.0641815 0.209005 
0.135336 0.0652781 0.187839 0.0237848 -0.00806433 0.00923632 0.01017 0.0134008 -0.00623738 
0.0640325 0.0809553 -0.0126775 0.100614 0.0254261 -0.0114703 0.061604 0.00627428 -0.0114257 
0.0481047 -0.0105695 0.00766983 0.0270158 0.208305 0.118132 0.0146775 0.0300528 0.0303081 
0.0498388 0.0258484 -0.0108658 0.0497501 0.00750233 0.00751001 0 0.133333 0.0333333 
0.135277 0.0825123 0.188042 0.15 0.0833333 0.183333 0.136355 0.0822849 0.206368 
0.025184 0.171354 -0.00814764 0 0.0166667 0.0166667 0.013794 0.0121992 0.0125419 
0.013328 -0.0061656 0.0306415 0.0142944 0.0120465 0.0303121 0.0621845 0.2124 0.0253237 
0.0628539 0.194224 0.00663657 0.0299219 0.0644547 0.0457187 0.15 0.166667 0.166667 
0.0284952 0.0282713 0.0822043 0 0.116667 0.0166667 0.0138604 0.117832 -0.00598778 
0 0.0333333 0.166667 0.0997471 0.174822 -0.0110863 0.10847 0.155099 0.137171 
0.0634693 -0.0127417 0.137479 0.125565 0.171218 0.209044 0.102076 0.210927 0.192773 
0.0884046 0.194099 0.212001 0.0637136 0.194266 0.0250621 0.0264265 0.0648469 -0.00850467 
0.0140519 0.0480753 0.0126554 0.0249463 0.171292 0.208344 0 0.166667 0.0333333 
0.0134809 -0.00606149 0.169248 0 0.0166667 0.183333 0.0144424 0.0121137 0.169577 
0.15 0.0833333 0.0833333 0.0255782 0.189536 0.00966154 0.0238397 0.207996 0.00950806 
0.0104725 0.186453 -0.00606479 0.0138888 0.18763 0.0126766 0.0134521 0.20598 0.0307512 
0.0143974 0.187738 0.030432 0 0.183333 0.0166667 0 0.133333 0.166667 
0.0147733 0.152121 0.0128164 0.0147636 0.169712 0.030372 0.0272523 0.17173 0.0102218 
0 0.166667 0.166667 0 0.0666667 0.0333333 0.014795 0.0659299 0.0122628 
0 0.0833333 0.0166667 0.0148639 0.0833039 0.0121848 0.0148818 0.100447 0.0123609 
0.0139082 0.0830884 -0.00604942 0 0.116667 0.183333 0.0136144 0.117746 0.206365 
0.062152 -0.0118461 0.0249707 0.0634363 0.00623874 0.024888 0.0625183 0.00642344 0.00658765 
0.0103858 0.186428 0.206034 0.0256349 0.189505 0.19046 0.0238455 0.207919 0.190558 
0.0990045 0.137311 0.211822 0 0.166667 0.0666667 0.0145965 0.187615 0.0479198 
0 0.183333 0.0833333 0.0145018 0.188167 0.0653672 0.0135057 0.206295 0.0648536 
0.134913 0.117113 0.170334 0 0.0166667 0.0833333 0.0134059 -0.00642497 0.0647527 
0.0548329 0.174886 0.118754 0.0268621 0.135672 0.208654 0.0147625 0.134609 0.187777 
0.0146874 0.117505 0.188051 0.0268186 -0.00858163 0.0821983 0.0146522 0.0119865 0.0826677 
0.0264699 0.0645362 0.20857 0 0.183333 0.116667 0.0148297 0.187658 0.117625 
0.0137306 0.205958 0.135401 0 0.166667 0.133333 0.0147216 0.187814 0.134869 
0.0151231 0.16987 0.134631 0.014779 0.18735 0.152207 0.0409487 0.00846201 0.0817578 
0.0515734 -0.0110182 0.0812535 0.028166 0.00980011 0.0821287 0.0270489 0.135855 -0.0082499 
0.0149057 0.134671 0.012568 0.0148554 0.11759 0.012298 0.0272304 0.171648 0.189987 
0.0146726 0.152071 0.187449 0.0282725 0.171556 0.171919 0.0148539 0.169665 0.169673 
0 0.183333 0.183333 0.0140064 0.187536 0.187267 0.0136267 0.205801 0.169268 
0.0145436 0.187609 0.16958 0.0147908 0.0300381 0.169603 0.0141939 0.0479202 0.187292 
0.0139151 0.0122216 0.187283 0.0102041 0.0133506 0.206078 0.023762 -0.008139 0.190582 
0.135495 0.187501 0.1527 0.15 0.166667 0.133333 0.0299856 0.154487 0.118185 
0 0.116667 0.116667 0.0301427 0.136569 0.136375 0.123301 0.171629 0.190748 
0.135498 0.169831 0.170448 0.024388 0.0288605 -0.00844508 0.0266684 0.0284386 0.00991983 
0.0375438 0.00898977 0.00810388 0.0252841 0.010437 0.00938439 0.101742 -0.0110499 0.192723 
0.0882106 0.00606988 0.211765 0.108543 0.10013 0.0259126 0.0147143 0.0656639 0.18783 
0.0150689 0.0829615 0.170056 0 0.0666667 0.166667 0.13647 0.0823435 -0.00671654 
0.15 0.0833333 0.0166667 0.0415335 0.0821146 0.00808645 0.0298049 0.0823984 0.0276717 
0.0152055 0.0831747 0.0300412 0.0400653 0.191233 0.0453643 0.0636082 0.212592 0.0624055 
0.0512858 0.0626642 0.211193 0.0280355 0.064505 0.190251 0 0.0333333 0.0666667 
0.0149083 0.029862 0.0656348 0.0145363 0.012274 0.0478369 0.0144482 0.0117367 0.065308 
0.15 0.0333333 0.133333 0.15 0.183333 0.0833333 0.136742 0.206439 0.0643215 
0.0269382 -0.00838752 0.118099 0.0147804 0.0124218 0.100154 0.0480492 -0.0108322 0.192479 
0.0623918 0.00622855 0.193786 0.0614139 0.0060647 0.211777 0.0147152 0.0124991 0.152179 
0 0.0333333 0.133333 0.0497515 0.00725619 0.192677 0.0497384 0.0256779 0.211049 
0.0405838 0.0634587 0.191592 0.0410745 0.0818299 0.191724 0.0639721 0.081013 0.21275 
0.0400801 0.0451959 0.191375 0.0512699 0.0257136 0.192809 0.0279531 0.0283296 0.171868 
0.121863 0.171941 0.0634874 0.136739 0.206108 0.169816 0.15 0.183333 0.183333 
0.135815 0.187903 0.170221 0.0997949 0.0254716 0.0067493 0.0993897 0.0624831 -0.0117452 
0 0.0833333 0.183333 0.0137501 0.0827987 0.206249 0.0147273 0.100291 0.187955 
0.0147581 0.083088 0.187982 0.0616677 0.194065 0.211996 0.0482503 0.210904 0.19255 
0 0.0166667 0.116667 0.0148002 0.0123215 0.117603 0.0136846 -0.00601368 0.135362 
0.0147042 0.0121871 0.134832 0.0885363 0.00628121 -0.011807 0.102221 -0.010978 0.0070034 
0.100901 0.0070401 0.00692613 0.109346 0.173546 0.0631295 0.1089 0.155255 0.0630491 
0.110171 0.192048 0.1001 0.0875296 -0.0123797 0.0619124 0.0413609 0.00845672 0.118398 
0.0411768 0.00842869 0.100076 0.0284394 0.0099797 0.118117 0.0518161 -0.0111528 0.118499 
0.0531125 0.0627428 0.193144 0.0528129 0.0255646 0.174446 0.0631892 0.00605146 0.175296 
0.0403737 0.0268863 0.173183 0.0547232 0.0626684 0.156333 0.0536288 0.044185 0.174703 
0.0543602 0.0626265 0.174832 0.0288748 0.0819924 0.171873 0.0301222 0.0635139 0.136267 
0 0.0833333 0.116667 0.0546977 0.0250524 0.118525 0.0299673 0.0455089 0.118021 
0.0538791 0.00685407 0.118437 0.0294548 0.0459785 0.153897 0.0300143 0.0455939 0.13588 
0 0.0666667 0.133333 0.0295623 0.0279108 0.136143 0.0406812 0.00852297 0.154902 
0.0414121 0.00829105 0.136732 0.0151172 0.030146 0.134627 0.109334 0.136453 0.192192 
0.0873095 0.118819 0.21331 0.108819 0.11794 0.192567 0.0972028 0.137238 0.193636 
0.15 0.116667 0.183333 0.135233 0.0997157 0.188021 0.135278 0.11692 0.188261 
0.136311 0.117098 0.206465 0.125903 0.0279345 0.209169 0.124874 0.00953969 0.191214 
0.140151 0.0130344 0.206541 0.126565 -0.00876753 0.19115 0.100391 0.192973 0.193042 
0.112585 0.191345 0.192383 0.100152 0.174503 0.211466 0.13527 0.134232 0.188017 
0.12362 0.135332 0.209 0.121876 0.135458 0.190707 0.135782 0.151915 0.187661 
0.123553 0.0275556 0.190803 0.135656 0.0475406 0.187828 0.136396 0.0118669 0.187765 
0.15 0.0166667 0.183333 0.136772 -0.00635072 0.16958 0.135783 0.0118375 0.17001 
0.15 0.0333333 0.166667 0.135499 0.0298249 0.170309 0.135444 0.0121606 0.152527 
0.0620783 0.212183 0.175255 0.0627003 0.193861 0.194022 0.0407805 0.154814 0.191631 
0.0151349 0.134512 0.169973 0.0290408 0.13599 0.171898 0.0544598 0.156 0.174899 
0.0547965 0.155901 0.15636 0.0545651 0.137243 0.156315 0.0516702 0.137143 0.211219 
0.0413246 0.136632 0.191742 0.0283143 0.118038 0.190227 0.0640983 0.118845 0.212709 
0.0411345 0.118294 0.191561 0.0412563 0.100022 0.191681 0.0546525 0.118636 0.175118 
0.0292894 0.118251 0.154337 0.0538931 0.11863 0.193218 0.0287737 0.100005 0.154519 
0.0300343 0.154484 0.136045 0 0.133333 0.133333 0.0295935 0.172125 0.136213 
0.0296397 0.154094 0.15404 0.0875342 0.193933 0.194035 0.075004 0.194677 0.19485 
0.0877693 0.212021 0.175476 0.0501869 0.174433 0.211195 0.0379377 0.191233 0.191868 
0.0518453 0.174428 0.19297 0.0500657 0.192858 0.192807 0.0380028 0.191349 0.00845112 
0.0504665 0.1748 -0.0108057 0.0501926 0.193094 0.00774097 0.0872551 0.0806262 0.213222 
0.0864392 0.0432003 0.194482 0.0754301 0.0430303 0.1952 0.10038 0.0251876 0.211404 
0.112727 0.00793792 0.192572 0.100392 0.00693494 0.192935 0.0979288 0.0252612 0.174974 
0.0871195 -0.0125293 0.13796 0.0864023 0.0620492 0.194602 0.0859169 0.0243882 0.157049 
0.0755629 0.0240098 0.156923 0.063469 0.193923 0.175492 0.053537 0.174435 0.17475 
0.0409706 0.191489 0.154978 0.0409665 0.173175 0.173333 0.0285301 0.189991 0.11815 
0.0414844 0.1915 0.10023 0.0521642 0.211158 0.118678 0.122429 0.190222 0.0817939 
0.123719 0.208677 0.0819179 0.135447 0.187936 0.0822371 0.0541606 0.137348 0.137488 
0.0973486 0.174847 0.15609 0.0860057 0.175652 0.137679 0.0995342 0.211839 0.118866 
0.109821 0.154811 0.19197 0.12231 0.171703 0.172687 0.0987757 0.174498 0.193334 
0.109938 0.173327 0.173913 0.0865897 0.193948 0.175705 0.0862517 0.156932 0.194577 
0.0757537 0.157112 0.19519 0.0633465 -0.0123738 0.0619581 0.039608 0.00892148 0.0451301 
0.040258 0.00859279 0.0634296 0.126778 -0.00875642 0.00858518 0.14034 0.0131114 -0.00670606 
0.0269359 0.208403 0.082335 0.0148401 0.187478 0.100187 0.0283445 0.190056 0.0822414 
0.0147287 0.187861 0.0827307 0.0962425 0.0624613 0.156533 0.108785 0.0996951 0.192345 
0.085957 0.062187 0.17584 0.121623 0.0273755 0.136097 0.0988244 -0.0115266 0.118866 
0.108764 0.026283 0.136908 0.108346 0.0629174 0.155536 0.0974305 0.0252427 0.15646 
0.121435 0.0637325 0.172358 0.121951 0.08205 0.190599 0.121881 0.045751 0.172434 
0.135065 0.0650509 0.170124 0.122338 0.0276498 0.172665 0.0413331 0.191501 0.0819626 
0.0405677 0.191466 0.0636032 0.014968 0.170071 0.0656833 0.123659 0.208585 0.118233 
0.135672 0.187653 0.100021 0.122394 0.190097 0.118219 0.0759186 0.175965 0.156983 
0.0869961 0.212709 0.138107 0.0863758 0.175708 0.156722 0.0865639 0.175657 0.175651 
0.136426 0.205866 0.135824 0.135321 0.18755 0.13519 0.15 0.183333 0.116667 
0.135351 0.187589 0.117809 0.12 0.118015 0.137036 0.0962831 0.137577 0.137439 
0.0965242 0.156239 0.13744 0.1354 0.0825271 0.011483 0.123884 0.0643325 -0.00940561 
0.0967913 0.156342 0.0627283 0.12057 0.118105 0.0630103 0.122162 0.154401 0.10004 
0.112674 0.191533 0.00771959 0.125522 0.171706 -0.00928985 0.1234 0.172109 0.00894823 
0.12511 0.19001 0.0084866 0.0244663 0.0286612 0.208373 0.0376329 0.00877743 0.191861 
0.0268491 0.0282823 0.189997 0.0254159 0.0103106 0.190486 0.0553109 0.118863 0.0250426 
0.136058 0.188294 0.0296846 0.15 0.166667 0.0333333 0.135679 0.170224 0.0294038 
0.125087 0.00957434 0.0085371 0.113069 0.00799296 0.00723945 0.126066 0.0280437 -0.00942612 
0.0997022 0.211888 0.0814646 0.120114 0.11745 0.155156 0.12056 0.117411 0.172808 
0.15 0.133333 0.133333 0.0544595 0.137609 0.0627095 0.0965749 0.137648 0.0626501 
0.0754113 0.13712 0.100049 0.122137 0.136055 0.0086153 0.123306 0.135821 -0.00949926 
0.136081 0.152315 0.0117721 0.13546 0.134507 0.0113148 0.15 0.133333 0.0333333 
0.11096 0.191769 0.0448118 0.0978185 0.174868 0.0256093 0.0988101 0.174772 0.00721517 
0.0988063 0.193394 0.0442137 0.0960384 0.0625131 0.137853 0.0753122 0.100001 0.137213 
0.0540978 0.0626649 0.137437 0.12486 0.189628 0.191294 0.126498 0.208097 0.191437 
0.136331 0.187664 0.187966 0.140066 0.186402 0.206707 0.135614 0.188206 0.064805 
0.135704 0.187963 0.0472556 0.15 0.166667 0.0666667 0.0869626 0.194552 0.0435312 
0.087721 0.212983 0.062189 0.100514 0.193203 0.00744125 0.0884872 0.194573 -0.0114819 
0.102403 0.211235 0.00764345 0.0288102 0.0457463 0.0998028 0.0546829 0.043876 0.06259 
0.135244 0.170207 0.0646172 0.135405 0.152475 0.0466925 0.122463 0.172189 0.0270955 
0.122127 0.172066 0.0453469 0.120674 0.0634793 0.118306 0.108288 0.0261233 0.118479 
0.13518 0.0292742 0.135051 0.15 0.0666667 0.133333 0.135022 0.0473546 0.152637 
0.134917 0.0469835 0.135048 0.0872455 0.194462 0.0248973 0.0752947 0.195287 0.0057058 
0.0878333 0.1943 0.00651231 0.088459 0.212546 0.0250333 0.135161 0.169483 0.135338 
0.109125 0.155032 0.173883 0.120246 0.135576 0.154913 0.108076 0.155248 0.155742 
0.0405947 0.173225 0.0270264 0.0280882 0.171609 0.0283056 0.0520031 0.174681 0.00744493 
0.0531619 0.174627 0.0257394 0.0759718 0.1955 0.0432649 0.0532358 0.193022 0.0629289 
0.0406721 0.0636747 0.00836451 0.0280832 0.0647923 0.00973522 0.0513113 0.0627582 -0.0111563 
0.0519871 0.137472 -0.0111816 0.0286607 0.118259 0.0100558 0.0551159 0.156494 0.0627279 
0.0290512 0.154345 0.100004 0.0539272 0.174796 0.0442955 0.0545962 0.17486 0.0627502 
0.028865 0.171765 0.0822636 0.0302277 0.136199 0.0636055 0.0302056 0.11816 0.045658 
0 0.116667 0.0833333 0.0295624 0.153885 0.046176 0.0301372 0.135944 0.0457352 
0 0.133333 0.0666667 0.0419109 0.136838 0.008371 0.0411559 0.155005 0.00868695 
0.0297792 0.136169 0.0280188 0.0152605 0.134621 0.0302744 0 0.0833333 0.0833333 
0.0302365 0.0821184 0.0632745 0.0300912 0.100292 0.0454163 0.0301419 0.0825307 0.0452951 
0.0985241 0.137721 -0.011384 0.109046 0.155256 0.0263518 0.121497 0.136161 0.0268642 
0.134935 0.134907 0.0462854 0.135088 0.117196 0.0286839 0.15 0.133333 0.0666667 
0.134849 0.0470816 0.0824233 0.0876948 -0.0120294 0.175346 0.0748249 0.00533601 0.194639 
0.0866019 0.0060249 0.175521 0.0874747 0.00625722 0.193815 0.0419401 0.10031 0.00829968 
0.0640617 0.119007 -0.0127551 0.0543252 0.118761 0.00678076 0.0417559 0.118596 0.00851177 
0.0867986 0.119064 -0.0126099 0.108473 0.118406 0.0256867 0.0965386 0.137611 0.0252547 
0.108514 0.136947 0.0260463 0.0547514 0.0624647 0.0626602 0.0755304 0.100023 0.0629256 
0.096638 0.0625862 0.0624084 0.0755678 0.0628647 0.100064 0.108338 0.0630555 0.0628355 
0.108352 0.0263096 0.100156 0.039826 0.0454477 0.00860231 0.0396659 0.0271584 0.0268858 
0.0511137 0.0259188 0.00738569 0.0275444 0.028477 0.0281046 0.0753156 0.00552298 0.00567471 
0.0886109 -0.0119619 0.0246272 0.0880676 0.00641289 0.00617794 0.134901 0.117373 0.0462585 
0.134698 0.117634 0.0639033 0.15 0.116667 0.0833333 0.15 0.0666667 0.0333333 
0.135448 0.0653841 0.0118095 0.0862517 0.175828 0.0625937 0.0757987 0.157347 0.0243662 
0.0856778 0.157024 0.0246871 0.086773 0.194585 0.0624273 0.15 0.0333333 0.0333333 
0.0989137 0.0439564 0.00662797 0.0987471 0.0254253 0.0251506 0.0876573 0.00619434 0.0245354 
0.0638694 0.212719 0.13774 0.041596 0.191719 0.13681 0.0542012 0.193181 0.118721 
0.0415743 0.191561 0.118513 0.0528333 0.00709848 0.0626115 0.0540781 0.0439235 0.0440815 
0.110846 0.0447934 0.00727564 0.121967 0.0820894 0.00887146 0.15 0.0166667 0.0833333 
0.13668 -0.00649702 0.0643282 0.099319 0.0253161 0.193253 0.110594 0.0445761 0.192607 
0.0995485 0.0622448 0.211879 0.0984989 0.0437621 0.193513 0.15 0.0333333 0.0666667 
0.135507 0.0121463 0.0473991 0.135549 0.0116108 0.0649002 0.12156 0.0273953 0.081961 
0.120885 0.0634872 0.0637745 0.13475 0.064967 0.0648392 0.121242 0.0638232 0.0455605 
0.121728 0.063949 0.0273343 0.13485 0.0999352 0.0466517 0.136704 -0.00661714 0.135635 
0.15 0.0166667 0.116667 0.135558 0.0114701 0.135048 0.05304 0.0441722 0.0255925 
0.0522649 0.025743 0.0257441 0.0530304 0.0628587 0.00697802 0.0981802 0.0253449 0.0437609 
0.0974614 0.0253951 0.062419 0.110053 0.0262673 0.0445361 0.0990533 -0.0114296 0.0813864 
0.08662 0.0245708 0.0432055 0.0757531 0.0239328 0.043089 0.0861139 0.0621408 0.0245697 
0.0867525 0.0621079 0.00586166 0.0755762 0.0429504 0.005269 0.0869464 0.0433285 0.00588872 
0.0870055 0.0807862 -0.0126824 0.134896 0.0466132 0.117291 0.134787 0.0467375 0.0998216 
0.15 0.0833333 0.116667 0.134636 0.0640874 0.117392 0.123364 -0.00912904 0.0820072 
0.135487 0.0116504 0.0823397 0.122175 0.00902966 0.0819771 0.13549 0.011536 0.117664 
0.135524 0.0119097 0.100034 0.122041 0.00898441 0.118113 0.123413 -0.00920554 0.118163 
0.135181 0.0650887 0.0295552 0.122137 0.0458702 0.0272761 0.15 0.116667 0.0166667 
0.135314 0.0997638 0.0114573 0.136441 0.117285 -0.00686988 0.135432 0.117028 0.0110889 
0.134983 0.0473425 0.0649005 0.135189 0.0473764 0.0471772 0.135165 0.0294854 0.0648933 
0.15 0.0666667 0.0666667 0.123705 0.0276237 0.00892058 0.122573 0.0276675 0.0270812 
0.135755 0.047626 0.0118644 0.13559 0.0298408 0.0295057 0.15 0.0166667 0.0166667 
0.136852 -0.00638296 0.0302862 0.136464 0.0119024 0.0120889 0.135855 0.0118119 0.0298778 
0.131928 0.193448 0.0049746 0.0655346 0.00128353 0.184723 0.139715 0.19182 0.0218862 
0.107841 0.0721352 0.142058 0.0110658 0.021912 0.035291 0.138784 0.0612004 0.178196 
0.0230183 0.0738544 0.0462925 0.0410443 0.196031 0.086527 0.0428889 0.141557 0.155626 
0.127038 0.113005 0.140897 0.05585 0.198323 0.00278189 0.138697 0.125485 0.178413 
0.128694 0.0735198 0.194016 0.0185078 0.00687339 0.00578476 0.0500933 0.0723021 0.00261002 
0.103487 0.0164579 0.00236142 0.0555346 0.00237242 0.00258975 0.0216081 0.193502 0.113499 
0.0602636 0.156287 0.142349 0.0210351 0.0337206 0.0201101 0.0472319 0.0170434 0.00304438 
0.0114282 0.138636 0.0221872 0.139012 0.0868155 0.191633 0.0292703 0.180935 0.00488126 
0.0996173 0.0721193 0.0437753 0.0105927 0.00844032 0.0224002 0.0660198 0.199123 0.015687 
0.128078 0.0324872 0.126685 0.0423043 0.0449253 0.0585878 0.139033 0.178018 0.165195 
0.0314848 0.0187851 0.0732483 0.0488436 0.0169462 0.0305989 0.0110868 0.113235 0.00862684 
0.108637 0.168996 0.141718 0.0111601 0.0219585 0.164629 0.102751 0.183619 0.00285179 
0.0998868 0.169971 0.128005 0.0504534 0.00267833 0.127793 0.121324 0.1809 0.196083 
0.0945472 0.198039 0.197955 0.049541 0.18342 0.0307653 0.0211197 0.0608222 0.00632615 
0.0291939 0.180863 0.195317 0.0432867 0.114006 0.0306239 0.011144 0.1779 0.0353653 
0.0107014 0.00850449 0.17747 0.138406 0.0609139 0.0739641 0.0186981 0.193003 0.0060099 
0.010697 0.19138 0.0225103 0.0113424 0.138583 0.178062 0.0407096 0.168559 0.182493 
0.0215131 0.166297 0.0202974 0.011234 0.177809 0.164649 0.0113935 0.0746976 0.0218828 
0.0111003 0.0875056 0.00856049 0.0109357 0.113168 0.191673 0.0658635 0.00151007 0.0155327 
0.0187065 0.192941 0.19399 0.109761 0.141055 0.196703 0.0111991 0.178251 0.0614985 
0.0108654 0.191726 0.0741778 0.117719 0.113102 0.182195 0.0108036 0.0081642 0.0741215 
0.042678 0.169273 0.113832 0.0214834 0.126436 0.193872 0.0214401 0.00621481 0.0868607 
0.021146 0.0605491 0.19371 0.0323179 0.181395 0.140689 0.0110129 0.191443 0.126103 
0.0113298 0.178002 0.138702 0.0407246 0.00389205 0.0863367 0.021673 0.126587 0.00651259 
0.0215276 0.166249 0.179856 0.0108061 0.191264 0.177454 0.0212052 0.0335946 0.179789 
0.0185622 0.00681978 0.194027 0.100389 0.155796 0.183986 0.138733 0.17779 0.139084 
0.0230665 0.140462 0.126765 0.128981 0.166265 0.180557 0.0287138 0.019222 0.00455976 
0.0944086 0.00204865 0.197796 0.031991 0.0865841 0.181359 0.117482 0.113675 0.0446704 
0.0113198 0.0745057 0.178218 0.139113 0.0868675 0.00800317 0.0326009 0.086934 0.0184048 
0.0495473 0.197102 0.0584223 0.040187 0.0588917 0.196126 0.0111605 0.0216743 0.0614516 
0.138892 0.0214214 0.138932 0.139235 0.191745 0.0737306 0.109189 0.168952 0.0446567 
0.0215523 0.00643909 0.113472 0.0554298 0.00212566 0.197694 0.0113184 0.0219891 0.138682 
0.0472585 0.0168177 0.197099 0.0499038 0.0721575 0.197359 0.0400978 0.0314913 0.182344 
0.119108 0.181466 0.0588742 0.139491 0.191502 0.177996 0.102208 0.0441666 0.00220398 
0.0109909 0.0873261 0.191629 0.055703 0.197992 0.197868 0.0109976 0.00855007 0.126087 
0.0949111 0.00219276 0.002045 0.0997221 0.156062 0.044168 0.100117 0.170053 0.0721712 
0.0926247 0.0157272 0.0434409 0.0409919 0.00392482 0.113833 0.0590465 0.0437737 0.184452 
0.0494793 0.0166624 0.169505 0.0601492 0.0436593 0.142223 0.0426991 0.0723345 0.15562 
0.0420353 0.0586338 0.168931 0.0230807 0.0596281 0.126636 0.0425163 0.0307251 0.11358 
0.0228784 0.046512 0.13986 0.032217 0.018638 0.140646 0.100284 0.127723 0.198001 
0.139029 0.112619 0.191777 0.121529 0.0182582 0.196166 0.13179 0.00628642 0.194625 
0.102806 0.183372 0.197551 0.128833 0.139308 0.194038 0.129007 0.0331036 0.18057 
0.139492 0.00826153 0.177787 0.138994 0.0217654 0.165015 0.0657977 0.198742 0.184943 
0.0320803 0.140474 0.181376 0.0422878 0.155163 0.169052 0.0603978 0.142089 0.170718 
0.0408372 0.127423 0.196195 0.0503868 0.113893 0.197305 0.0421727 0.113842 0.169279 
0.0228999 0.153536 0.140007 0.0842027 0.198697 0.185014 0.0476592 0.183306 0.197215 
0.0478505 0.183543 0.00322622 0.0922249 0.0295367 0.184697 0.0837849 0.0572208 0.199427 
0.103082 0.0163151 0.197529 0.0918593 0.015578 0.156722 0.0833444 0.0431998 0.171234 
0.0500297 0.183369 0.169679 0.0412191 0.196062 0.113935 0.128922 0.193753 0.0865124 
0.0753005 0.12798 0.128018 0.0919771 0.184618 0.142367 0.110038 0.168619 0.183048 
0.0836446 0.17117 0.185245 0.0491728 0.00302891 0.0581332 0.131956 0.00633707 0.00515791 
0.0215516 0.193618 0.0869425 0.0994936 0.0718836 0.17029 0.109016 0.017086 0.127698 
0.108576 0.0445385 0.155488 0.11869 0.0590453 0.182006 0.128294 0.0464649 0.166996 
0.0317327 0.181183 0.0733575 0.12889 0.193577 0.113556 0.0837627 0.185154 0.156886 
0.139026 0.191263 0.12637 0.129143 0.166765 0.0191022 0.108025 0.14178 0.127881 
0.128793 0.0736107 0.00549534 0.12821 0.140052 0.0320649 0.108406 0.141816 0.072213 
0.121416 0.18133 0.00372313 0.0288307 0.0190509 0.195351 0.0606659 0.142573 0.0437254 
0.13919 0.178356 0.0347406 0.12174 0.0183233 0.00358047 0.0928268 0.198664 0.0578613 
0.127164 0.126127 0.154095 0.0754651 0.128065 0.0720921 0.128994 0.13977 0.00527364 
0.138895 0.125614 0.0209228 0.10148 0.183771 0.0305148 0.0752683 0.0720277 0.128122 
0.131698 0.19304 0.194832 0.13893 0.178348 0.0608969 0.0842586 0.199449 0.0434335 
0.0947425 0.198386 0.00254594 0.0427574 0.0583725 0.0721897 0.12857 0.166767 0.0459399 
0.11746 0.04513 0.113699 0.138592 0.0476138 0.139047 0.0847083 0.199223 0.0155463 
0.117675 0.154116 0.154951 0.0406752 0.168666 0.017815 0.0593882 0.18457 0.0439416 
0.040161 0.0591256 0.00384853 0.04137 0.127681 0.00391628 0.0428911 0.155594 0.0724084 
0.0421355 0.168902 0.0587799 0.0231614 0.12665 0.0597257 0.0229568 0.139853 0.0466169 
0.0325821 0.140663 0.0187349 0.0231512 0.0870483 0.0593904 0.108996 0.141587 0.0170153 
0.138584 0.125851 0.0469349 0.128033 0.0325696 0.0865804 0.084171 0.00133031 0.184836 
0.0508383 0.114087 0.00267535 0.0996373 0.128113 0.0161497 0.0756978 0.0719783 0.0720266 
0.10831 0.0445082 0.0723213 0.0396415 0.0317429 0.0176867 0.0849726 0.0014781 0.0152279 
0.138431 0.112963 0.0600525 0.138863 0.0612726 0.0215259 0.0834644 0.171343 0.0435885 
0.139044 0.0217594 0.0348861 0.0929716 0.0296947 0.0155086 0.0506992 0.197342 0.127972 
0.0592994 0.0296146 0.0437469 0.11893 0.0592602 0.0176943 0.139235 0.00808106 0.0737668 
0.101942 0.0439564 0.197833 0.138866 0.0215674 0.0610375 0.11812 0.0452639 0.0590569 
0.127794 0.0732952 0.0461465 0.139271 0.00795449 0.126196 0.0587083 0.043772 0.0158595 
0.101075 0.0163647 0.0579312 0.0837557 0.043179 0.0291108 0.0839977 0.057276 0.00104225 
0.138389 0.060211 0.112782 0.12885 0.00565887 0.0866385 0.128826 0.00558139 0.11345 
0.128481 0.0465282 0.0327041 0.139174 0.112705 0.00777165 0.138598 0.047801 0.0608814 
0.129151 0.0331583 0.019148 0.139542 0.00825653 0.0221096 

CELLS 236 3776
15 69 93 88 68 456 511 453 449 451 450 532 527 528 888 1095 
15 28 47 45 44 260 323 259 258 319 318 690 731 989 529 1096 
15 93 69 88 94 456 453 511 523 457 512 532 530 894 531 1097 
15 43 49 86 85 310 349 317 316 348 503 850 916 538 937 1098 
15 5 1 26 6 103 106 124 120 104 129 562 533 682 551 1099 
15 82 86 81 63 495 494 493 423 424 422 534 543 861 769 1100 
15 7 11 48 6 137 169 145 127 128 135 980 535 674 565 1101 
15 37 17 54 38 212 216 289 285 213 291 863 848 825 536 1102 
15 55 13 12 51 191 171 180 361 190 178 658 782 792 783 1103 
15 90 86 49 85 506 349 350 504 503 348 901 537 538 877 1104 
15 37 52 50 36 287 352 286 282 284 283 564 539 540 808 1105 
15 91 92 65 86 519 438 437 507 508 435 764 541 755 618 1106 
15 82 65 86 63 434 435 495 423 421 424 555 542 859 543 1107 
15 25 5 0 26 123 99 100 243 124 101 545 664 560 544 1108 
15 46 32 6 48 269 131 134 326 270 135 957 546 673 1054 1109 
15 57 46 58 62 327 328 383 384 329 388 720 547 706 898 1110 
15 26 41 25 46 249 245 243 252 300 246 549 608 548 553 1111 
15 22 38 39 17 237 290 238 210 213 214 550 847 824 629 1112 
15 55 49 12 54 344 176 180 373 343 179 784 869 830 621 1113 
15 26 5 6 30 124 120 129 248 125 130 551 662 579 1009 1114 
15 25 30 26 46 244 248 243 246 265 252 663 552 1008 553 1115 
15 11 15 16 34 164 194 165 168 198 203 554 639 594 976 1116 
15 82 65 87 86 434 436 496 495 435 505 557 555 754 556 1117 
15 15 34 36 37 198 276 199 200 277 282 558 596 806 586 1118 
15 43 85 64 48 316 429 314 309 340 338 1004 1002 667 1061 1119 
15 1 5 26 0 103 124 106 98 99 101 562 559 560 561 1120 
15 52 37 50 53 287 286 352 368 288 353 564 563 577 944 1121 
15 60 80 59 86 410 401 398 413 492 403 1075 942 1066 853 1122 
15 48 7 6 43 145 127 135 309 143 133 565 932 567 1031 1123 
15 92 71 96 91 465 467 521 519 464 520 705 660 654 566 1124 
15 26 7 43 6 140 143 251 129 127 133 635 681 567 843 1125 
15 6 26 46 42 129 252 134 132 250 304 1007 842 607 1053 1126 
15 32 15 10 11 197 161 162 167 164 160 569 640 568 602 1127 
15 90 71 70 49 463 459 460 350 347 346 868 950 831 572 1128 
15 28 9 8 3 156 146 148 116 115 114 649 584 570 692 1129 
15 68 69 50 66 449 358 357 439 440 356 928 885 914 571 1130 
15 49 90 54 70 350 378 343 346 460 375 879 572 723 832 1131 
15 28 43 7 44 257 143 142 258 308 144 725 573 741 747 1132 
15 92 72 71 67 469 462 465 448 446 445 919 574 762 659 1133 
15 71 56 51 72 381 362 365 462 382 366 799 575 576 761 1134 
15 50 37 16 53 286 204 205 353 288 206 951 577 676 954 1135 
15 5 6 30 32 120 130 125 126 131 264 579 599 958 578 1136 
15 39 19 35 40 228 227 279 292 229 280 641 610 580 803 1137 
15 12 11 50 48 163 170 177 175 169 336 968 979 994 893 1138 
15 21 15 37 16 196 200 234 202 194 204 591 581 595 614 1139 
15 28 4 9 3 118 117 156 116 112 115 651 582 583 584 1140 
15 80 84 58 85 490 396 395 491 499 397 1083 585 1045 987 1141 
15 15 36 20 37 199 231 195 200 282 232 588 586 587 589 1142 
15 15 20 21 37 195 230 196 200 232 234 592 589 590 591 1143 
15 19 18 35 13 218 220 227 185 184 187 642 593 780 623 1144 
15 39 51 35 18 293 281 279 221 222 220 804 823 779 643 1145 
15 15 34 37 16 198 277 200 194 203 204 596 594 952 595 1146 
15 19 23 39 18 224 240 228 218 219 221 648 597 634 644 1147 
15 5 6 32 11 120 131 126 122 128 167 599 598 675 601 1148 
15 10 5 32 11 121 126 162 160 122 167 603 600 601 602 1149 
15 19 33 14 13 226 193 192 185 186 182 605 624 710 604 1150 
15 26 41 46 42 249 300 252 250 299 304 608 606 1010 607 1151 
15 24 19 39 40 225 228 241 242 229 292 646 609 610 611 1152 
15 51 91 67 65 367 447 364 363 437 433 834 749 766 612 1153 
15 17 21 37 16 209 234 212 201 202 204 616 613 614 865 1154 
15 37 22 21 17 236 233 234 212 210 209 617 849 615 616 1155 
15 49 91 65 86 351 437 345 349 507 435 751 902 618 851 1156 
15 7 1 26 2 105 106 140 108 102 109 683 619 620 626 1157 
15 17 55 12 54 217 180 172 216 373 179 656 1028 621 963 1158 
15 19 33 13 35 226 186 185 227 272 187 624 622 787 623 1159 
15 7 2 26 27 108 109 140 141 110 247 626 688 625 637 1160 
15 33 9 8 31 159 146 150 266 158 149 668 627 650 679 1161 
15 55 18 39 17 223 221 295 217 208 214 822 797 633 1027 1162 
15 23 22 39 17 235 238 240 211 210 214 630 628 629 632 1163 
15 18 23 39 17 219 240 221 208 211 214 634 631 632 633 1164 
15 26 7 27 43 140 141 247 251 143 254 637 635 726 636 1165 
15 32 15 11 34 197 164 167 268 198 168 640 638 639 961 1166 
15 39 19 18 35 228 218 221 279 227 220 644 641 642 643 1167 
15 23 19 39 24 224 228 240 239 225 241 648 645 646 647 1168 
15 28 9 31 8 156 158 256 148 146 149 891 649 650 701 1169 
15 28 4 29 9 118 119 255 156 117 157 653 651 652 892 1170 
15 51 91 49 71 367 351 342 365 464 347 752 837 948 839 1171 
15 96 71 90 91 467 463 518 520 464 515 874 654 947 655 1172 
15 13 55 12 17 191 180 171 183 217 172 658 795 656 657 1173 
15 92 71 91 67 465 464 519 448 445 447 660 659 835 767 1174 
15 25 5 26 30 123 124 243 244 125 248 664 661 662 663 1175 
15 47 61 45 60 333 325 323 332 404 324 666 814 665 991 1176 
15 33 49 8 13 274 153 150 186 189 147 697 790 736 669 1177 
15 85 90 64 48 504 432 429 340 341 338 1014 883 997 667 1178 
15 13 9 8 33 154 146 147 186 159 150 670 711 668 669 1179 
15 78 64 84 83 426 428 486 485 427 497 880 671 1080 672 1180 
15 6 32 11 48 131 167 128 135 270 169 675 673 992 674 1181 
15 16 37 54 53 204 289 207 206 288 371 864 676 677 956 1182 
15 47 33 8 31 273 150 152 267 266 149 696 678 679 699 1183 
15 1 7 26 6 105 140 106 104 127 129 683 680 681 682 1184 
15 76 80 60 81 480 410 408 481 489 411 1051 684 939 776 1185 
15 90 94 69 95 516 457 455 517 524 458 923 685 686 829 1186 
15 90 50 70 66 360 359 460 444 356 441 721 982 913 702 1187 
15 7 2 27 28 108 110 141 142 111 253 688 715 687 727 1188 
15 29 28 47 45 255 260 263 262 259 323 694 689 690 691 1189 
15 3 7 8 28 113 136 114 116 142 148 693 717 748 692 1190 
15 29 28 31 47 255 256 261 263 260 267 890 694 700 695 1191 
15 47 33 49 8 273 274 331 152 150 153 698 696 697 729 1192 
15 28 8 31 47 148 149 256 260 152 267 701 732 699 700 1193 
15 90 70 69 66 460 452 455 444 441 440 827 702 912 936 1194 
15 71 97 92 96 468 522 465 467 526 521 921 703 704 705 1195 
15 58 46 64 62 328 330 389 388 329 417 1023 706 707 1032 1196 
15 13 9 33 14 154 159 186 182 155 193 711 708 709 710 1197 
15 39 56 40 51 296 298 292 293 362 297 713 778 712 805 1198 
15 3 7 28 2 113 142 116 107 108 111 717 714 715 716 1199 
15 46 57 58 41 327 383 328 300 301 302 720 718 719 1012 1200 
15 90 50 48 70 360 336 341 460 359 339 998 721 1020 722 1201 
15 90 54 70 48 378 375 460 341 337 339 723 882 1018 722 1202 
15 58 43 64 42 311 314 389 306 303 307 1055 724 1059 1024 1203 
15 28 43 27 7 257 254 253 142 143 141 728 725 726 727 1204 
15 8 49 47 44 153 331 152 151 320 319 729 734 811 730 1205 
15 28 8 47 44 148 152 260 258 151 319 732 746 730 731 1206 
15 43 49 12 44 310 176 173 308 320 174 918 819 733 739 1207 
15 12 49 13 44 176 189 171 174 320 188 794 733 735 737 1208 
15 49 8 13 44 153 147 189 320 151 188 736 734 742 735 1209 
15 12 13 7 44 171 139 138 174 188 144 738 737 743 740 1210 
15 43 12 7 44 173 138 143 308 174 144 931 739 740 741 1211 
15 13 8 7 44 147 136 139 188 151 144 744 742 745 743 1212 
15 7 8 28 44 136 148 142 144 151 258 748 745 746 747 1213 
15 91 51 49 65 367 342 351 437 363 345 752 749 750 751 1214 
15 92 87 65 86 509 436 438 508 505 435 756 753 754 755 1215 
15 63 61 60 82 414 404 405 423 416 412 813 757 758 768 1216 
15 60 61 77 82 404 415 409 412 416 483 760 758 759 770 1217 
15 67 51 72 71 364 366 446 445 365 462 763 836 761 762 1218 
15 91 92 67 65 519 448 447 437 438 433 767 764 765 766 1219 
15 63 60 81 82 405 411 422 423 412 493 862 768 775 769 1220 
15 76 60 77 82 408 409 479 482 412 483 772 773 770 771 1221 
15 60 76 81 82 408 481 411 412 482 493 776 773 774 775 1222 
15 39 56 51 55 296 362 293 295 379 361 778 777 800 820 1223 
15 18 35 13 51 220 187 184 222 281 190 780 779 786 781 1224 
15 55 13 51 18 191 190 361 223 184 222 782 798 781 821 1225 
15 49 55 12 51 344 180 176 342 361 178 784 840 783 791 1226 
15 35 33 13 51 272 186 187 281 275 190 787 785 789 786 1227 
15 33 49 13 51 274 189 186 275 342 190 790 788 793 789 1228 
15 49 12 13 51 176 171 189 342 178 190 794 791 792 793 1229 
15 55 13 18 17 191 184 223 217 183 208 798 795 796 797 1230 
15 71 56 55 51 381 379 380 365 362 361 801 799 800 838 1231 
15 51 40 39 35 297 292 293 281 280 279 805 802 803 804 1232 
15 37 36 50 34 282 283 286 277 276 278 808 806 807 953 1233 
15 47 60 44 65 332 321 319 335 406 322 990 1039 815 810 1234 
15 49 47 44 65 331 319 320 345 335 322 811 809 810 817 1235 
15 47 61 60 63 333 404 332 334 414 405 814 812 813 1036 1236 
15 43 44 60 65 308 321 313 315 322 406 816 818 815 857 1237 
15 43 49 44 65 310 320 308 315 345 322 819 852 817 818 1238 
15 39 51 18 55 293 222 221 295 361 223 823 820 821 822 1239 
15 54 39 38 17 294 290 291 216 214 213 826 1029 824 825 1240 
15 90 70 95 69 460 461 517 455 452 458 867 827 828 829 1241 
15 49 12 54 85 176 179 343 348 181 377 830 917 906 878 1242 
15 71 49 54 70 347 343 376 459 346 375 871 831 832 833 1243 
15 51 91 71 67 367 464 365 364 447 445 837 834 835 836 1244 
15 49 55 51 71 344 361 342 347 380 365 840 872 838 839 1245 
15 6 43 26 42 133 251 129 132 303 250 843 1030 841 842 1246 
15 73 58 78 57 390 393 472 385 383 386 1093 844 897 845 1247 
15 37 22 17 38 236 210 212 285 237 213 849 846 847 848 1248 
15 43 49 65 86 310 345 315 317 349 435 852 850 851 856 1249 
15 59 43 60 86 312 313 398 403 317 413 854 938 855 853 1250 
15 60 43 65 86 313 315 406 413 317 435 857 855 856 858 1251 
15 63 60 65 86 405 406 421 424 413 435 1037 860 858 859 1252 
15 60 63 81 86 405 422 411 413 424 494 862 860 861 941 1253 
15 37 17 16 54 212 201 204 289 216 207 865 863 966 864 1254 
15 71 95 90 70 466 517 463 459 461 460 876 866 867 868 1255 
15 49 55 71 54 344 380 347 343 373 376 872 869 870 871 1256 
15 95 71 90 96 466 463 517 525 467 518 876 873 874 875 1257 
15 88 69 66 89 453 440 442 510 454 443 887 896 935 909 1258 
15 90 49 54 85 350 343 378 504 348 377 879 877 878 884 1259 
15 78 64 62 84 426 417 418 486 428 420 881 880 1033 1017 1260 
15 90 66 89 64 444 443 513 432 425 431 934 983 907 984 1261 
15 54 90 85 48 378 504 377 337 341 340 884 882 883 905 1262 
15 69 68 88 66 449 450 453 440 439 442 888 885 886 887 1263 
15 9 29 28 31 157 255 156 158 261 256 892 889 890 891 1264 
15 54 12 50 48 179 177 354 337 175 336 962 904 893 1019 1265 
15 88 69 89 94 453 454 510 512 457 514 896 894 924 895 1266 
15 78 58 62 57 393 388 418 386 383 384 1087 897 898 899 1267 
15 69 54 50 70 374 354 358 452 375 359 926 900 1021 915 1268 
15 90 86 91 49 506 507 515 350 349 351 903 901 902 949 1269 
15 12 54 85 48 179 377 181 175 337 340 906 904 905 1001 1270 
15 89 66 88 64 443 442 510 431 425 430 909 907 908 910 1271 
15 88 84 89 64 500 501 510 430 428 431 911 1082 985 910 1272 
15 69 70 50 66 452 359 358 440 441 356 915 912 913 914 1273 
15 49 43 12 85 310 173 176 348 316 181 918 916 1003 917 1274 
15 92 72 97 71 469 470 522 465 462 468 922 919 920 921 1275 
15 90 94 89 69 516 514 513 455 457 454 925 923 924 933 1276 
15 69 54 53 50 374 371 372 358 354 353 927 926 955 943 1277 
15 68 69 52 50 449 370 369 357 358 352 930 928 945 929 1278 
15 48 7 43 12 145 143 309 175 138 173 932 978 931 1000 1279 
15 69 90 66 89 455 444 440 454 513 443 936 933 934 935 1280 
15 59 43 86 85 312 317 403 402 316 503 938 1005 937 1069 1281 
15 60 80 86 81 410 492 413 411 489 494 942 939 940 941 1282 
15 69 53 52 50 372 368 370 358 353 352 946 943 944 945 1283 
15 90 71 49 91 463 347 350 515 464 351 950 947 948 949 1284 
15 50 37 34 16 286 277 278 205 204 203 953 951 952 974 1285 
15 54 16 53 50 207 206 371 354 205 353 956 964 954 955 1286 
15 46 32 30 6 269 264 265 134 131 130 959 957 958 1006 1287 
15 32 34 11 50 268 168 167 271 278 170 961 960 973 995 1288 
15 12 17 54 50 172 216 179 177 215 354 963 967 965 962 1289 
15 17 16 54 50 201 207 216 215 205 354 966 970 964 965 1290 
15 11 17 12 50 166 172 163 170 215 177 969 971 967 968 1291 
15 11 16 17 50 165 201 166 170 205 215 972 975 970 971 1292 
15 11 34 16 50 168 203 165 170 278 205 976 973 974 975 1293 
15 11 7 48 12 137 145 169 163 138 175 980 977 978 979 1294 
15 64 50 90 66 355 360 432 425 356 444 999 981 982 983 1295 
15 90 89 84 64 513 501 502 432 431 428 986 984 985 1013 1296 
15 85 59 58 80 402 387 397 491 401 395 1043 1067 1072 987 1297 
15 60 45 47 44 324 323 332 321 318 319 991 988 989 990 1298 
15 11 32 50 48 167 271 170 169 270 336 995 992 993 994 1299 
15 50 64 90 48 355 432 360 336 338 341 999 996 997 998 1300 
15 43 12 85 48 173 181 316 309 175 340 1003 1000 1001 1002 1301 
15 59 43 85 64 312 316 402 399 314 429 1005 1056 1004 1044 1302 
15 30 6 26 46 130 129 248 265 134 252 1009 1006 1007 1008 1303 
15 46 41 58 42 300 302 328 304 299 306 1012 1010 1011 1025 1304 
15 90 84 85 64 502 499 504 432 428 429 1015 1013 1048 1014 1305 
15 84 62 78 79 420 418 486 488 419 484 1017 1077 1089 1016 1306 
15 70 54 50 48 375 354 359 339 337 336 1021 1018 1019 1020 1307 
15 78 74 79 58 474 475 484 393 391 394 1022 1094 1041 1090 1308 
15 58 46 42 64 328 304 306 389 330 307 1025 1023 1064 1024 1309 
15 54 39 17 55 294 214 216 373 295 217 1029 1026 1027 1028 1310 
15 43 6 48 42 133 135 309 303 132 305 1031 1030 1052 1060 1311 
15 84 64 62 58 428 417 420 396 389 388 1033 1047 1032 1078 1312 
15 58 80 75 74 395 478 392 391 476 473 1071 1042 1034 1035 1313 
15 47 60 65 63 332 406 335 334 405 421 1039 1036 1037 1038 1314 
15 58 80 74 79 395 476 391 394 487 475 1042 1085 1040 1041 1315 
15 85 59 64 58 402 399 429 397 387 389 1044 1043 1057 1046 1316 
15 84 85 64 58 499 429 428 396 397 389 1048 1045 1046 1047 1317 
15 60 75 80 76 407 478 410 408 477 480 1073 1049 1050 1051 1318 
15 48 6 46 42 135 134 326 305 132 304 1054 1052 1053 1063 1319 
15 58 43 59 64 311 312 387 389 314 399 1058 1055 1056 1057 1320 
15 64 43 48 42 314 309 338 307 303 305 1061 1059 1060 1062 1321 
15 64 48 46 42 338 326 330 307 305 304 1065 1062 1063 1064 1322 
15 86 59 85 80 403 402 503 492 401 491 1069 1066 1067 1068 1323 
15 59 58 80 75 387 395 401 400 392 478 1072 1070 1071 1074 1324 
15 60 75 59 80 407 400 398 410 478 401 1076 1073 1074 1075 1325 
15 62 84 58 79 420 396 388 419 488 394 1078 1077 1084 1088 1326 
15 88 84 64 83 500 428 430 498 497 427 1082 1079 1080 1081 1327 
15 80 84 79 58 490 488 487 395 396 394 1086 1083 1084 1085 1328 
15 78 58 79 62 393 394 484 418 388 419 1090 1087 1088 1089 1329 
15 78 74 58 73 474 391 393 472 471 390 1094 1091 1092 1093 1330 

CELL_TYPES 236
24
24
24
24
24
24
24
24
24
24
24
24
24
24
24
24
24
24
24
24
24
24
24
24
24
24
24
24
24
24
24
24
24
24
24
24
24
24
24
24
24
24
24
24
24
24
24
24
24
24
24
24
24
24
24
24
24
24
24
24
24
24
24
24
24
24
24
24
24
24
24
24
24
24
24
24
24
24
24
24
24
24
24
24
24
24
24
24
24
24
24
24
24
24
24
24
24
24
24
24
24
24
24
24
24
24
24
24
24
24
24
24
24
24
24
24
24
24
24
24
24
24
24
24
24
24
24
24
24
24
24
24
24
24
24
24
24
24
24
24
24
24
24
24
24
24
24
24
24
24
24
24
24
24
24
24
24
24
24
24
24
24
24
24
24
24
24
24
24
24
24
24
24
24
24
24
24
24
24
24
24
24
24
24
24
24
24
24
24
24
24
24
24
24
24
24
24
24
24
24
24
24
24
24
24
24
24
24
24
24
24
24
24
24
24
24
24
24
24
24
24
24
24
24
24
24
24
24
24
24
24
24
24
24
24
24

POINT_DATA 1331
VECTORS displacement float
0 0 0
0 0 0
0 0 0
0 0 0
0 0 0
0 0 0
0 0 0
0 0 0
0 0 0
0 0 0
0 0 0
0 0 0
0 0 0
0 0 0
0 0 0
0 0 0
0 0 0
0 0 0
0 0 0
0 0 0
0 0 0
0 0 0
0 0 0
0 0 0
0 0 0
-0.0166003 -0.00934576 -0.00961163
-0.0126859 -0.00926151 -0.00481446
-0.0104513 -0.00974655 0.000104683
-0.0119588 -0.00952928 0.00472281
-0.0168662 -0.00958303 0.009536
-0.01196 -0.00434905 -0.0098512
-0.0118448 -0.00460676 0.00980562
-0.0108259 0.000442519 -0.00946457
-0.011268 9.93207e-05 0.0094297
-0.0107008 0.00491023 -0.00962041
-0.0109824 0.00472069 0.00987254
-0.0166491 0.00964784 -0.00928313
-0.0125526 0.00930205 -0.00452309
-0.0102077 0.00962907 0.000231162
-0.0117269 0.00947034 0.00473557
-0.0168196 0.00962744 0.00949186
-0.0251273 -0.012502 -0.012077
-0.0245602 -0.0138892 -0.00710759
-0.0239019 -0.0141223 -0.000256837
-0.0259326 -0.0140985 0.00683377
-0.0253046 -0.0126907 0.0124658
-0.0254194 -0.00730489 -0.0132659
-0.0255934 -0.00720226 0.0139025
-0.0242246 -8.3538e-05 -0.0140832
-0.0236792 -2.94161e-05 0.0143434
-0.0251172 0.00760575 -0.014374
-0.0248806 0.007216 0.0144058
-0.0249559 0.0133063 -0.0120294
-0.024996 0.0142072 -0.00665123
-0.0231858 0.0142281 0.000201241
-0.0255556 0.0138974 0.00709038
-0.0249991 0.0128162 0.0127323
-0.0330291 -0.0105706 -0.0101663
-0.0373424 -0.010604 -0.00501711
-0.0396627 -0.0101967 0.000289375
-0.0377535 -0.0102597 0.00497939
-0.0333075 -0.0106324 0.00991305
-0.037579 -0.00493852 -0.0113564
-0.037546 -0.00515426 0.0112354
-0.039794 0.00019013 -0.0107832
-0.039105 -0.000101193 0.010654
-0.0390862 0.00500054 -0.0106081
-0.0383081 0.0046123 0.010278
-0.0333448 0.00980372 -0.0100167
-0.0363829 0.00994897 -0.00482982
-0.0386183 0.0103593 0.00014951
-0.0370124 0.0102986 0.00494799
-0.0331432 0.00967223 0.00998577
-0.05 0 0
-0.05 0 0
-0.05 0 0
-0.05 0 0
-0.05 0 0
-0.05 0 0
-0.05 0 0
-0.05 0 0
-0.05 0 0
-0.05 0 0
-0.05 0 0
-0.05 0 0
-0.05 0 0
-0.05 0 0
-0.05 0 0
-0.05 0 0
-0.05 0 0
-0.05 0 0
-0.05 0 0
-0.05 0 0
-0.05 0 0
-0.05 0 0
-0.05 0 0
-0.05 0 0
-0.05 0 0
0 0 0
0 0 0
-0.00980314 -0.00576216 -0.0079712
-0.00555973 -0.00726521 -0.00479966
0 0 0
0 0 0
0 0 0
0 0 0
-0.00447526 -0.00730123 -0.00323557
0 0 0
0 0 0
-0.00470216 -0.00747925 -0.00184929
-0.00433962 -0.00709626 0.000164259
-0.00446262 -0.00722345 0.00207875
0 0 0
0 0 0
0 0 0
0 0 0
-0.00421567 -0.0071517 0.00319758
0 0 0
-0.00538169 -0.00727096 0.00460282
-0.00990763 -0.00585882 0.00780947
0 0 0
0 0 0
0 0 0
-0.00776836 -0.0041681 -0.00738587
-0.00420168 -0.00521946 -0.00477303
-0.00567759 -0.00262618 -0.00680976
-0.00406751 -0.000137152 -0.00732444
0 0 0
0 0 0
-0.00379036 -0.00498145 -0.00282404
-0.00396734 -0.00267515 -0.00484523
-0.00288543 -0.000703916 -0.00522765
-0.00996954 -0.00699555 -0.00486432
-0.0088316 -0.0073892 -0.00246493
-0.00977166 -0.0046051 -0.00722363
-0.00803181 -0.00217732 -0.00777722
0 0 0
0 0 0
0 0 0
0 0 0
-0.00343297 -0.00521193 -0.00143639
-0.00302307 -0.00506968 0.000137119
-0.00302509 -0.00490417 0.001604
-0.00840136 -0.00759097 -0.000185552
-0.00762194 -0.00779295 0.00276214
-0.00697463 -0.00226603 -0.00565676
0 0 0
0 0 0
-0.00324479 -0.00486509 0.00293867
-0.0037252 -0.00287184 0.00478934
-0.00309303 -0.00103117 0.00524016
-0.00841599 -0.00744879 0.00503778
-0.00936346 -0.0048362 0.00728318
-0.00856377 -0.00247695 0.00760758
0 0 0
0 0 0
-0.00398798 -0.0052558 0.00468268
-0.00775904 -0.00426028 0.00726897
-0.00549181 -0.00283157 0.00679702
-0.00419837 -0.000460212 0.00741379
0 0 0
0 0 0
-0.00402777 0.000594342 -0.00708656
0 0 0
0 0 0
0 0 0
0 0 0
-0.00289021 0.000516813 -0.00479209
-0.00268834 0.00166907 -0.00485465
-0.0071735 9.08084e-05 -0.00785225
-0.00721214 0.00296966 -0.00763338
0 0 0
0 0 0
-0.00779546 -0.00572212 -9.77555e-05
-0.00701104 -0.00562787 0.00271928
-0.00690038 9.0958e-05 -0.00576383
-0.0078917 4.35111e-06 0.00595366
-0.00662257 0.00287743 -0.00549127
-0.0074469 0.00264167 0.0056283
-0.00759573 0.00575242 9.86983e-05
-0.00708816 0.00549992 0.00287229
-0.0246431 -2.16082e-05 5.37596e-05
0 0 0
0 0 0
0 0 0
0 0 0
-0.00316243 0.000269489 0.00510841
-0.00294728 0.00153349 0.00517757
-0.00746968 -0.00546737 0.00510829
-0.00830996 -8.53521e-05 0.00778806
-0.00819699 0.00264528 0.00765891
-0.00716552 0.0055109 0.00520375
0 0 0
-0.00425675 0.000347595 0.00738144
0 0 0
0 0 0
0 0 0
-0.00435939 0.00138772 -0.00713212
-0.00444569 0.00301862 -0.00656183
-0.00735603 0.00404828 -0.00710633
-0.00410025 0.00503061 -0.0046451
0 0 0
0 0 0
-0.003105 0.00287997 -0.00463862
-0.00368889 0.00488368 -0.00271322
-0.00810463 0.00515159 -0.00724288
-0.00923573 0.00726502 -0.00466685
-0.00849226 0.00743196 -0.00230448
0 0 0
0 0 0
0 0 0
0 0 0
-0.00332022 0.00510216 -0.00135677
-0.00293336 0.0049509 0.000178423
-0.00298838 0.00491513 0.00164147
-0.00722913 0.00516676 -0.00529941
-0.00805056 0.00755016 5.33367e-05
-0.00749701 0.00777503 0.00288959
0 0 0
0 0 0
-0.00324768 0.00278469 0.00500626
-0.00319727 0.00472181 0.00296063
-0.00855517 0.0049427 0.00761106
-0.00804811 0.00753786 0.0051445
0 0 0
0 0 0
-0.00464148 0.00124183 0.00750947
-0.00465999 0.00291979 0.00690797
-0.00390155 0.00497474 0.00472906
-0.00753041 0.00401264 0.00720884
0 0 0
-0.00960603 0.00565511 -0.00775789
-0.00546086 0.00713678 -0.00460394
0 0 0
-0.00440465 0.00720917 -0.00312445
0 0 0
-0.00459514 0.00733861 -0.00172424
-0.00423173 0.00697464 0.000222172
-0.00440986 0.00717038 0.00211595
0 0 0
-0.00411205 0.00696096 0.00327038
-0.00524612 0.00701973 0.00459937
-0.0097689 0.0056236 0.00778454
-0.0144828 -0.00936149 -0.00755802
-0.013467 -0.00688696 -0.0100281
-0.0210739 -0.0112965 -0.0106878
-0.0194364 -0.00905317 -0.0111933
-0.0115029 -0.00952466 -0.00230786
-0.0110632 -0.00692712 -0.00752857
-0.0198002 -0.0111181 -0.00869173
-0.0184349 -0.0114204 -0.0062655
-0.0177652 -0.0116251 -0.0034735
-0.0177165 -0.00893315 -0.00886489
-0.0111778 -0.00952879 0.00241168
-0.0168942 -0.0118394 -0.000178081
-0.0143796 -0.00955798 0.00748311
-0.0107987 -0.00715104 0.00751522
-0.0172778 -0.012011 0.00300851
-0.0185794 -0.0117992 0.00609455
-0.0198125 -0.0114086 0.0089079
-0.0176583 -0.00913754 0.00911711
-0.0135164 -0.00713307 0.0100414
-0.0212995 -0.0115365 0.0109171
-0.0195814 -0.00922603 0.0114321
-0.011323 -0.00221107 -0.00964664
-0.0185131 -0.00611986 -0.0115787
-0.0113972 -0.0024406 0.00964807
-0.0185233 -0.00619911 0.0117807
-0.0106802 0.0025149 -0.00956094
-0.0173095 -0.00321865 -0.0118959
-0.0169224 0.000131217 -0.0119779
-0.0168977 0.00333919 -0.0120336
-0.011009 0.00228232 0.00976916
-0.0173658 -0.00322313 0.011964
-0.0170804 -8.31775e-05 0.0118711
-0.0170147 0.00306895 0.0120424
-0.0128625 0.00739951 -0.00976425
-0.0103826 0.00731568 -0.00722021
-0.0176262 0.00666771 -0.011783
-0.0103658 0.00719903 0.00753795
-0.0131497 0.00722313 0.0100858
-0.0177452 0.00629734 0.0119751
-0.0143976 0.00951504 -0.00719858
-0.0189981 0.00979073 -0.0110772
-0.0210375 0.0120553 -0.0103251
-0.0112839 0.00944933 -0.00206331
-0.0170468 0.00948336 -0.00880296
-0.0196006 0.0117071 -0.00837671
-0.0184418 0.0117319 -0.00582932
-0.0174415 0.0116915 -0.00301824
-0.0109535 0.00950585 0.00247033
-0.0164316 0.0118278 0.000136128
-0.0142413 0.00950465 0.00746506
-0.0172194 0.00921149 0.00931185
-0.0169037 0.011993 0.00319742
-0.0182213 0.0117547 0.00626565
-0.0195616 0.0114592 0.00903205
-0.0192605 0.00934449 0.0116027
-0.0211188 0.0116484 0.0109921
-0.0246516 -0.0125242 -0.0100736
-0.0250523 -0.010303 -0.0126593
-0.0289636 -0.0114087 -0.0113174
-0.0296873 -0.0113634 -0.00925343
-0.0241696 -0.0139811 -0.00386209
-0.0244816 -0.0103754 -0.0102368
-0.0242407 -0.00701869 -0.0103398
-0.0309172 -0.0115991 -0.0065391
-0.0324611 -0.00635815 -0.00951232
-0.0242365 -0.0143454 0.00335638
-0.0241801 -0.00700017 -0.00671058
-0.0243104 -0.0068792 0.00682
-0.0315442 -0.0118264 -0.00343774
-0.0323491 -0.0118723 3.30956e-05
-0.0317431 -0.0122893 0.00336022
-0.0333402 -0.00634761 -0.00646259
-0.0340263 -0.00644504 0.00680303
-0.0420669 -0.0057302 0.000202933
-0.0420679 -0.00557145 0.00284584
-0.0252568 -0.0127577 0.010178
-0.0252057 -0.0104574 0.0105545
-0.024611 -0.00692219 0.0106569
-0.0321602 -0.0115824 0.0065499
-0.033147 -0.00652042 0.00984424
-0.0252716 -0.0104163 0.0131328
-0.0303095 -0.0114518 0.00907986
-0.0292205 -0.0116393 0.0110935
-0.0244481 -0.00386002 -0.0137107
-0.0303087 -0.00918967 -0.0116399
-0.0312686 -0.0090967 -0.00936353
-0.0310992 -0.00648501 -0.0119113
-0.0320664 -0.00352037 -0.0121842
-0.0243202 -0.00375886 0.0141303
-0.0320131 -0.00924188 0.00940933
-0.0306686 -0.00939305 0.0115603
-0.0311715 -0.00669958 0.0120536
-0.0318695 -0.00367167 0.0125844
-0.0245967 0.00380111 -0.014147
-0.024101 0.00709518 -0.00643313
-0.0325499 -0.000197772 -0.0122507
-0.0337911 0.00665998 -0.00616514
-0.0418724 0.000147919 -0.00600324
-0.0417702 0.00261374 -0.0057792
-0.0239748 0.00373215 0.0143232
-0.0242537 0.00682157 0.00671331
-0.0240689 0.00706193 0.010605
-0.0322163 -0.000402581 0.012823
-0.0339626 0.00659933 0.00630567
-0.0332176 0.0065599 0.00974866
-0.0422234 -6.01341e-05 0.00609162
-0.0419337 -0.00036738 0.00828403
-0.0425065 0.00233533 0.00613412
-0.0416783 0.00210336 0.00835113
-0.0248389 0.0109946 -0.0129217
-0.0245446 0.0110862 -0.0102479
-0.0240933 0.0109701 -0.00673451
-0.0323241 0.00353474 -0.0118714
-0.0324375 0.00671089 -0.0117859
-0.0306345 0.00982141 -0.0113093
-0.0318965 0.00965454 -0.00899504
-0.0329161 0.00980783 -0.00612389
-0.0412993 0.00525168 -0.00535697
-0.0251461 0.0103576 0.010735
-0.0249654 0.010503 0.0134558
-0.03198 0.00304591 0.0126859
-0.0318 0.00630555 0.0122688
-0.0320637 0.00954456 0.00948842
-0.0305511 0.00941582 0.0117682
-0.0407906 0.00483235 0.00802847
-0.0247161 0.013347 -0.00982911
-0.0287729 0.012182 -0.0106297
-0.0296041 0.0118219 -0.00867691
-0.0238998 0.01421 -0.00338184
-0.0310411 0.0121338 -0.00628539
-0.0239046 0.0141992 0.00371819
-0.0311666 0.0124431 -0.00315904
-0.0314726 0.0127764 0.000188111
-0.0316983 0.012158 0.00358484
-0.0410234 0.00579147 4.35791e-05
-0.040149 0.00793198 8.35341e-05
-0.0251232 0.0128368 0.0103964
-0.0320604 0.0116143 0.00670435
-0.0301609 0.0114722 0.00918373
-0.0288628 0.0117148 0.0111421
-0.0350791 -0.0105009 -0.00808797
-0.0359833 -0.00790365 -0.0110153
-0.0395949 -0.00621072 -0.0085749
-0.0417297 -0.00477272 -0.00820199
-0.0386634 -0.0104728 -0.00237792
-0.038233 -0.00792016 -0.00841128
-0.0395601 -0.00530594 -0.00830135
-0.0441245 -0.00766115 -0.00533226
-0.0454481 -0.00757455 -0.00372015
-0.0451095 -0.00788518 -0.00219924
-0.0454462 -0.00573405 -0.00567385
-0.0462498 -0.00547207 -0.00377372
-0.0464599 -0.00582145 -0.00184452
-0.0466138 -0.00345993 -0.00364855
-0.0470376 -0.00364946 -0.00173813
-0.0387688 -0.0103392 0.00280617
-0.0408004 -0.0053092 -0.00548932
-0.045389 -0.0075901 6.60177e-05
-0.0467351 -0.00585479 9.42286e-06
-0.0473522 -0.0041338 -1.08946e-05
-0.0472652 -0.00432665 0.00149529
-0.0354579 -0.0104268 0.00788196
-0.0385985 -0.00795491 0.0082908
-0.0399388 -0.00549119 0.00819494
-0.0450422 -0.00803513 0.00222527
-0.0455909 -0.00749735 0.00361713
-0.044247 -0.00766834 0.00512272
-0.0465237 -0.00591752 0.00177608
-0.0464156 -0.00541419 0.00362087
-0.0455677 -0.00574443 0.00547156
-0.0468937 -0.00341145 0.00344177
-0.036211 -0.00808137 0.0108275
-0.0398195 -0.00628083 0.00832775
-0.0419207 -0.00484954 0.00795613
-0.0387029 -0.00229025 -0.0110975
-0.0445661 -0.00331513 -0.00770939
-0.0461732 -0.00329975 -0.00589219
-0.0465296 -0.00155582 -0.00571381
-0.0384277 -0.00253908 0.0109846
-0.0463286 -0.00337909 0.00555535
-0.044673 -0.00344709 0.0073984
-0.0467097 -0.00164754 0.00528622
-0.0393289 0.00293482 -0.0105342
-0.0451215 -0.00118446 -0.00821685
-0.0458468 -0.000216454 -0.00795855
-0.0468508 -9.99817e-05 -0.00617042
-0.0471651 0.000229698 -0.00434785
-0.0457702 0.000728558 -0.00820823
-0.046734 0.00139586 -0.00653127
-0.0471712 0.00159317 -0.00484715
-0.0384898 0.00250706 0.0103979
-0.0452525 -0.00119244 0.00773101
-0.0467715 1.30585e-05 0.00531155
-0.0458094 -0.000389303 0.00754039
-0.0469959 0.00103273 0.00565327
-0.0457659 0.000322224 0.00775444
-0.0366994 0.00747052 -0.0104544
-0.0387043 0.00745522 -0.00802779
-0.0398999 0.00767983 -0.00521313
-0.0444526 0.00315353 -0.00770927
-0.0459839 0.00330952 -0.00600866
-0.0465969 0.00333237 -0.00416594
-0.0388946 0.00739828 0.00806833
-0.036486 0.00719283 0.010554
-0.0463494 0.00276585 0.00528444
-0.0445308 0.00262803 0.00725066
-0.0348598 0.009746 -0.00779287
-0.0420314 0.00462119 -0.00826739
-0.0398594 0.00599589 -0.00872166
-0.037778 0.0102272 -0.00228569
-0.0453489 0.00555903 -0.00577076
-0.0461092 0.00538985 -0.00398194
-0.0464348 0.00520181 -0.00217359
-0.0439173 0.00757222 -0.00559072
-0.0450869 0.00774637 -0.0037911
-0.0450671 0.00757612 -0.00233242
-0.0379342 0.0105885 0.00240351
-0.0458962 0.00494775 1.8351e-05
-0.0450159 0.00717327 6.80381e-05
-0.0351224 0.00968791 0.00791686
-0.0465209 0.00472938 0.00204614
-0.0462077 0.00482141 0.00393157
-0.0456736 0.00516567 0.00554938
-0.0452721 0.00719066 0.00247023
-0.0454967 0.0072053 0.00372959
-0.0442772 0.00719399 0.00543647
-0.0421172 0.00410937 0.00804406
-0.0398898 0.00561994 0.00858958
-0.05 0 0
-0.05 0 0
-0.05 0 0
-0.05 0 0
-0.05 0 0
-0.05 0 0
-0.05 0 0
-0.05 0 0
-0.05 0 0
-0.05 0 0
-0.05 0 0
-0.05 0 0
-0.05 0 0
-0.05 0 0
-0.05 0 0
-0.05 0 0
-0.05 0 0
-0.05 0 0
-0.05 0 0
-0.05 0 0
-0.05 0 0
-0.05 0 0
-0.05 0 0
-0.05 0 0
-0.05 0 0
-0.05 0 0
-0.05 0 0
-0.05 0 0
-0.05 0 0
-0.05 0 0
-0.05 0 0
-0.05 0 0
-0.05 0 0
-0.05 0 0
-0.05 0 0
-0.05 0 0
-0.05 0 0
-0.05 0 0
-0.05 0 0
-0.05 0 0
-0.05 0 0
-0.05 0 0
-0.05 0 0
-0.05 0 0
-0.05 0 0
-0.05 0 0
-0.05 0 0
-0.05 0 0
-0.05 0 0
-0.05 0 0
-0.05 0 0
-0.05 0 0
-0.05 0 0
-0.05 0 0
-0.05 0 0
-0.05 0 0
-0.0400106 0.00847265 -0.00820381
-0.0430615 0.00342264 -0.00688095
-0.0215318 -0.0121703 0.00843196
-0.0462503 0.00652479 -0.00328121
-0.05 0 0
-0.0467483 0.00469462 -0.00480964
0 0 0
-0.05 0 0
0 0 0
-0.0147691 0.0110083 -0.00172787
-0.05 0 0
-0.0460908 -0.000367393 0.00469544
-0.0184221 0.0111238 -0.00861919
-0.0214397 0.0112178 -0.0113492
-0.05 0 0
-0.0428268 -0.00248521 0.00900504
-0.0479974 -0.00138855 0.00450561
-0.00954854 -0.00806433 -0.00743035
-0.00649664 -0.00326583 -0.00623738
-0.0193009 -0.00237806 -0.0126775
-0.0327193 -0.00790727 -0.0114703
-0.0217293 -0.0103924 -0.0114257
-0.018562 -0.0105695 -0.00899684
-0.00631754 0.00830508 0.00146554
-0.00198914 -0.00328048 -0.00302523
-0.0168279 -0.00748492 -0.0108658
-0.0169166 -0.00916433 -0.00915665
0 0 0
-0.0480561 -0.000821086 0.00470881
-0.05 0 0
-0.0469782 -0.00104841 0.00636799
-0.0081493 0.00468774 -0.00814764
0 0 0
-0.00287264 -0.00446746 -0.00412476
-0.00333871 -0.0061656 -0.00269178
-0.0023723 -0.00462019 -0.00302123
-0.0211489 0.0124004 -0.0080096
-0.0204795 0.0108908 -0.0100301
-0.00341141 -0.00221196 -0.00428129
-0.05 0 0
-0.00483814 -0.00506199 -0.00112908
0 0 0
-0.00280627 0.00116486 -0.00598778
0 0 0
-0.0335862 0.00815583 -0.0110863
-0.0415298 0.00509924 0.00383804
-0.019864 -0.0127417 0.00414602
-0.0411018 0.00455117 0.00904443
-0.0312571 0.0109266 0.00943917
-0.028262 0.0107658 0.0120011
-0.0196197 0.0109327 -0.00827126
-0.00690684 -0.0018198 -0.00850467
-0.0026148 -0.00192466 -0.0040113
-0.00838705 0.00462494 0.00834438
0 0 0
-0.00318578 -0.00606149 0.00258108
0 0 0
-0.00222423 -0.00455298 0.00291002
-0.05 0 0
-0.00775511 0.00620294 -0.00700512
-0.00949365 0.00799603 -0.0071586
-0.00619421 0.00311956 -0.00606479
-0.00277784 0.00429643 -0.0039901
-0.00321459 0.00598043 -0.00258214
-0.0022693 0.00440443 -0.00290138
0 0 0
0 0 0
-0.00189342 0.00212058 -0.00385029
-0.00190302 0.00304573 -0.00296137
-0.00608106 0.00506312 -0.00644485
0 0 0
0 0 0
-0.0018717 -0.000736722 -0.00440387
0 0 0
-0.00180277 -2.94645e-05 -0.00448184
-0.00178491 0.000446929 -0.00430578
-0.00275851 -0.00024492 -0.00604942
0 0 0
-0.00305228 0.00107952 0.00636547
-0.0211814 -0.0118461 -0.00836264
-0.019897 -0.0104279 -0.00844531
-0.020815 -0.0102432 -0.010079
-0.00628089 0.00309474 0.00603419
-0.00769846 0.00617132 0.0071271
-0.00948785 0.00791855 0.00722481
-0.0343288 0.00397745 0.0118218
0 0 0
-0.0020702 0.00428186 -0.00208024
0 0 0
-0.00216482 0.00483357 -0.00129951
-0.00316098 0.00629497 -0.0018131
-0.0484207 0.000446665 0.00366703
0 0 0
-0.00326081 -0.00642497 -0.00191396
-0.0118337 0.00821952 0.00208752
-0.00647123 0.00233856 0.00865365
-0.0019042 0.00127535 0.00444384
-0.00197924 0.000838802 0.00471796
-0.00651473 -0.00858163 -0.00113499
-0.00201442 -0.00468015 -0.000665671
-0.0068634 -0.00213049 0.00857004
0 0 0
-0.001837 0.00432487 0.000957936
-0.00293609 0.00595775 0.00206727
0 0 0
-0.00194504 0.00448039 0.00153597
-0.00154362 0.00320358 0.00129739
-0.00188764 0.0040167 0.00220682
-0.00905132 -0.00820465 -0.0015755
-0.0150933 -0.0110182 -0.00207982
-0.00516733 -0.00686656 -0.0012046
-0.00628441 0.00252159 -0.0082499
-0.00176099 0.00133748 -0.00409867
-0.00181128 0.000922901 -0.00436868
-0.00610293 0.00498162 0.0066537
-0.00199404 0.0020712 0.0041159
-0.00506082 0.00488966 0.00525275
-0.00181281 0.00299815 0.00300643
0 0 0
-0.00266025 0.00420283 0.00393413
-0.00303998 0.00580052 0.00260178
-0.00212304 0.00427542 0.00291326
-0.00187587 -0.00329523 0.00293618
-0.00247278 -0.00207981 0.00395864
-0.00275155 -0.00444507 0.00394986
-0.0064626 -0.00331602 0.00607807
-0.00957137 -0.008139 0.00724861
-0.0478379 0.00416748 0.00270005
-0.05 0 0
-0.00334773 0.00448719 0.00151819
0 0 0
-0.00319059 0.00323564 0.00304151
-0.0433655 0.00496218 0.00741489
-0.0478358 0.00316429 0.00378181
-0.00894531 -0.00447283 -0.00844508
-0.00666493 -0.00489477 -0.00674684
-0.0124562 -0.00767689 -0.00856279
-0.00804922 -0.00622969 -0.00728228
-0.0315911 -0.0110499 0.00939004
-0.028456 -0.0105968 0.0117649
-0.0414568 0.000129759 -0.00742072
-0.00195238 -0.00100272 0.0044971
-0.0015978 -0.000371827 0.0033898
0 0 0
-0.0468638 -0.000989884 -0.00671654
-0.05 0 0
-0.00846646 -0.00121876 -0.00858022
-0.00352845 -0.000934908 -0.00566168
-0.00146114 -0.00015865 -0.00329218
-0.00993465 0.0078996 -0.0046357
-0.0197251 0.012592 -0.0042612
-0.0153808 -0.00400249 0.011193
-0.00529786 -0.00216163 0.00691726
0 0 0
-0.00175838 -0.00347129 -0.00103187
-0.00213035 -0.00439263 -0.00216312
-0.00221848 -0.00492997 -0.00135862
-0.05 0 0
-0.05 0 0
-0.0465909 0.00643859 -0.00234522
-0.00639517 -0.00838752 0.00143211
-0.00188629 -0.0042449 0.000153867
-0.0186175 -0.0108322 0.0091461
-0.0209415 -0.0104381 0.0104526
-0.0219194 -0.010602 0.0117768
-0.00195152 -0.00416753 0.00217888
0 0 0
-0.0169152 -0.00941048 0.00934394
-0.0169283 -0.00765543 0.0110494
-0.00941619 -0.00320796 0.00825846
-0.00892549 -0.00150345 0.00839024
-0.0193612 -0.00232032 0.0127501
-0.00991988 -0.00480408 0.00804192
-0.0153968 -0.00761976 0.00947553
-0.00538025 -0.00500369 0.00520179
-0.0448036 0.005274 -0.00317932
-0.046594 0.00610756 0.00314961
-0.05 0 0
-0.0475182 0.00456938 0.00355414
-0.0335384 -0.00786174 -0.00991737
-0.0339436 -0.00418359 -0.0117452
0 0 0
-0.00291661 -0.000534619 0.00624937
-0.00193938 0.000290871 0.00462166
-0.00190854 -0.000245318 0.0046482
-0.0216657 0.0107312 0.0119964
-0.0184164 0.0109043 0.00921667
0 0 0
-0.00186652 -0.00434512 0.000936317
-0.00298202 -0.00601368 0.00202823
-0.00196246 -0.00447956 0.00149897
-0.0281304 -0.0103855 -0.011807
-0.0311124 -0.010978 -0.00966327
-0.0324319 -0.00962656 -0.00974054
-0.0406541 0.00687906 -0.00353718
-0.0410995 0.00525515 -0.00361753
-0.0398291 0.00871453 9.98549e-05
-0.029137 -0.0123797 -0.00475427
-0.00863913 -0.00820994 0.00173129
-0.00882317 -0.00823798 7.63872e-05
-0.00489394 -0.00668696 0.00145014
-0.0148506 -0.0111528 0.00183216
-0.0135542 -0.00392385 0.00981059
-0.0138538 -0.00776868 0.00777949
-0.0201442 -0.0106152 0.00862886
-0.00962626 -0.00644704 0.00651614
-0.0119435 -0.00399825 0.00633263
-0.0130379 -0.005815 0.00803602
-0.0123065 -0.00404013 0.00816582
-0.00445853 -0.0013409 0.00520661
-0.0032111 -0.00315273 0.0029338
0 0 0
-0.0119689 -0.00828094 0.00185839
-0.00336602 -0.00449108 0.00135431
-0.0127875 -0.0098126 0.00177018
-0.00387858 -0.00402147 0.00389673
-0.00331903 -0.00440608 0.00254707
0 0 0
-0.00377104 -0.00542249 0.0028094
-0.00931877 -0.0081437 0.00490172
-0.00858792 -0.00837561 0.00339822
-0.00154949 -0.00318736 0.00129409
-0.0406656 0.00311934 0.00885819
-0.0293571 0.00215275 0.0133097
-0.0411809 0.00127333 0.00923358
-0.0361305 0.00390496 0.010303
-0.05 0 0
-0.0481002 -0.000284332 0.00468795
-0.0480558 0.000253174 0.00492785
-0.047022 0.000431427 0.00646499
-0.0407637 -0.00539881 0.0091686
-0.0417931 -0.00712698 0.00788083
-0.0431821 -0.00363228 0.00654075
-0.040102 -0.00876753 0.00781634
-0.0329428 0.00963981 0.00970868
-0.0374146 0.00801141 0.00904973
-0.0331809 0.00783676 0.0114659
-0.0480638 0.000899011 0.00468327
-0.0430468 0.00199916 0.00900017
-0.0447906 0.00212418 0.0073732
-0.0475517 0.00191454 0.00432793
-0.0431135 -0.00577775 0.00746977
-0.0476776 -0.00245937 0.00449423
-0.0469375 -0.00479973 0.00443167
-0.05 0 0
-0.0465612 -0.00635072 0.00291301
-0.0475507 -0.0048292 0.00334362
-0.05 0 0
-0.0478347 -0.00350841 0.00364184
-0.0478893 -0.00450606 0.00252658
-0.021255 0.012183 0.00858848
-0.020633 0.0105277 0.0106884
-0.00921949 0.00481435 0.00829814
-0.00153179 0.00117832 0.00330666
-0.00429248 0.00265619 0.00523106
-0.0122068 0.00600023 0.00823208
-0.0118701 0.00590093 0.00635963
-0.0121016 0.00390963 0.00631522
-0.0149964 0.00380935 0.0112193
-0.00867545 0.00329827 0.0084083
-0.00501904 0.00137174 0.00689395
-0.019235 0.00217784 0.0127092
-0.0088655 0.00162782 0.0082276
-0.00874372 2.21855e-05 0.00834732
-0.0120142 0.00196885 0.00845085
-0.0040439 0.00158438 0.00433679
-0.0127736 0.00196332 0.00988509
-0.00455964 5.2334e-06 0.00451895
-0.00329905 0.00448426 0.00271211
0 0 0
-0.00373978 0.00545858 0.00287954
-0.00369362 0.00409406 0.00404041
-0.0291325 0.0105995 0.0107015
-0.024996 0.0113437 0.0115162
-0.0288974 0.012021 0.0088095
-0.0164798 0.00776639 0.0111954
-0.0120623 0.00790007 0.00853421
-0.0148213 0.00776125 0.00963655
-0.016601 0.00952514 0.00947375
-0.0119972 0.00801577 -0.00821554
-0.0162002 0.00813326 -0.0108057
-0.0164741 0.00976029 -0.0089257
-0.0294116 -0.00270712 0.0132218
-0.0302274 -0.00679972 0.0111486
-0.0245699 -0.00696969 0.0118666
-0.032953 -0.00814573 0.0114036
-0.0372729 -0.00872875 0.00923841
-0.0329412 -0.00973173 0.00960119
-0.0354045 -0.0080721 0.00830702
-0.0295471 -0.0125293 0.00462625
-0.0302643 -0.00461742 0.0112687
-0.0307497 -0.00894511 0.00704866
-0.0244371 -0.00932356 0.00692281
-0.0198643 0.0105897 0.00882583
-0.0131297 0.00776823 0.00808367
-0.00902937 0.0081561 0.00497762
-0.00903352 0.00650798 0.0066659
-0.00480319 0.00665768 0.00148327
-0.00851558 0.0081666 0.00023001
-0.0145025 0.0111579 0.00201134
-0.0442375 0.00688834 -0.00153941
-0.0429474 0.00867702 -0.00141539
-0.0478863 0.00460311 -0.00109622
-0.0125061 0.0040142 0.00415459
-0.0359847 0.00818029 0.00609023
-0.0306609 0.00898486 0.00434616
-0.0337991 0.011839 0.00219901
-0.0401786 0.00481148 0.00863669
-0.0443565 0.00503664 0.00602033
-0.0345576 0.00783143 0.0100008
-0.0400616 0.00666028 0.00724628
-0.0300769 0.0106149 0.00903807
-0.0304149 0.00693227 0.0112435
-0.0242463 0.00711206 0.0118566
-0.0199869 -0.0123738 -0.00470857
-0.010392 -0.00774519 -0.00486994
-0.00974202 -0.00807388 -0.00323703
-0.0398883 -0.00875642 -0.00808149
-0.0429937 -0.00355524 -0.00670606
-0.00639744 0.00840349 -0.000998349
-0.00182655 0.00414457 0.000186753
-0.00498882 0.00672251 -0.00109197
-0.001938 0.00452782 -0.00060268
-0.0370909 -0.00420537 0.00653262
-0.0412154 -0.000304895 0.00901127
-0.0307096 -0.00447969 0.00917296
-0.0450439 -0.00595786 0.00276364
-0.0345089 -0.0115266 0.00219955
-0.0412359 -0.0070503 0.00357464
-0.0416542 -0.00374927 0.00553574
-0.0359028 -0.00809059 0.00646018
-0.0452316 -0.00293418 0.00569123
-0.0447158 -0.00128337 0.00726597
-0.0447857 -0.00424899 0.00576773
-0.0482682 -0.00161578 0.00345697
-0.0443285 -0.00568356 0.00599865
-0.00866687 0.00816805 -0.00137075
-0.00943235 0.00813291 -0.00306342
-0.0016987 0.00340393 -0.000983382
-0.0430077 0.0085846 0.00156628
-0.0476614 0.00431929 2.1275e-05
-0.044273 0.00676393 0.00155281
-0.0240814 0.00929873 0.00698302
-0.0296705 0.0127087 0.00477382
-0.0302908 0.0090411 0.00672218
-0.0301027 0.00899016 0.0089844
-0.0469071 0.00586561 0.00249055
-0.048012 0.00421669 0.00185629
-0.05 0 0
-0.047982 0.00425521 0.00114263
-0.0466668 0.00134826 0.00370218
-0.0370503 0.00424322 0.00410571
-0.0368091 0.00623863 0.00410624
-0.0479332 -0.000806191 -0.00518368
-0.0427828 -0.00233417 -0.00940561
-0.036542 0.00634198 -0.00393837
-0.046097 0.0014385 -0.00365637
-0.0445042 0.00440124 4.01347e-05
-0.0373257 0.00820016 -0.00894708
-0.0411452 0.00503908 -0.00928985
-0.0432663 0.00544231 -0.00771844
-0.041557 0.00667683 -0.00818007
-0.00886706 -0.00467212 0.00837301
-0.0123671 -0.00788924 0.00852804
-0.00648419 -0.00505106 0.00666361
-0.00791741 -0.00635604 0.00715311
-0.0113558 0.00219608 -0.00829074
-0.0472757 0.00496016 -0.00364878
-0.05 0 0
-0.0476546 0.00355777 -0.00392954
-0.0415792 -0.00709232 -0.00812956
-0.0369307 -0.00867371 -0.00942722
-0.0406003 -0.00528963 -0.00942612
-0.0336312 0.0118877 -0.00186876
-0.0465523 0.000783168 0.0051561
-0.0461071 0.000743882 0.00614113
-0.05 0 0
-0.0122072 0.00427583 -0.0039572
-0.0367584 0.0043151 -0.00401658
-0.0245887 0.00378713 4.90915e-05
-0.0445297 0.0027217 -0.00805136
-0.0433611 0.00248778 -0.00949926
-0.047252 0.00231548 -0.00489453
-0.0478735 0.00117393 -0.00535184
-0.05 0 0
-0.0390403 0.00843526 -0.00518817
-0.0355149 0.00820137 -0.00772402
-0.0345233 0.00810561 -0.00945149
-0.034527 0.0100603 -0.00578634
-0.0372949 -0.00415362 0.00452008
-0.0246878 1.1174e-06 0.00387955
-0.0125688 -0.00400181 0.00410413
-0.041807 0.00629441 0.00796099
-0.0401682 0.00809734 0.0081032
-0.0470028 0.00433069 0.00463219
-0.0432675 0.00306869 0.00670652
-0.0477193 0.0048726 -0.00186166
-0.0476297 0.0046295 -0.00274441
-0.05 0 0
-0.0297041 0.0112189 -0.00646876
-0.0289456 0.0129827 -0.00447763
-0.0328197 0.00986953 -0.00922542
-0.0281795 0.0112396 -0.0114819
-0.0309299 0.0112352 -0.00902322
-0.00452316 -0.00425368 -0.000197214
-0.0119838 -0.00612401 -0.00407663
-0.0480889 0.00354036 -0.00204943
-0.0479285 0.0024746 -0.00330747
-0.0442033 0.00552259 -0.00623783
-0.0445398 0.00539977 -0.0046531
-0.0459931 -0.00318736 0.00163918
-0.0417118 -0.00721003 0.00181229
-0.0481535 -0.00405912 0.00171805
-0.05 0 0
-0.0483117 -0.00264543 0.00263672
-0.0484159 -0.00301646 0.00171517
-0.0294211 0.0111291 -0.00843603
-0.0247054 0.011954 -0.0109609
-0.0288334 0.0109666 -0.0101544
-0.0282076 0.0125456 -0.00829999
-0.0481727 0.00281585 0.00200487
-0.0408748 0.00503182 0.00721638
-0.0464203 0.00224294 0.00491302
-0.041924 0.00524768 0.00574238
-0.0094053 0.00655828 -0.00630693
-0.00524515 0.00494192 -0.00502776
-0.0146636 0.00801438 -0.00922173
-0.0135048 0.00796042 -0.0075939
-0.0240282 0.0121662 -0.0067351
-0.0134309 0.00968854 -0.00373773
-0.00932795 -0.00299198 -0.00830216
-0.00525015 -0.00187442 -0.00693144
-0.0153554 -0.00390849 -0.0111563
-0.0146796 0.00413842 -0.0111816
-0.00467266 0.00159253 -0.00661088
-0.0115507 0.00649397 -0.0039388
-0.00428218 0.00434515 4.3975e-06
-0.0127395 0.00812945 -0.00570448
-0.0120705 0.00819304 -0.00391645
-0.00446835 0.00509817 -0.00106977
-0.00310562 0.00286527 -0.00306112
-0.00312775 0.00149291 -0.00434203
0 0 0
-0.00377096 0.0038853 -0.00382398
-0.00319616 0.00261056 -0.0042648
0 0 0
-0.00808913 0.00350421 -0.00829567
-0.00884409 0.00500486 -0.00797971
-0.00355413 0.00283594 -0.00531456
-0.0014062 0.00128791 -0.00305891
0 0 0
-0.00309683 -0.00121493 -0.0033922
-0.00324217 0.000291517 -0.00458366
-0.00319146 -0.000802682 -0.00470489
-0.0348092 0.00438739 -0.011384
-0.0409538 0.00525597 -0.00698153
-0.0451694 0.00282726 -0.00646914
-0.048398 0.00157368 -0.00371461
-0.0482452 0.000529629 -0.00464943
-0.05 0 0
-0.0484846 -0.00291837 -0.000910015
-0.0289719 -0.0120294 0.00867978
-0.0251751 -0.0113307 0.0113052
-0.0300648 -0.0106418 0.00885476
-0.029192 -0.0104094 0.0104812
-0.00805995 0.000309867 -0.00836699
-0.0192717 0.00234015 -0.0127551
-0.0123414 0.00209404 -0.00988591
-0.00824409 0.00192912 -0.0081549
-0.0298681 0.0023977 -0.0126099
-0.0415271 0.0017398 -0.00764658
-0.0367947 0.0042773 -0.00807868
-0.0414865 0.00361344 -0.00728707
-0.0119153 -0.00420198 -0.00400646
-0.0244696 2.28068e-05 -0.00374109
-0.0366953 -0.00408051 -0.0042583
-0.0244322 -0.00380193 6.42419e-05
-0.0416625 -0.0036112 -0.00383122
-0.0416482 -0.00702374 0.000156478
-0.010174 -0.00455225 -0.00806436
-0.0103341 -0.00617493 -0.00644753
-0.015553 -0.00741449 -0.00928097
-0.0057889 -0.00485638 -0.00522874
-0.0246844 -0.0111437 -0.010992
-0.0280558 -0.0119619 -0.00870614
-0.0285991 -0.0102538 -0.0104887
-0.0484325 0.000706545 -0.00374146
-0.0486352 0.000966979 -0.00276337
-0.05 0 0
-0.05 0 0
-0.0478852 -0.0012826 -0.00485713
-0.030415 0.00916145 -0.00407298
-0.0242013 0.00734677 -0.00896711
-0.0309889 0.0070242 -0.00864619
-0.0298937 0.0112519 -0.00423936
-0.05 0 0
-0.0344197 -0.00604356 -0.0100387
-0.0345863 -0.00790803 -0.00818272
-0.0290093 -0.0104723 -0.00879791
-0.0194639 0.0127191 0.00440642
-0.00840395 0.00838568 0.0034765
-0.0124655 0.00984738 0.00205438
-0.00842569 0.00822808 0.00184653
-0.0138334 -0.00956819 -0.00405514
-0.0125886 -0.00607651 -0.00591847
-0.0391543 -0.00520657 -0.00939102
-0.0446997 -0.00124397 -0.0077952
-0.05 0 0
-0.0466532 -0.00649702 -0.00233847
-0.0340143 -0.00801726 0.00992007
-0.0394059 -0.00542393 0.00927383
-0.0337848 -0.00442188 0.0118793
-0.0348345 -0.00623788 0.0101793
-0.05 0 0
-0.0478267 -0.00452035 -0.00260085
-0.0477848 -0.00505589 -0.00176646
-0.0451062 -0.00593803 -0.00137234
-0.0457821 -0.00317943 -0.00289214
-0.0485832 -0.0016997 -0.00182749
-0.0454249 -0.00284345 -0.00443945
-0.0449384 -0.00271767 -0.00599899
-0.0484833 -6.47637e-05 -0.00334832
-0.046629 -0.00661714 0.00230202
-0.05 0 0
-0.0477757 -0.00519654 0.00171514
-0.0136266 -0.0058278 -0.0077408
-0.0144018 -0.0075903 -0.00758924
-0.0136362 -0.00380794 -0.00968865
-0.0351531 -0.00798845 -0.0062391
-0.0358719 -0.00793825 -0.00424769
-0.0399465 -0.00706606 -0.00546388
-0.03428 -0.0114296 -0.00194697
-0.0300467 -0.0087625 -0.00679445
-0.0242469 -0.00940053 -0.00691101
-0.0305528 -0.00452586 -0.00876358
-0.0299142 -0.00455879 -0.010805
-0.0244238 -0.00704956 -0.0113977
-0.0297203 -0.00667149 -0.010778
-0.0296611 -0.00254711 -0.0126824
-0.0484378 -0.00338676 0.000624537
-0.0485468 -0.00326248 -0.000178404
-0.05 0 0
-0.0486973 -0.00257924 0.000724928
-0.0433024 -0.00912904 -0.00132616
-0.0478463 -0.00501625 -0.000993617
-0.0444921 -0.00763701 -0.00135624
-0.0478432 -0.00513066 0.000997747
-0.0478098 -0.00475693 3.37203e-05
-0.044626 -0.00768226 0.00144608
-0.0432538 -0.00920554 0.00149598
-0.048152 -0.00157793 -0.00377811
-0.0445294 -0.00412984 -0.00605721
-0.05 0 0
-0.0480196 -0.000236169 -0.00520935
-0.0468923 0.000618771 -0.00686988
-0.0479013 0.000361766 -0.00557774
-0.0483499 -0.00265755 -0.00176613
-0.0481444 -0.00262362 -0.00282282
-0.0481684 -0.0038479 -0.00177337
-0.05 0 0
-0.0429619 -0.00570961 -0.00774609
-0.0440932 -0.00566586 -0.00625214
-0.047578 -0.00237404 -0.00480224
-0.0477434 -0.00349248 -0.00382761
-0.05 0 0
-0.0464811 -0.00638296 -0.0030471
-0.0468695 -0.00476423 -0.0045778
-0.0474788 -0.00485473 -0.00345557
-0.0430723 0.00594805 -0.0075254
-0.0219654 -0.0112165 0.00972318
-0.0477849 0.00432039 -0.00311385
-0.0421586 -0.00286479 0.00455804
-0.00143419 -0.00308805 -0.00220901
-0.0487162 -0.00129958 0.00319566
-0.0019817 -0.00114556 -0.00370755
-0.00895571 0.00853129 -0.000972987
-0.00711109 0.00405652 0.00562559
-0.047962 0.000505417 0.00339726
-0.01915 0.0108227 -0.00971811
-0.0488027 0.000484749 0.00341259
-0.0463056 -0.0014802 0.00651648
-0.00649217 -0.00562661 -0.00671524
-0.0124067 -0.00269786 -0.00988998
-0.0340132 -0.00854213 -0.0101386
-0.0194654 -0.0101276 -0.00991025
-0.00339195 0.00600246 0.000999291
-0.0147364 0.00628653 0.00484928
-0.00396488 -0.00377943 -0.00488989
-0.0152681 -0.00795661 -0.00945562
-0.00107177 0.0011365 -0.00281278
-0.0484877 -0.000684506 0.00413254
-0.00822966 0.00593495 -0.00761874
-0.0378827 -0.00288074 -0.00622467
-0.00190725 -0.00405968 -0.00259982
-0.0214801 0.0116231 -0.00931299
-0.0469223 -0.00501277 0.00168509
-0.0076957 -0.00507472 -0.00391223
-0.0484668 0.00301759 0.00269486
-0.00601515 -0.00621491 -0.00175169
-0.0136564 -0.00805383 -0.00690114
-0.00141323 0.000734803 -0.00387316
-0.0413628 0.00649559 0.00421835
-0.00133991 -0.00304152 0.0021292
-0.0347491 0.00861854 -0.00964821
-0.0376132 0.00747126 0.00300539
-0.0120466 -0.00982167 0.00279323
-0.0411759 0.00590014 0.00858337
-0.0304528 0.0105391 0.0104553
-0.012959 0.00841989 -0.00673465
-0.00388033 -0.0016778 -0.00617385
-0.00830606 0.00586336 0.00781741
-0.00671332 0.00150591 -0.00687606
-0.00135597 0.0029003 -0.00213471
-0.00179858 -0.00399551 0.00247046
-0.0490938 -0.00158609 -0.00103585
-0.00630186 0.00550344 -0.0064901
-0.00180296 0.0038797 -0.00248971
-0.00115759 0.00108292 0.00306155
-0.00929043 0.00605929 0.00749277
-0.00348686 0.00379673 -0.00470256
-0.00126602 0.00280892 0.00214912
-0.00110646 -0.000302448 -0.00311721
-0.00139966 5.56723e-06 -0.00393951
-0.00156432 0.000668286 0.00417349
-0.0216365 -0.0109899 -0.00946728
-0.00629354 0.00544142 0.00649002
-0.0402387 0.00355503 0.00920333
-0.00130091 0.00325082 -0.00100154
-0.00163457 0.00422639 -0.000822214
-0.0447811 0.000602109 0.00719481
-0.00169637 -0.0043358 -0.000878505
-0.00732204 0.0067731 0.0013318
-0.00351661 0.00143556 0.00637206
-0.00355994 -0.00628519 -0.000639252
-0.003854 -0.0019509 0.00621
-0.00518209 0.00639545 0.00318923
-0.00148707 0.00394337 0.00110313
-0.00117024 0.00300206 0.00120241
-0.0092754 -0.00860795 -0.0011633
-0.00332698 0.00158732 -0.00598741
-0.00347239 0.00374887 0.00485588
-0.00169386 0.00376385 0.00245447
-0.00379477 -0.00390543 0.00478895
-0.00643777 -0.00568022 0.00652655
-0.0371108 0.00579649 0.00898633
-0.0487665 0.00279038 0.00158448
-0.00193346 0.00296226 0.00176535
-0.046019 0.00376536 0.0055572
-0.00878616 -0.00577802 -0.00794024
-0.0305914 -0.0104514 0.0102956
-0.00550898 -0.00091593 0.00635878
-0.0450182 0.00117517 -0.00532965
-0.00118019 -0.000494261 0.00321829
-0.0483869 -0.000632473 -0.00449683
-0.00489909 -0.000565984 -0.00659519
-0.0129527 0.00960195 -0.00407774
-0.00981297 -0.00360827 0.00862645
-0.00133951 -0.00332571 -0.00104836
-0.0486084 -0.00357855 0.0014318
-0.0482649 0.00424496 -0.00126935
-0.0408105 0.00645185 -0.00534335
-0.00344767 -0.00606091 0.000972374
-0.0195702 -0.0103743 0.0101938
-0.00118164 -0.00301091 0.00118212
-0.0152415 -0.00818228 0.00959922
-0.0125962 -0.0028425 0.0098593
-0.00990224 -0.0060087 0.00734422
-0.0433922 0.00646609 -0.00362582
-0.0480092 0.0040017 0.0029963
-0.0352915 -0.00583339 -0.010296
-0.00150909 -0.000173909 0.00412936
-0.019297 0.0104923 0.0103676
-0.00150239 -0.00394993 0.00108743
-0.0300889 -0.0103072 -0.010455
-0.037778 0.00606228 -0.00583202
-0.0373832 0.00755258 -0.00282885
-0.0323753 -0.00927278 -0.00655907
-0.00900815 -0.00857518 0.00133287
-0.0159535 -0.00622629 0.00945204
-0.0130207 -0.0083376 0.00700495
-0.0148508 -0.00634072 0.0047231
-0.0073009 -0.00266547 0.00562043
-0.00796466 -0.00386621 0.00643109
-0.00191932 -0.00287194 0.00163625
-0.00748367 -0.00677487 0.00108024
-0.00212155 -0.00348796 0.00236005
-0.005283 -0.00636201 0.00314572
-0.037216 0.00272275 0.0105005
-0.0484708 0.000119396 0.00427658
-0.0409711 -0.0067418 0.00866553
-0.0432104 -0.00621358 0.00712531
-0.0346937 0.0083717 0.0100514
-0.0461673 0.00180819 0.00653795
-0.0459935 -0.00439645 0.00557025
-0.0480083 -0.00423847 0.00278704
-0.0485058 -0.00323457 0.00251536
-0.0217023 0.0112419 0.00994286
-0.00541966 0.00297427 0.00637565
-0.00771219 0.00516339 0.00655156
-0.0146022 0.00458878 0.00821815
-0.00916277 0.00242337 0.00869518
-0.0121132 0.00139311 0.00980527
-0.00782725 0.0013422 0.00677899
-0.00210007 0.00353565 0.00250715
-0.0282973 0.011197 0.0100143
-0.0148408 0.00830617 0.00971465
-0.0146495 0.00854341 -0.00927378
-0.0327751 -0.00796333 0.0096971
-0.0287151 -0.00527923 0.0119275
-0.0344177 -0.00868491 0.0100291
-0.0331408 -0.00942201 0.00672198
-0.0291556 -0.00680023 0.00873394
-0.0124703 0.00836899 0.00717875
-0.00878088 0.00856181 0.00143502
-0.0460781 0.00625313 -0.000987595
-0.0246995 0.00297994 0.00301829
-0.0330229 0.0096184 0.0048671
-0.0399622 0.00611871 0.00804848
-0.0288554 0.00866951 0.0102451
-0.0133272 -0.00947109 -0.00436677
-0.043044 -0.00616293 -0.00734209
-0.00344843 0.00611797 -0.000557508
-0.0380064 -0.00311643 0.00779044
-0.0409841 -0.00791396 0.00269804
-0.0414241 -0.00546149 0.00548813
-0.0438104 -0.00345468 0.00700615
-0.0467065 -0.00353506 0.00449584
-0.00576726 0.00618276 -0.00164251
-0.0461099 0.00607662 0.00105612
-0.0287373 0.010154 0.0068858
-0.0484744 0.00376339 0.00136982
-0.0458566 0.0042647 -0.00589777
-0.0419746 0.0042803 0.00288075
-0.0462068 -0.00138927 -0.00700466
-0.0467902 0.00255153 -0.00543514
-0.041594 0.00431569 -0.00278696
-0.0410836 0.00632982 -0.00877687
-0.00866932 -0.0059491 0.00785096
-0.0143341 0.00507259 -0.00627456
-0.0483097 0.00335635 -0.00275935
-0.0407604 -0.00667672 -0.00891953
-0.0321732 0.0111645 -0.00463874
-0.0478362 0.00112667 0.00409538
-0.0245349 0.00306538 -0.00290793
-0.0460057 0.00226971 -0.00722636
-0.0486048 0.000613588 -0.00407723
-0.0360203 0.00877117 -0.00698524
-0.0247317 -0.00297235 0.00312245
-0.0433021 0.00554029 0.00733226
-0.0485704 0.00334804 -0.00160307
-0.0282414 0.0119492 -0.00656646
-0.0302575 0.0108858 -0.00995406
-0.00724265 -0.00412754 -0.00281034
-0.0464302 0.00426702 -0.00406013
-0.04504 -0.00486996 0.00119886
-0.0489079 -0.00238621 0.00154678
-0.0277917 0.0117229 -0.00945373
-0.0448245 0.00411578 0.00495114
-0.00932477 0.00616632 -0.00718499
-0.0156118 0.00956979 -0.00605839
-0.00983896 -0.00337444 -0.00865147
-0.00863 0.00268138 -0.00858372
-0.00710885 0.0055937 -0.00259161
-0.00786454 0.00640171 -0.00372013
-0.0018386 0.00165 -0.00277434
-0.00204323 0.00235337 -0.00338315
-0.00491793 0.00316273 -0.00626512
-0.00184881 -0.000451667 -0.00310956
-0.0410036 0.00408665 -0.00798469
-0.0489163 0.000850531 -0.00306514
-0.0469672 -0.00493036 -0.000919568
-0.028329 -0.0111697 0.00983569
-0.0116617 0.00158679 -0.00982465
-0.0378627 0.00311308 -0.00885029
-0.0243022 -0.00302172 -0.00297342
-0.0416898 -0.00549178 -0.00267867
-0.0103585 -0.00575714 -0.00731327
-0.0275274 -0.0110219 -0.00977212
-0.0490691 0.000463499 -0.00244748
-0.0486371 -0.00122743 -0.00347406
-0.0290356 0.00884314 -0.00641148
-0.0484564 -0.00324059 -0.00261391
-0.0320284 -0.00780527 -0.00949141
-0.0118008 0.00984232 0.00297248
-0.0157006 -0.0078854 -0.0062531
-0.0435702 -0.00323979 -0.00730566
-0.0482648 -0.00441894 -0.00123319
-0.0355584 -0.00604363 0.0103333
-0.048634 -0.00343261 -0.00146249
-0.04438 -0.00473612 -0.00344307
-0.0472061 -0.00170478 -0.00385351
-0.0482291 -0.00454551 0.00119611
-0.0162917 -0.00622802 -0.0091405
-0.0364246 -0.00863525 -0.00456884
-0.0287443 -0.00682103 -0.00838924
-0.0285023 -0.00522399 -0.0114578
-0.0491107 -0.00228896 0.000282074
-0.0461505 -0.00684113 -0.000861545
-0.0461735 -0.00691861 0.000949516
-0.0465187 -0.00347178 -0.0047959
-0.0483261 0.000204994 -0.00472835
-0.0489022 -0.00219903 -0.00161859
-0.0458494 -0.00434174 -0.00585199
-0.0479577 -0.00424347 -0.00289039

CELL_DATA 236
TENSORS stress float
-9397.86 148.44 -991.263
148.44 -2583.14 805.26
-991.263 805.26 880.739

-8774.49 258.511 37.5415
258.511 -272.066 753.77
37.5415 753.77 604.462

-11149.9 -1196.09 1303.9
-1196.09 -5881.44 -1461.58
1303.9 -1461.58 -7278.84

-9056.72 -27.0272 -508.908
-27.0272 -1152.05 276.109
-508.908 276.109 -1558.86

-10894.9 -1629.68 -1294.48
-1629.68 -5741.07 1446.75
-1294.48 1446.75 -7182.21

-11461.9 575.361 -1335.51
575.361 -8400.97 -588.882
-1335.51 -588.882 -7232.68

-12454.6 -50.9826 -422.42
-50.9826 -7561.79 -116.005
-422.42 -116.005 -7886.77

-8532.52 -497.185 170.03
-497.185 -545.997 37.9685
170.03 37.9685 -24.9114

-9687.55 328.518 408.173
328.518 -1234 -144.91
408.173 -144.91 -2468.78

-13010 -508.184 -509.742
-508.184 -8634.59 5.92931
-509.742 5.92931 -8281.39

-7792.37 -652.526 314.891
-652.526 1156.53 175.329
314.891 175.329 653.53

-10471.3 -456.153 -1884.17
-456.153 -8279.74 -4.6471
-1884.17 -4.6471 -5456.06

-8285.06 359.651 -921.311
359.651 -1971.53 -19.3531
-921.311 -19.3531 650.069

-9600.46 155.778 1059.31
155.778 -2701.42 -629.618
1059.31 -629.618 412.98

-8494.32 276.053 574.577
276.053 1550.07 -186.401
574.577 -186.401 -533.715

-8142.11 -627.013 -616.194
-627.013 1866.52 -273.223
-616.194 -273.223 1147.82

-7906.23 458.952 350.691
458.952 814.525 -93.0946
350.691 -93.0946 520.141

-9188.3 588.291 106.407
588.291 -1595.91 328.276
106.407 328.276 -3624.84

-9566.13 428.384 258.973
428.384 -352.293 78.3432
258.973 78.3432 -6.55627

-9882.37 -561.398 -597.362
-561.398 -2955.08 657.482
-597.362 657.482 -3342.53

-8189.22 517.01 733.968
517.01 1811.27 27.698
733.968 27.698 1075.58

-10667.6 643.779 -1458.64
643.779 -8153.5 -370.569
-1458.64 -370.569 -6623.85

-10713 142.177 -1744.44
142.177 -8984.34 -640.747
-1744.44 -640.747 -4367.22

-8621.25 -497.065 605.683
-497.065 -1666.97 -429.135
605.683 -429.135 303.549

-9173.28 -96.0718 48.2083
-96.0718 432.706 -146.756
48.2083 -146.756 -143.703

-11268 -1218.29 -1153.32
-1218.29 -5890.8 1225.32
-1153.32 1225.32 -7724.63

-8395.94 -268.335 -41.0991
-268.335 450.744 717.713
-41.0991 717.713 1181.17

-10050.5 707.313 -227.583
707.313 -4216.29 53.989
-227.583 53.989 -4628.32

-9282.69 8.69481 -61.7555
8.69481 -1201.76 -508.382
-61.7555 -508.382 -1807.04

-10745.3 -1743.77 -1654.95
-1743.77 -6173.23 1521.73
-1654.95 1521.73 -7349.76

-9704.79 -296.156 -99.8207
-296.156 -1830.92 -257.874
-99.8207 -257.874 -2977.55

-8549.03 94.3895 157.432
94.3895 306.438 -64.5805
157.432 -64.5805 377.586

-10157.7 307.51 -1774.08
307.51 -8261.62 -623.933
-1774.08 -623.933 -3942.24

-9434 -133.646 -307.517
-133.646 -902.132 -157.988
-307.517 -157.988 -891.021

-10315.6 -1782.05 1332.03
-1782.05 -5214.64 -1499.75
1332.03 -1499.75 -6817.66

-8255.02 817.175 -551.939
817.175 1778.48 251.197
-551.939 251.197 1073.96

-9154.31 -57.2643 -143.401
-57.2643 115.773 -207.547
-143.401 -207.547 419.07

-7237.29 804.099 235.919
804.099 1064.27 -51.1557
235.919 -51.1557 3474.64

-8680.1 433.515 742.856
433.515 -1042.03 230.859
742.856 230.859 333.965

-7664.74 504.632 221.725
504.632 979.448 -412.268
221.725 -412.268 841.521

-8499.88 -470.761 109.505
-470.761 395.134 144.93
109.505 144.93 536.072

-9739.25 -189.115 -344.297
-189.115 -3090.57 -271.75
-344.297 -271.75 -2458.85

-8649.07 -510.209 -703.1
-510.209 -1551.03 303.39
-703.1 303.39 339.702

-8941.29 168.459 -379.534
168.459 -815.175 278.242
-379.534 278.242 -1992.42

-10488.2 1631.71 -1327.65
1631.71 -5214.69 -1243.52
-1327.65 -1243.52 -6654.23

-11150.8 -1285.44 1123.5
-1285.44 -5789.45 -1201
1123.5 -1201 -7770.41

-9063.85 999.889 688.347
999.889 -5243.8 -4.50751
688.347 -4.50751 -5679.15

-9641.06 -185.928 999.444
-185.928 -2654.02 543.942
999.444 543.942 154.531

-11253.6 1217.32 -1120.66
1217.32 -5830.57 -1118.63
-1120.66 -1118.63 -7732.48

-11385.3 554.057 1387.33
554.057 -9031.64 354.037
1387.33 354.037 -7244.29

-8531.39 20.5625 -19.3167
20.5625 -53.1824 62.3023
-19.3167 62.3023 69.6502

-8984.03 507.681 -932.58
507.681 -2516.8 -717.844
-932.58 -717.844 -2392.83

-9948.02 1753.8 1416.97
1753.8 -4813.94 1313.23
1416.97 1313.23 -6233.09

-10038 -304.4 -1831.26
-304.4 -7601.21 62.449
-1831.26 62.449 -5214.28

-9916.62 40.1087 -1959.35
40.1087 -8070.75 279.167
-1959.35 279.167 -3626.79

-10566.9 214.192 1711.65
214.192 -8760 640.241
1711.65 640.241 -4206.44

-8212.63 147.821 74.5616
147.821 395.354 -556.671
74.5616 -556.671 938.296

-9668.03 -188.092 -1121.14
-188.092 -2884.5 -541.385
-1121.14 -541.385 184.23

-8840.54 -212.077 550.04
-212.077 -94.7551 -112.394
550.04 -112.394 -565.502

-10683.6 1832.42 -628.753
1832.42 -5882.78 -453.001
-628.753 -453.001 -8459.44

-10165 1804.19 -456.54
1804.19 -3898.03 -1084.89
-456.54 -1084.89 -7727.68

-10171.2 -133.989 -27.8392
-133.989 -3897.9 459.876
-27.8392 459.876 -3707.78

-10353.8 -1768.58 -491.131
-1768.58 -3989.42 1125.08
-491.131 1125.08 -7996.44

-9547.74 424.01 464.018
424.01 -2649.17 81.8921
464.018 81.8921 -1288.32

-9000.22 524.807 610.203
524.807 -3871.72 -108.038
610.203 -108.038 -795.323

-9397.5 -566.107 30.2302
-566.107 -1676.14 396.285
30.2302 396.285 -3593.48

-9798.35 -373.633 347.936
-373.633 -3493.53 337.19
347.936 337.19 -2462.11

-9897.71 -312.175 399.94
-312.175 -4299.45 -620.902
399.94 -620.902 -3715.34

-9960.59 1815.58 659.371
1815.58 -3880.03 1143.61
659.371 1143.61 -7638.88

-9678.89 1955.76 871.973
1955.76 -4952.67 523.244
871.973 523.244 -7225.41

-8773.31 431.971 106.003
431.971 -651.841 -115.226
106.003 -115.226 -132.303

-8756.9 583.934 -590.331
583.934 -3700.67 101.921
-590.331 101.921 -781.67

-9158.51 538.132 865.251
538.132 -2707.09 486.965
865.251 486.965 -2619.89

-11127.3 1275.52 1144
1275.52 -5822.43 1130.73
1144 1130.73 -7683.58

-9904.46 -542.989 502.292
-542.989 -3220.97 -642.406
502.292 -642.406 -3483

-9642.07 177.777 -1162.55
177.777 -2886.58 585.21
-1162.55 585.21 318.653

-9460.96 -175.519 -175.94
-175.519 -1544.41 -774.451
-175.94 -774.451 -1605.13

-10835.2 -1608.98 -904.523
-1608.98 -5491.48 586.65
-904.523 586.65 -7302.82

-11692.1 567.04 514.699
567.04 -7057.86 -36.3214
514.699 -36.3214 -7128.59

-9883.88 -409.872 -568.848
-409.872 -3073.85 878.08
-568.848 878.08 -3449.27

-8827.14 398.475 707.44
398.475 -1270.74 271.721
707.44 271.721 245.467

-7632.63 -553.455 219.006
-553.455 1104.99 161.17
219.006 161.17 789.988

-9606.29 -221.804 199.445
-221.804 -3047.91 545.98
199.445 545.98 -2532.55

-11067.3 -168.369 -0.0555138
-168.369 -4351.79 -156.632
-0.0555138 -156.632 -4187.53

-10782.1 -417.651 1676.87
-417.651 -8317.34 -43.9013
1676.87 -43.9013 -5905.07

-10440.1 75.242 1966.55
75.242 -8870.86 541.25
1966.55 541.25 -4265.55

-9365.78 -93.5273 157.678
-93.5273 -3203.19 -194.479
157.678 -194.479 -3639.46

-8610.32 -630.136 52.8095
-630.136 -743.094 91.8614
52.8095 91.8614 521.409

-8967.78 -97.8396 -562.354
-97.8396 -630.41 163.367
-562.354 163.367 -673.49

-10928.3 -1809.99 -642.085
-1809.99 -6071.9 501.622
-642.085 501.622 -8691.28

-10348.5 2075.17 -948.029
2075.17 -5328.7 -355.489
-948.029 -355.489 -7464.88

-10434 -1691.31 651.317
-1691.31 -3996.74 -1384.43
651.317 -1384.43 -7881.86

-8780.79 -86.5018 108.303
-86.5018 143.126 26.3432
108.303 26.3432 29.0428

-9339.34 -565.237 102.227
-565.237 -1635.42 -227.77
102.227 -227.77 -3774.85

-7892.44 517.726 -355.794
517.726 1049.95 151.993
-355.794 151.993 579.61

-9594.46 -1968.06 861.636
-1968.06 -4777.74 -610.57
861.636 -610.57 -7107.57

-8241.93 651.941 -828.063
651.941 1804.55 -17.6426
-828.063 -17.6426 992.527

-8686.2 33.9204 -494.65
33.9204 978.655 96.0531
-494.65 96.0531 -799.429

-8562.46 -148.696 -138.192
-148.696 132.89 -442.442
-138.192 -442.442 552.188

-9670.35 32.5839 11.2538
32.5839 -1834.27 53.5383
11.2538 53.5383 -2168.98

-11196.3 -1227.57 -1289.21
-1227.57 -6025.9 1297.45
-1289.21 1297.45 -7330.94

-8580.91 -256.03 -653.876
-256.03 1245.65 -135.243
-653.876 -135.243 1024.2

-10228.8 -77.55 1921.31
-77.55 -8417.28 -310.621
1921.31 -310.621 -3870.15

-7807.89 -634.165 -334.648
-634.165 1100.94 -184.048
-334.648 -184.048 627.581

-10064.6 -1788.64 632.738
-1788.64 -3907.57 -1155.96
632.738 -1155.96 -7829.18

-7704.06 -532.53 -135.446
-532.53 1015.71 -81.6955
-135.446 -81.6955 863.846

-9256.89 -290.522 277.248
-290.522 -601.471 132.591
277.248 132.591 -399.253

-9043.67 -98.8314 29.1088
-98.8314 289.116 204.652
29.1088 204.652 469.804

-8799.01 -54.2325 -19.4992
-54.2325 712.326 -71.4334
-19.4992 -71.4334 1833.56

-8515.06 493.661 69.2524
493.661 -301.075 -22.4603
69.2524 -22.4603 113.097

-9335.52 116.099 -160.203
116.099 -415.748 149.272
-160.203 149.272 -1536.46

-8316.04 452.726 -791.085
452.726 471.56 450.954
-791.085 450.954 678.766

-9459.92 -407.814 311.121
-407.814 -16.4897 -13.1758
311.121 -13.1758 235.022

-9809.87 -278.017 374.141
-278.017 -1661.39 298.67
374.141 298.67 -2676.91

-8643.62 -217.283 -190.72
-217.283 -1034.9 847.027
-190.72 847.027 -775.562

-11476 -558.149 424.763
-558.149 -6721.44 194.656
424.763 194.656 -6725.2

-9219.33 -350.638 609.479
-350.638 -2028.7 -175.728
609.479 -175.728 -235.941

-12433.6 -495.621 135.605
-495.621 -8080.19 3.37362
135.605 3.37362 -7719.16

-9555.13 321.074 275.594
321.074 -3563.42 582.38
275.594 582.38 -3113.12

-8045.14 -24.9498 633.81
-24.9498 2672.96 -222.568
633.81 -222.568 725.642

-10342 -75.3317 -2025.17
-75.3317 -8659.99 325.23
-2025.17 325.23 -3961.44

-8777.35 -284.12 620.089
-284.12 -1192.94 -211.006
620.089 -211.006 279.89

-9487 -65.1399 1115.87
-65.1399 -2940.55 655.759
1115.87 655.759 631.548

-8021.59 685.205 670.526
685.205 2381.34 -459.165
670.526 -459.165 1280.89

-9711.89 -433.589 -449.477
-433.589 -3630.84 -360.543
-449.477 -360.543 -2410.01

-9410.48 647.368 -878.577
647.368 -2722.5 -793.601
-878.577 -793.601 -2935.07

-11287.4 1298.77 -1151.32
1298.77 -6102.93 -1456.32
-1151.32 -1456.32 -7903.44

-10260.1 1973.23 -1565.64
1973.23 -5212.72 -1546.61
-1565.64 -1546.61 -6520.02

-8899.55 -332.234 55.2918
-332.234 -498.122 -622.08
55.2918 -622.08 371.345

-9667.9 347.256 208.249
347.256 -3088.44 -361.689
208.249 -361.689 -2486.32

-8988.97 191.88 48.276
191.88 -1583.7 -440.401
48.276 -440.401 -1339.66

-9482.9 154.465 267.468
154.465 -461.137 119.16
267.468 119.16 196.401

-8161.44 350.35 -643.833
350.35 804.292 51.1569
-643.833 51.1569 541.248

-7756.19 61.0544 -448.878
61.0544 2570.3 -82.9837
-448.878 -82.9837 442.49

-9147.75 284.617 412.906
284.617 41.0423 -192.914
412.906 -192.914 -1756.94

-11960.7 573.773 359.405
573.773 -7614.31 7.7793
359.405 7.7793 -7244.4

-7832.06 210.582 196.94
210.582 1411.1 -595.514
196.94 -595.514 2265.66

-8246.82 -870.206 -835.208
-870.206 1669.53 5.28576
-835.208 5.28576 903.43

-8208.57 -819.242 777.102
-819.242 1711.89 34.1548
777.102 34.1548 979.804

-8280.75 -210.775 589.359
-210.775 1753.08 557.61
589.359 557.61 1515.7

-8033.75 215.127 -30.9923
215.127 4799.16 -307.906
-30.9923 -307.906 3466.61

-7934.89 -545.752 740.823
-545.752 2020.2 319.343
740.823 319.343 1250.86

-8537.34 42.8947 -256.87
42.8947 1271.52 423.728
-256.87 423.728 2404.84

-9032.21 119.999 21.4644
119.999 1409.64 -243.22
21.4644 -243.22 1076.67

-7742.69 -772.048 -811.25
-772.048 1367.87 -623.157
-811.25 -623.157 1348.5

-8417.64 -473.634 80.1422
-473.634 -386.949 54.318
80.1422 54.318 53.3462

-9711.69 -547.134 116.986
-547.134 -1512.8 -290.913
116.986 -290.913 -2999.45

-9570.96 94.7656 -4.7408
94.7656 -372.522 702.007
-4.7408 702.007 -414.796

-8881.82 473.84 -8.66632
473.84 670.38 332.889
-8.66632 332.889 2034.9

-8423.57 86.5514 -11.0787
86.5514 989.413 240.426
-11.0787 240.426 386.33

-7616.61 -455.356 -565.396
-455.356 2652.79 -39.3598
-565.396 -39.3598 4273.75

-8621.14 505.729 24.8278
505.729 -520.618 -229.682
24.8278 -229.682 690.602

-9481.9 -77.9479 -1158.57
-77.9479 -2973.6 -754.336
-1158.57 -754.336 824.076

-9231.51 568.397 63.7627
568.397 -1567.21 -342.321
63.7627 -342.321 -3498.61

-8651.92 -513.889 171.444
-513.889 645.884 123.23
171.444 123.23 772.365

-9032.38 -351.89 41.4637
-351.89 -694.875 69.4501
41.4637 69.4501 26.9643

-9162.2 55.317 -233.793
55.317 -1166.71 37.4135
-233.793 37.4135 -306.965

-9857.45 260.069 -260.954
260.069 -3335.97 86.786
-260.954 86.786 -1965.35

-9062.37 797.136 -1018.83
797.136 -3176.58 -672.06
-1018.83 -672.06 -2297.52

-9491.52 165.59 -105.123
165.59 -2107.89 376.877
-105.123 376.877 -2506.38

-10105.7 -648.195 -131.934
-648.195 -2052.37 148.139
-131.934 148.139 -3847.19

-8465.15 -307.326 -339.496
-307.326 1684.87 176.684
-339.496 176.684 3083.96

-10703.3 -1589.88 -708.748
-1589.88 -4494.04 1295.11
-708.748 1295.11 -8181.29

-9772.04 -455.732 681.686
-455.732 -3377.49 -492.195
681.686 -492.195 -3333.85

-9735.19 -265.691 -449.942
-265.691 -2312.21 -349.655
-449.942 -349.655 -947.893

-8126.09 262.537 1094.21
262.537 -2133.88 -243.505
1094.21 -243.505 862.733

-9303.76 -650.518 784.177
-650.518 -3568.07 331.892
784.177 331.892 -3155.71

-9790.96 -244.137 285.124
-244.137 -2125.61 392.501
285.124 392.501 -1261.3

-8362.21 581.446 -711.576
581.446 -744.961 -181.224
-711.576 -181.224 706.305

-8828.87 423.746 -801.19
423.746 -1411.19 -290.651
-801.19 -290.651 235.134

-9296.55 323.632 -383.83
323.632 438.361 -346.712
-383.83 -346.712 303.155

-10635.4 -1807.79 1647.82
-1807.79 -5809.57 -1598.65
1647.82 -1598.65 -7059.75

-8696.32 -357.267 -635.92
-357.267 -850.079 74.0284
-635.92 74.0284 561.584

-8961.51 630.018 -46.0279
630.018 -9.43507 -9.48209
-46.0279 -9.48209 1341.99

-12535.6 -287.282 -518.069
-287.282 -7441.07 -63.7413
-518.069 -63.7413 -7837.53

-9560.44 80.4316 -68.1064
80.4316 -204.977 -788.562
-68.1064 -788.562 -555.257

-9698.4 -502.973 696.181
-502.973 -3227.01 377.322
696.181 377.322 -2853.96

-10506 -523.678 2202.92
-523.678 -8167.42 -219.972
2202.92 -219.972 -5629.4

-8419.36 755.355 -312.148
755.355 1445.87 355.351
-312.148 355.351 1573.84

-9491.38 -37.4805 -7.01812
-37.4805 -315.553 -781.968
-7.01812 -781.968 -85.7532

-9513.42 153.656 1096.85
153.656 -2655.3 -777.88
1096.85 -777.88 660.354

-10486.7 -1817.92 1010.83
-1817.92 -5431.37 -652.49
1010.83 -652.49 -7472.32

-7668.09 -282.033 332.012
-282.033 3638.2 56.3504
332.012 56.3504 4789.48

-7802.34 618.201 -91.5697
618.201 1204.61 215.598
-91.5697 215.598 783.052

-9481.42 -439.571 -342.599
-439.571 -2297.2 -406.732
-342.599 -406.732 -1208.2

-9206.99 -938.177 811.215
-938.177 -2695.66 -334.112
811.215 -334.112 -3043.7

-10710.4 47.8346 -245.825
47.8346 -3807.81 54.7444
-245.825 54.7444 -3630.6

-9747.77 1457.09 -1085.43
1457.09 -5953.84 -226.859
-1085.43 -226.859 -6540.39

-8213.91 126.488 81.0353
126.488 568.323 792.855
81.0353 792.855 1308.47

-9131.64 -406.521 -287.822
-406.521 -1774.55 -313.763
-287.822 -313.763 -2652.43

-8572.36 -132.066 -181.872
-132.066 -185.376 -162.008
-181.872 -162.008 108.874

-9163.43 -137.638 48.6861
-137.638 -1250.78 195.92
48.6861 195.92 -148.773

-8896.51 47.7258 598.382
47.7258 -523.443 -201.175
598.382 -201.175 -546.347

-7729.81 423.681 882.56
423.681 1217.2 59.3827
882.56 59.3827 719.931

-9808.34 345.631 -233.263
345.631 -2911.15 272.879
-233.263 272.879 -1697.93

-8311.21 -170.024 -271.743
-170.024 -666.478 885.825
-271.743 885.825 -684.692

-10820.8 416.309 -659.116
416.309 -6191.35 94.6398
-659.116 94.6398 -6071.05

-11844 190.516 -628.069
190.516 -7120.04 52.5387
-628.069 52.5387 -7313.19

-8748.94 344.882 -80.1803
344.882 -1958.39 620.557
-80.1803 620.557 -2080.83

-11950.8 -249.136 -631.637
-249.136 -7513.36 -147.414
-631.637 -147.414 -7238.11

-9150.52 -208.206 -273.925
-208.206 -475.337 248.736
-273.925 248.736 -852.709

-10652.1 -721.338 1794.72
-721.338 -8163.67 -394.943
1794.72 -394.943 -6960.48

-9151.94 887.87 -20.8442
887.87 -2802.94 -208.755
-20.8442 -208.755 -3989.43

-7841.36 -34.3055 173.024
-34.3055 1371 822.244
173.024 822.244 2132.88

-7222.14 -143.426 696.677
-143.426 3527.94 -105.193
696.677 -105.193 1032.98

-8675.34 -215.514 -100.971
-215.514 2253.05 309.769
-100.971 309.769 51.2989

-9482.17 -74.5227 -112.913
-74.5227 -74.0638 845.154
-112.913 845.154 -92.7462

-9232.4 55.0285 -84.0954
55.0285 -1131.35 -213.544
-84.0954 -213.544 -436.006

-8667.76 -258.338 -168.571
-258.338 148.57 484.197
-168.571 484.197 642.076

-8284.99 -23.3768 119.612
-23.3768 493.479 -603.827
119.612 -603.827 1105.27

-12141.1 -420.555 1164.57
-420.555 -10128.5 -329.778
1164.57 -329.778 -9172.37

-11747.7 503.993 1345.43
503.993 -8752.04 493.481
1345.43 493.481 -7338.8

-8805.9 -37.1776 262.753
-37.1776 1927.61 -543.855
262.753 -543.855 2508.98

-10381.3 1946.51 1607.03
1946.51 -5354.72 1540.28
1607.03 1540.28 -6552.77

-8653.65 -242.365 -286.176
-242.365 1193.6 -208.561
-286.176 -208.561 1129.86

-7475.55 -720.184 261
-720.184 576.826 -136.337
261 -136.337 2783.4

-8979.34 86.5654 175.724
86.5654 11.1521 -220.402
175.724 -220.402 506.635

-9893.43 92.512 255.564
92.512 -3182.24 -117.654
255.564 -117.654 -1681.22

-10263.8 1923.08 674.363
1923.08 -3945.46 1213.91
674.363 1213.91 -7750.78

-8227.04 -179.069 858.881
-179.069 1778.5 256.116
858.881 256.116 1412.07

-10169.9 2072.41 974.693
2072.41 -5003.43 465.342
974.693 465.342 -7053.47

-9559.24 206.005 71.8743
206.005 -2334.12 -325.921
71.8743 -325.921 -1878.79

-9056.85 228.567 932.19
228.567 -3488.99 -260.892
932.19 -260.892 -2822.84

-10204.9 1915.54 -696.835
1915.54 -3793.52 -1201.83
-696.835 -1201.83 -7866.25

-9179.6 97.5137 11.1834
97.5137 116.468 -383.263
11.1834 -383.263 -568.474

-9167.21 -375.929 -258.716
-375.929 -51.6282 10.7542
-258.716 10.7542 831.085

-8964.49 -60.883 -120.305
-60.883 1661.1 244.791
-120.305 244.791 1555.61

-8454.06 118.294 295.24
118.294 3489.18 271.485
295.24 271.485 2076.01

-11183.4 1108.81 -283.432
1108.81 -8027.07 -191.605
-283.432 -191.605 -8645.5

-9144.22 823.395 -62.3203
823.395 -1637.14 386.903
-62.3203 386.903 -2638.8

-9071.92 762.515 -75.2616
762.515 -1613.45 -596.038
-75.2616 -596.038 -2941.04

-9043.31 807.38 1150.51
807.38 -3341.65 541.982
1150.51 541.982 -2271.34

-9833.93 -137.186 2375.77
-137.186 -8160.64 -599.405
2375.77 -599.405 -3480.11

-10060.3 1306.92 1021.68
1306.92 -5875.49 416.998
1021.68 416.998 -6282.05

-9553.13 585.955 898.303
585.955 -2737.58 616.852
898.303 616.852 -2972.89

-11330.5 1262.45 1170.15
1262.45 -6189.83 1470.62
1170.15 1470.62 -7784.75

