# vtk DataFile Version 3.0
vtk output at time 0.4
ASCII
DATASET UNSTRUCTURED_GRID
POINTS 125 float
0 0 0 0 0 0.05 0 0 0.1 
0 0 0.15 0 0 0.2 0 0.05 0 
0 0.05 0.05 0 0.05 0.1 0 0.05 0.15 
0 0.05 0.2 0 0.1 0 0 0.1 0.05 
0 0.1 0.1 0 0.1 0.15 0 0.1 0.2 
0 0.15 0 0 0.15 0.05 0 0.15 0.1 
0 0.15 0.15 0 0.15 0.2 0 0.2 0 
0 0.2 0.05 0 0.2 0.1 0 0.2 0.15 
0 0.2 0.2 0.0461673 -0.00324584 -0.00525126 0.0491517 -0.0044684 0.0475073 
0.0469217 -0.0040552 0.1 0.0491517 -0.0044684 0.152493 0.0461673 -0.00324584 0.205251 
0.0449729 0.0482796 -0.00425577 0.0473605 0.0477768 0.0477882 0.0450397 0.0479116 0.1 
0.0473605 0.0477768 0.152212 0.0449729 0.0482796 0.204256 0.046589 0.1 -0.00493835 
0.0494527 0.1 0.0476426 0.0472933 0.1 0.1 0.0494527 0.1 0.152357 
0.046589 0.1 0.204938 0.0449729 0.15172 -0.00425577 0.0473605 0.152223 0.0477882 
0.0450397 0.152088 0.1 0.0473605 0.152223 0.152212 0.0449729 0.15172 0.204256 
0.0461673 0.203246 -0.00525126 0.0491517 0.204468 0.0475073 0.0469217 0.204055 0.1 
0.0491517 0.204468 0.152493 0.0461673 0.203246 0.205251 0.09 -0.0056304 -0.00925891 
0.09 -0.0073737 0.0458295 0.09 -0.00744016 0.1 0.09 -0.0073737 0.154171 
0.09 -0.0056304 0.209259 0.09 0.0468988 -0.00822914 0.09 0.0461898 0.0458949 
0.0899999 0.0460507 0.1 0.09 0.0461898 0.154105 0.09 0.0468988 0.208229 
0.09 0.1 -0.00883393 0.09 0.1 0.046019 0.09 0.1 0.1 
0.09 0.1 0.153981 0.09 0.1 0.208834 0.09 0.153101 -0.00822914 
0.09 0.15381 0.0458949 0.0899999 0.153949 0.1 0.09 0.15381 0.154105 
0.09 0.153101 0.208229 0.09 0.20563 -0.00925891 0.09 0.207374 0.0458295 
0.09 0.20744 0.1 0.09 0.207374 0.154171 0.09 0.20563 0.209259 
0.133833 -0.00324581 -0.00525125 0.130848 -0.00446838 0.0475073 0.133078 -0.00405517 0.1 
0.130848 -0.00446838 0.152493 0.133833 -0.00324581 0.205251 0.135027 0.0482796 -0.00425576 
0.132639 0.0477768 0.0477882 0.13496 0.0479116 0.1 0.132639 0.0477768 0.152212 
0.135027 0.0482796 0.204256 0.133411 0.1 -0.00493834 0.130547 0.1 0.0476426 
0.132707 0.1 0.1 0.130547 0.1 0.152357 0.133411 0.1 0.204938 
0.135027 0.15172 -0.00425576 0.132639 0.152223 0.0477882 0.13496 0.152088 0.1 
0.132639 0.152223 0.152212 0.135027 0.15172 0.204256 0.133833 0.203246 -0.00525125 
0.130848 0.204468 0.0475073 0.133078 0.204055 0.1 0.130848 0.204468 0.152493 
0.133833 0.203246 0.205251 0.18 0 0 0.18 0 0.05 
0.18 0 0.1 0.18 0 0.15 0.18 0 0.2 
0.18 0.05 0 0.18 0.05 0.05 0.18 0.05 0.1 
0.18 0.05 0.15 0.18 0.05 0.2 0.18 0.1 0 
0.18 0.1 0.05 0.18 0.1 0.1 0.18 0.1 0.15 
0.18 0.1 0.2 0.18 0.15 0 0.18 0.15 0.05 
0.18 0.15 0.1 0.18 0.15 0.15 0.18 0.15 0.2 
0.18 0.2 0 0.18 0.2 0.05 0.18 0.2 0.1 
0.18 0.2 0.15 0.18 0.2 0.2 

CELLS 384 1920
4 5 6 26 31 
4 5 6 1 26 
4 0 5 1 26 
4 0 5 26 25 
4 25 5 26 30 
4 30 5 26 31 
4 26 25 55 50 
4 26 25 30 55 
4 31 26 30 55 
4 26 31 56 55 
4 26 56 51 55 
4 26 51 50 55 
4 55 56 76 81 
4 55 56 51 76 
4 50 55 51 76 
4 50 55 76 75 
4 75 55 76 80 
4 80 55 76 81 
4 76 75 105 100 
4 76 75 80 105 
4 81 76 80 105 
4 76 81 106 105 
4 76 106 101 105 
4 76 101 100 105 
4 10 5 35 36 
4 5 10 11 36 
4 6 5 11 36 
4 5 6 31 36 
4 5 31 30 36 
4 5 30 35 36 
4 36 31 55 56 
4 36 31 30 55 
4 35 36 30 55 
4 35 36 55 60 
4 60 36 55 61 
4 61 36 55 56 
4 60 55 85 86 
4 55 60 61 86 
4 56 55 61 86 
4 55 56 81 86 
4 55 81 80 86 
4 55 80 85 86 
4 86 81 105 106 
4 86 81 80 105 
4 85 86 80 105 
4 85 86 105 110 
4 110 86 105 111 
4 111 86 105 106 
4 15 16 36 41 
4 15 16 11 36 
4 10 15 11 36 
4 10 15 36 35 
4 35 15 36 40 
4 40 15 36 41 
4 36 35 65 60 
4 36 35 40 65 
4 41 36 40 65 
4 36 41 66 65 
4 36 66 61 65 
4 36 61 60 65 
4 65 66 86 91 
4 65 66 61 86 
4 60 65 61 86 
4 60 65 86 85 
4 85 65 86 90 
4 90 65 86 91 
4 86 85 115 110 
4 86 85 90 115 
4 91 86 90 115 
4 86 91 116 115 
4 86 116 111 115 
4 86 111 110 115 
4 20 15 45 46 
4 15 20 21 46 
4 16 15 21 46 
4 15 16 41 46 
4 15 41 40 46 
4 15 40 45 46 
4 46 41 65 66 
4 46 41 40 65 
4 45 46 40 65 
4 45 46 65 70 
4 70 46 65 71 
4 71 46 65 66 
4 70 65 95 96 
4 65 70 71 96 
4 66 65 71 96 
4 65 66 91 96 
4 65 91 90 96 
4 65 90 95 96 
4 96 91 115 116 
4 96 91 90 115 
4 95 96 90 115 
4 95 96 115 120 
4 120 96 115 121 
4 121 96 115 116 
4 7 2 26 27 
4 7 2 1 26 
4 6 7 1 26 
4 6 7 26 31 
4 31 7 26 32 
4 32 7 26 27 
4 31 26 56 57 
4 26 31 32 57 
4 27 26 32 57 
4 26 27 52 57 
4 26 52 51 57 
4 26 51 56 57 
4 57 52 76 77 
4 57 52 51 76 
4 56 57 51 76 
4 56 57 76 81 
4 81 57 76 82 
4 82 57 76 77 
4 81 76 106 107 
4 76 81 82 107 
4 77 76 82 107 
4 76 77 102 107 
4 76 102 101 107 
4 76 101 106 107 
4 7 6 36 31 
4 7 6 11 36 
4 12 7 11 36 
4 7 12 37 36 
4 7 37 32 36 
4 7 32 31 36 
4 36 37 57 62 
4 36 37 32 57 
4 31 36 32 57 
4 31 36 57 56 
4 56 36 57 61 
4 61 36 57 62 
4 57 56 86 81 
4 57 56 61 86 
4 62 57 61 86 
4 57 62 87 86 
4 57 87 82 86 
4 57 82 81 86 
4 86 87 107 112 
4 86 87 82 107 
4 81 86 82 107 
4 81 86 107 106 
4 106 86 107 111 
4 111 86 107 112 
4 17 12 36 37 
4 17 12 11 36 
4 16 17 11 36 
4 16 17 36 41 
4 41 17 36 42 
4 42 17 36 37 
4 41 36 66 67 
4 36 41 42 67 
4 37 36 42 67 
4 36 37 62 67 
4 36 62 61 67 
4 36 61 66 67 
4 67 62 86 87 
4 67 62 61 86 
4 66 67 61 86 
4 66 67 86 91 
4 91 67 86 92 
4 92 67 86 87 
4 91 86 116 117 
4 86 91 92 117 
4 87 86 92 117 
4 86 87 112 117 
4 86 112 111 117 
4 86 111 116 117 
4 17 16 46 41 
4 17 16 21 46 
4 22 17 21 46 
4 17 22 47 46 
4 17 47 42 46 
4 17 42 41 46 
4 46 47 67 72 
4 46 47 42 67 
4 41 46 42 67 
4 41 46 67 66 
4 66 46 67 71 
4 71 46 67 72 
4 67 66 96 91 
4 67 66 71 96 
4 72 67 71 96 
4 67 72 97 96 
4 67 97 92 96 
4 67 92 91 96 
4 96 97 117 122 
4 96 97 92 117 
4 91 96 92 117 
4 91 96 117 116 
4 116 96 117 121 
4 121 96 117 122 
4 7 8 28 33 
4 7 8 3 28 
4 2 7 3 28 
4 2 7 28 27 
4 27 7 28 32 
4 32 7 28 33 
4 28 27 57 52 
4 28 27 32 57 
4 33 28 32 57 
4 28 33 58 57 
4 28 58 53 57 
4 28 53 52 57 
4 57 58 78 83 
4 57 58 53 78 
4 52 57 53 78 
4 52 57 78 77 
4 77 57 78 82 
4 82 57 78 83 
4 78 77 107 102 
4 78 77 82 107 
4 83 78 82 107 
4 78 83 108 107 
4 78 108 103 107 
4 78 103 102 107 
4 12 7 37 38 
4 7 12 13 38 
4 8 7 13 38 
4 7 8 33 38 
4 7 33 32 38 
4 7 32 37 38 
4 38 33 57 58 
4 38 33 32 57 
4 37 38 32 57 
4 37 38 57 62 
4 62 38 57 63 
4 63 38 57 58 
4 62 57 87 88 
4 57 62 63 88 
4 58 57 63 88 
4 57 58 83 88 
4 57 83 82 88 
4 57 82 87 88 
4 88 83 107 108 
4 88 83 82 107 
4 87 88 82 107 
4 87 88 107 112 
4 112 88 107 113 
4 113 88 107 108 
4 17 18 38 43 
4 17 18 13 38 
4 12 17 13 38 
4 12 17 38 37 
4 37 17 38 42 
4 42 17 38 43 
4 38 37 67 62 
4 38 37 42 67 
4 43 38 42 67 
4 38 43 68 67 
4 38 68 63 67 
4 38 63 62 67 
4 67 68 88 93 
4 67 68 63 88 
4 62 67 63 88 
4 62 67 88 87 
4 87 67 88 92 
4 92 67 88 93 
4 88 87 117 112 
4 88 87 92 117 
4 93 88 92 117 
4 88 93 118 117 
4 88 118 113 117 
4 88 113 112 117 
4 22 17 47 48 
4 17 22 23 48 
4 18 17 23 48 
4 17 18 43 48 
4 17 43 42 48 
4 17 42 47 48 
4 48 43 67 68 
4 48 43 42 67 
4 47 48 42 67 
4 47 48 67 72 
4 72 48 67 73 
4 73 48 67 68 
4 72 67 97 98 
4 67 72 73 98 
4 68 67 73 98 
4 67 68 93 98 
4 67 93 92 98 
4 67 92 97 98 
4 98 93 117 118 
4 98 93 92 117 
4 97 98 92 117 
4 97 98 117 122 
4 122 98 117 123 
4 123 98 117 118 
4 9 4 28 29 
4 9 4 3 28 
4 8 9 3 28 
4 8 9 28 33 
4 33 9 28 34 
4 34 9 28 29 
4 33 28 58 59 
4 28 33 34 59 
4 29 28 34 59 
4 28 29 54 59 
4 28 54 53 59 
4 28 53 58 59 
4 59 54 78 79 
4 59 54 53 78 
4 58 59 53 78 
4 58 59 78 83 
4 83 59 78 84 
4 84 59 78 79 
4 83 78 108 109 
4 78 83 84 109 
4 79 78 84 109 
4 78 79 104 109 
4 78 104 103 109 
4 78 103 108 109 
4 9 8 38 33 
4 9 8 13 38 
4 14 9 13 38 
4 9 14 39 38 
4 9 39 34 38 
4 9 34 33 38 
4 38 39 59 64 
4 38 39 34 59 
4 33 38 34 59 
4 33 38 59 58 
4 58 38 59 63 
4 63 38 59 64 
4 59 58 88 83 
4 59 58 63 88 
4 64 59 63 88 
4 59 64 89 88 
4 59 89 84 88 
4 59 84 83 88 
4 88 89 109 114 
4 88 89 84 109 
4 83 88 84 109 
4 83 88 109 108 
4 108 88 109 113 
4 113 88 109 114 
4 19 14 38 39 
4 19 14 13 38 
4 18 19 13 38 
4 18 19 38 43 
4 43 19 38 44 
4 44 19 38 39 
4 43 38 68 69 
4 38 43 44 69 
4 39 38 44 69 
4 38 39 64 69 
4 38 64 63 69 
4 38 63 68 69 
4 69 64 88 89 
4 69 64 63 88 
4 68 69 63 88 
4 68 69 88 93 
4 93 69 88 94 
4 94 69 88 89 
4 93 88 118 119 
4 88 93 94 119 
4 89 88 94 119 
4 88 89 114 119 
4 88 114 113 119 
4 88 113 118 119 
4 19 18 48 43 
4 19 18 23 48 
4 24 19 23 48 
4 19 24 49 48 
4 19 49 44 48 
4 19 44 43 48 
4 48 49 69 74 
4 48 49 44 69 
4 43 48 44 69 
4 43 48 69 68 
4 68 48 69 73 
4 73 48 69 74 
4 69 68 98 93 
4 69 68 73 98 
4 74 69 73 98 
4 69 74 99 98 
4 69 99 94 98 
4 69 94 93 98 
4 98 99 119 124 
4 98 99 94 119 
4 93 98 94 119 
4 93 98 119 118 
4 118 98 119 123 
4 123 98 119 124 

CELL_TYPES 384
10
10
10
10
10
10
10
10
10
10
10
10
10
10
10
10
10
10
10
10
10
10
10
10
10
10
10
10
10
10
10
10
10
10
10
10
10
10
10
10
10
10
10
10
10
10
10
10
10
10
10
10
10
10
10
10
10
10
10
10
10
10
10
10
10
10
10
10
10
10
10
10
10
10
10
10
10
10
10
10
10
10
10
10
10
10
10
10
10
10
10
10
10
10
10
10
10
10
10
10
10
10
10
10
10
10
10
10
10
10
10
10
10
10
10
10
10
10
10
10
10
10
10
10
10
10
10
10
10
10
10
10
10
10
10
10
10
10
10
10
10
10
10
10
10
10
10
10
10
10
10
10
10
10
10
10
10
10
10
10
10
10
10
10
10
10
10
10
10
10
10
10
10
10
10
10
10
10
10
10
10
10
10
10
10
10
10
10
10
10
10
10
10
10
10
10
10
10
10
10
10
10
10
10
10
10
10
10
10
10
10
10
10
10
10
10
10
10
10
10
10
10
10
10
10
10
10
10
10
10
10
10
10
10
10
10
10
10
10
10
10
10
10
10
10
10
10
10
10
10
10
10
10
10
10
10
10
10
10
10
10
10
10
10
10
10
10
10
10
10
10
10
10
10
10
10
10
10
10
10
10
10
10
10
10
10
10
10
10
10
10
10
10
10
10
10
10
10
10
10
10
10
10
10
10
10
10
10
10
10
10
10
10
10
10
10
10
10
10
10
10
10
10
10
10
10
10
10
10
10
10
10
10
10
10
10
10
10
10
10
10
10
10
10
10
10
10
10
10
10
10
10
10
10
10
10
10
10
10
10
10
10
10
10
10
10
10
10
10
10
10
10
10
10
10
10
10
10
10
10
10
10
10
10

POINT_DATA 125
VECTORS displacement float
0 0 0
0 0 0
0 0 0
0 0 0
0 0 0
0 0 0
0 0 0
0 0 0
0 0 0
0 0 0
0 0 0
0 0 0
0 0 0
0 0 0
0 0 0
0 0 0
0 0 0
0 0 0
0 0 0
0 0 0
0 0 0
0 0 0
0 0 0
0 0 0
0 0 0
-0.00383272 -0.00324584 -0.00525126
-0.000848305 -0.0044684 -0.00249274
-0.00307826 -0.0040552 0
-0.000848305 -0.0044684 0.00249274
-0.00383272 -0.00324584 0.00525126
-0.00502714 -0.00172044 -0.00425577
-0.00263946 -0.00222323 -0.00221185
-0.00496034 -0.00208837 1.38778e-17
-0.00263946 -0.00222323 0.00221185
-0.00502714 -0.00172044 0.00425577
-0.00341101 1.38778e-17 -0.00493835
-0.00054729 0 -0.0023574
-0.00270673 0 0
-0.00054729 0 0.0023574
-0.00341101 0 0.00493835
-0.00502714 0.00172044 -0.00425577
-0.00263946 0.00222323 -0.00221185
-0.00496034 0.00208837 0
-0.00263946 0.00222323 0.00221185
-0.00502714 0.00172044 0.00425577
-0.00383272 0.00324584 -0.00525126
-0.000848305 0.0044684 -0.00249274
-0.00307826 0.0040552 -1.38778e-17
-0.000848305 0.0044684 0.00249274
-0.00383272 0.00324584 0.00525126
-0.01 -0.0056304 -0.00925891
-0.01 -0.0073737 -0.00417055
-0.01 -0.00744016 0
-0.01 -0.0073737 0.00417055
-0.01 -0.0056304 0.00925891
-0.01 -0.00310124 -0.00822914
-0.01 -0.00381022 -0.00410507
-0.0100001 -0.0039493 0
-0.01 -0.00381022 0.00410507
-0.01 -0.00310124 0.00822914
-0.01 0 -0.00883393
-0.01 0 -0.00398103
-0.01 -1.38778e-17 0
-0.01 0 0.00398103
-0.01 -1.38778e-17 0.00883393
-0.01 0.00310124 -0.00822914
-0.01 0.00381022 -0.00410507
-0.0100001 0.0039493 1.38778e-17
-0.01 0.00381022 0.00410507
-0.01 0.00310124 0.00822914
-0.01 0.0056304 -0.00925891
-0.01 0.0073737 -0.00417055
-0.01 0.00744016 -2.77556e-17
-0.01 0.0073737 0.00417055
-0.01 0.0056304 0.00925891
-0.0161673 -0.00324581 -0.00525125
-0.0191517 -0.00446838 -0.00249273
-0.0169218 -0.00405517 0
-0.0191517 -0.00446838 0.00249273
-0.0161673 -0.00324581 0.00525125
-0.0149729 -0.00172043 -0.00425576
-0.0173606 -0.00222322 -0.00221183
-0.0150397 -0.00208835 0
-0.0173606 -0.00222322 0.00221183
-0.0149729 -0.00172043 0.00425576
-0.016589 0 -0.00493834
-0.0194527 0 -0.00235738
-0.0172933 0 0
-0.0194527 0 0.00235738
-0.016589 1.38778e-17 0.00493834
-0.0149729 0.00172043 -0.00425576
-0.0173606 0.00222322 -0.00221183
-0.0150397 0.00208835 1.38778e-17
-0.0173606 0.00222322 0.00221183
-0.0149729 0.00172043 0.00425576
-0.0161673 0.00324581 -0.00525125
-0.0191517 0.00446838 -0.00249273
-0.0169218 0.00405517 0
-0.0191517 0.00446838 0.00249273
-0.0161673 0.00324581 0.00525125
-0.02 0 0
-0.02 0 0
-0.02 0 0
-0.02 0 0
-0.02 0 0
-0.02 0 0
-0.02 0 0
-0.02 0 0
-0.02 0 0
-0.02 0 0
-0.02 0 0
-0.02 0 0
-0.02 0 0
-0.02 0 0
-0.02 0 0
-0.02 0 0
-0.02 0 0
-0.02 0 0
-0.02 0 0
-0.02 0 0
-0.02 0 0
-0.02 0 0
-0.02 0 0
-0.02 0 0
-0.02 0 0

CELL_DATA 384
TENSORS stress float
-4684.53 -1526.76 -731.49
-1526.76 -992.538 242.934
-731.49 242.934 -3061.2

-12864.8 -809.746 -451.725
-809.746 -12537.1 141.447
-451.725 141.447 -12711.7

-12864.8 -809.746 -451.725
-809.746 -12537.1 141.447
-451.725 141.447 -12711.7

-9608.2 -681.87 -451.083
-681.87 -7939.69 -283.198
-451.083 -283.198 -5917.36

-4284.45 -1060.4 -276.601
-1060.4 373.891 -42.0883
-276.601 -42.0883 1768.79

-4931.73 -1269.57 -495.108
-1269.57 227.836 0.800152
-495.108 0.800152 77.8799

-4409.36 -835.568 -142.609
-835.568 2049.68 -2.12089
-142.609 -2.12089 2379.38

-4001.42 -965.071 -179.734
-965.071 701.621 -69.3637
-179.734 -69.3637 2111.42

-4654.98 -1178.88 -409.788
-1178.88 562.435 -28.8366
-409.788 -28.8366 411.737

-6562.8 -1022.9 -566.031
-1022.9 -769.895 -168.507
-566.031 -168.507 1258.22

-8359.18 -670.318 -392.131
-670.318 -1464.08 -282.67
-392.131 -282.67 -932.91

-8496.4 -612.66 -411.559
-612.66 -2730.47 -354.059
-411.559 -354.059 12.4453

-6562.51 1022.92 566.056
1022.92 -769.495 -168.506
566.056 -168.506 1258.67

-8359.38 670.289 392.131
670.289 -1464.41 -282.666
392.131 -282.666 -933.241

-8496.59 612.635 411.563
612.635 -2730.78 -354.053
411.563 -354.053 12.1028

-4409.38 835.554 142.618
835.554 2049.65 -2.12265
142.618 -2.12265 2379.36

-4001.16 965.084 179.751
965.084 701.931 -69.3619
179.751 -69.3619 2111.77

-4654.74 1178.9 409.809
1178.9 562.712 -28.8347
409.809 -28.8347 412.027

-9607.53 681.912 451.114
681.912 -7938.93 -283.216
451.114 -283.216 -5916.5

-4283.81 1060.43 276.615
1060.43 374.673 -42.0899
276.615 -42.0899 1769.64

-4931.12 1269.61 495.133
1269.61 228.598 0.798848
495.133 0.798848 78.653

-4684.16 1526.78 731.503
1526.78 -992.13 242.937
731.503 242.937 -3060.81

-12864.5 809.776 451.741
809.776 -12536.7 141.447
451.741 141.447 -12711.4

-12864.5 809.776 451.741
809.776 -12536.7 141.447
451.741 141.447 -12711.4

-8659.17 5.22368e-12 -480.464
5.22368e-12 -7074.2 -9.47207e-12
-480.464 -9.47207e-12 -4969.91

-10919.7 0 -523.679
0 -10724.9 0
-523.679 0 -10650.2

-10919.7 0 -523.679
0 -10724.9 0
-523.679 0 -10650.2

-5037.24 30.7905 -703.557
30.7905 -1436.21 -24.1118
-703.557 -24.1118 -3312.83

-5229.5 229.036 -491.207
229.036 -180.864 -265.439
-491.207 -265.439 -204.704

-4363.95 50.7503 -330.423
50.7503 459.309 -285.984
-330.423 -285.984 1538.9

-6826.98 273.021 -573.861
273.021 -1164.12 -456.356
-573.861 -456.356 948.4

-4933.96 344.995 -410.109
344.995 175.815 -288.209
-410.109 -288.209 129.301

-4067.38 166.539 -237.898
166.539 805.535 -309.415
-237.898 -309.415 1879.35

-5400.59 2.17487 -134.499
2.17487 1462.4 -341.332
-134.499 -341.332 1044.43

-8937.57 7.9366 -385.116
7.9366 -2919.52 -329.475
-385.116 -329.475 -932.463

-9463.26 7.83699 -344.431
7.83699 -3094.85 -314.695
-344.431 -314.695 -2720.95

-5400.5 -2.15449 134.513
-2.15449 1462.53 -341.333
134.513 -341.333 1044.56

-8937.6 -7.92261 385.128
-7.92261 -2919.58 -329.474
385.128 -329.474 -932.524

-9463.29 -7.81785 344.437
-7.81785 -3094.91 -314.694
344.437 -314.694 -2721.01

-6826.68 -273.014 573.885
-273.014 -1163.7 -456.362
573.885 -456.362 948.863

-4933.72 -344.983 410.13
-344.983 176.111 -288.213
410.13 -288.213 129.609

-4067.14 -166.525 237.919
-166.525 805.823 -309.419
237.919 -309.419 1879.67

-5036.85 -30.7818 703.571
-30.7818 -1435.78 -24.1128
703.571 -24.1128 -3312.43

-5228.88 -229.037 491.232
-229.037 -180.082 -265.449
491.232 -265.449 -203.914

-4363.33 -50.7453 330.442
-50.7453 460.072 -285.995
330.442 -285.995 1539.71

-8658.68 0 480.487
0 -7073.65 0
480.487 0 -4969.29

-10919.6 0 523.678
0 -10724.9 0
523.678 0 -10650.2

-10919.6 0 523.678
0 -10724.9 0
523.678 0 -10650.2

-5037.24 -30.7905 -703.557
-30.7905 -1436.21 24.1118
-703.557 24.1118 -3312.83

-10919.7 0 -523.679
0 -10724.9 0
-523.679 0 -10650.2

-10919.7 0 -523.679
0 -10724.9 0
-523.679 0 -10650.2

-8659.17 5.22368e-12 -480.464
5.22368e-12 -7074.2 -9.47207e-12
-480.464 -9.47207e-12 -4969.91

-4363.95 -50.7503 -330.423
-50.7503 459.309 285.984
-330.423 285.984 1538.9

-5229.5 -229.036 -491.207
-229.036 -180.864 265.439
-491.207 265.439 -204.704

-5400.59 -2.17487 -134.499
-2.17487 1462.4 341.332
-134.499 341.332 1044.43

-4067.38 -166.539 -237.898
-166.539 805.535 309.415
-237.898 309.415 1879.35

-4933.96 -344.995 -410.109
-344.995 175.815 288.209
-410.109 288.209 129.301

-6826.98 -273.021 -573.861
-273.021 -1164.12 456.356
-573.861 456.356 948.4

-9463.26 -7.83699 -344.431
-7.83699 -3094.85 314.695
-344.431 314.695 -2720.95

-8937.57 -7.9366 -385.116
-7.9366 -2919.52 329.475
-385.116 329.475 -932.463

-6826.68 273.014 573.885
273.014 -1163.7 456.362
573.885 456.362 948.863

-9463.29 7.81785 344.437
7.81785 -3094.91 314.694
344.437 314.694 -2721.01

-8937.6 7.92261 385.128
7.92261 -2919.58 329.474
385.128 329.474 -932.524

-5400.5 2.15449 134.513
2.15449 1462.53 341.333
134.513 341.333 1044.56

-4067.14 166.525 237.919
166.525 805.823 309.419
237.919 309.419 1879.67

-4933.72 344.983 410.13
344.983 176.111 288.213
410.13 288.213 129.609

-8658.68 0 480.487
0 -7073.65 0
480.487 0 -4969.29

-4363.33 50.7453 330.442
50.7453 460.072 285.995
330.442 285.995 1539.71

-5228.88 229.037 491.232
229.037 -180.082 265.449
491.232 265.449 -203.914

-5036.85 30.7818 703.571
30.7818 -1435.78 24.1128
703.571 24.1128 -3312.43

-10919.6 0 523.678
0 -10724.9 0
523.678 0 -10650.2

-10919.6 0 523.678
0 -10724.9 0
523.678 0 -10650.2

-9608.2 681.87 -451.083
681.87 -7939.69 283.198
-451.083 283.198 -5917.36

-12864.8 809.746 -451.725
809.746 -12537.1 -141.447
-451.725 -141.447 -12711.7

-12864.8 809.746 -451.725
809.746 -12537.1 -141.447
-451.725 -141.447 -12711.7

-4684.53 1526.76 -731.49
1526.76 -992.538 -242.934
-731.49 -242.934 -3061.2

-4931.73 1269.57 -495.108
1269.57 227.836 -0.800152
-495.108 -0.800152 77.8799

-4284.45 1060.4 -276.601
1060.4 373.891 42.0883
-276.601 42.0883 1768.79

-6562.8 1022.9 -566.031
1022.9 -769.895 168.507
-566.031 168.507 1258.22

-4654.98 1178.88 -409.788
1178.88 562.435 28.8366
-409.788 28.8366 411.737

-4001.42 965.071 -179.734
965.071 701.621 69.3637
-179.734 69.3637 2111.42

-4409.36 835.568 -142.609
835.568 2049.68 2.12089
-142.609 2.12089 2379.38

-8496.4 612.66 -411.559
612.66 -2730.47 354.059
-411.559 354.059 12.4453

-8359.18 670.318 -392.131
670.318 -1464.08 282.67
-392.131 282.67 -932.91

-4409.38 -835.554 142.618
-835.554 2049.65 2.12265
142.618 2.12265 2379.36

-8496.59 -612.635 411.563
-612.635 -2730.78 354.053
411.563 354.053 12.1028

-8359.38 -670.289 392.131
-670.289 -1464.41 282.666
392.131 282.666 -933.241

-6562.51 -1022.92 566.056
-1022.92 -769.495 168.506
566.056 168.506 1258.67

-4654.74 -1178.9 409.809
-1178.9 562.712 28.8347
409.809 28.8347 412.027

-4001.16 -965.084 179.751
-965.084 701.931 69.3619
179.751 69.3619 2111.77

-4684.16 -1526.78 731.503
-1526.78 -992.13 -242.937
731.503 -242.937 -3060.81

-4931.12 -1269.61 495.133
-1269.61 228.598 -0.798848
495.133 -0.798848 78.653

-4283.81 -1060.43 276.615
-1060.43 374.673 42.0899
276.615 42.0899 1769.64

-9607.53 -681.912 451.114
-681.912 -7938.93 283.216
451.114 283.216 -5916.5

-12864.5 -809.776 451.741
-809.776 -12536.7 -141.447
451.741 -141.447 -12711.4

-12864.5 -809.776 451.741
-809.776 -12536.7 -141.447
451.741 -141.447 -12711.4

-6284.51 -1179.61 -832.081
-1179.61 -4434.4 256.1
-832.081 256.1 -2582.71

-12864.8 -809.746 -451.725
-809.746 -12537.1 141.447
-451.725 141.447 -12711.7

-12864.8 -809.746 -451.725
-809.746 -12537.1 141.447
-451.725 141.447 -12711.7

-4684.53 -1526.76 -731.49
-1526.76 -992.538 242.934
-731.49 242.934 -3061.2

-3717.75 -1505.39 -979.74
-1505.39 1775.87 309.455
-979.74 309.455 1620.48

-3643.88 -1530.25 -959.983
-1530.25 1578.83 308.902
-959.983 308.902 2022.55

-6982.43 -995.308 -565.357
-995.308 -1401.72 152.152
-565.357 152.152 563.303

-5223.09 -1293.24 -890.614
-1293.24 -192.424 289.827
-890.614 289.827 -319.997

-5149.69 -1315.25 -874.228
-1315.25 -369.54 289.461
-874.228 289.461 61.6764

-6047.58 -1066 -804.264
-1066 1192.9 290.166
-804.264 290.166 -66.0066

-8859.71 -639.714 -387.139
-639.714 -2406.1 43.3539
-387.139 43.3539 -1756.63

-8750.75 -650.623 -389.5
-650.623 -2142.96 39.1751
-389.5 39.1751 -1640.79

-6047.35 1066 804.27
1066 1193.25 290.17
804.27 290.17 -65.6904

-8859.9 639.685 387.114
639.685 -2406.43 43.3524
387.114 43.3524 -1756.96

-8750.95 650.595 389.473
650.595 -2143.28 39.1736
389.473 39.1736 -1641.12

-6982.15 995.331 565.35
995.331 -1401.32 152.154
565.35 152.154 563.745

-5222.54 1293.28 890.632
1293.28 -191.742 289.833
890.632 289.833 -319.32

-5149.13 1315.29 874.251
1315.29 -368.854 289.468
874.251 289.468 62.3806

-4684.16 1526.78 731.503
1526.78 -992.13 242.937
731.503 242.937 -3060.81

-3717.12 1505.44 979.761
1505.44 1776.65 309.462
979.761 309.462 1621.26

-3643.24 1530.3 960.01
1530.3 1579.62 308.909
960.01 308.909 2023.35

-6284.02 1179.64 832.099
1179.64 -4433.86 256.105
832.099 256.105 -2582.13

-12864.5 809.776 451.741
809.776 -12536.7 141.447
451.741 141.447 -12711.4

-12864.5 809.776 451.741
809.776 -12536.7 141.447
451.741 141.447 -12711.4

-5037.24 30.7905 -703.557
30.7905 -1436.21 -24.1118
-703.557 -24.1118 -3312.83

-10919.7 0 -523.679
0 -10724.9 0
-523.679 0 -10650.2

-10919.7 0 -523.679
0 -10724.9 0
-523.679 0 -10650.2

-5444.47 0 -831.932
0 -3810.09 0
-831.932 0 -1765.54

-3847.59 183.565 -899.367
183.565 1451.48 -9.49197
-899.367 -9.49197 1742.38

-4039.01 116.759 -948.373
116.759 1334 -12.2759
-948.373 -12.2759 1329.18

-7694.02 0.0107104 -659.438
0.0107104 -757.828 -0.000688974
-659.438 -0.000688974 -2370.29

-5335.12 240.921 -817.89
240.921 -483.298 -13.7474
-817.89 -13.7474 -202.187

-5527.29 179.771 -860.77
179.771 -612.327 -16.454
-860.77 -16.454 -606.067

-7245.66 254.363 -550.239
254.363 -1799.02 -134.781
-550.239 -134.781 250.119

-9850.71 0.219405 -328.691
0.219405 -3780.63 -8.24189
-328.691 -8.24189 -3430.6

-9614.33 0.00839756 -334.641
0.00839756 -3222.12 -0.000409843
-334.641 -0.000409843 -3146.26

-7245.36 -254.355 550.232
-254.355 -1798.6 -134.782
550.232 -134.782 250.58

-9850.75 -0.200857 328.674
-0.200857 -3780.69 -8.24094
328.674 -8.24094 -3430.66

-9614.37 0.00839752 334.621
0.00839752 -3222.18 0.00040982
334.621 0.00040982 -3146.33

-7693.6 0.0107108 659.455
0.0107108 -757.182 0.000688965
659.455 0.000688965 -2369.69

-5334.57 -240.909 817.91
-240.909 -482.615 -13.746
817.91 -13.746 -201.5

-5526.74 -179.76 860.788
-179.76 -611.626 -16.4527
860.788 -16.4527 -605.372

-5444.19 0 831.935
0 -3809.81 0
831.935 0 -1765.24

-3846.96 -183.558 899.389
-183.558 1452.27 -9.49112
899.389 -9.49112 1743.17

-4038.36 -116.754 948.395
-116.754 1334.8 -12.2752
948.395 -12.2752 1329.98

-5036.85 -30.7818 703.571
-30.7818 -1435.78 -24.1128
703.571 -24.1128 -3312.43

-10919.6 0 523.678
0 -10724.9 0
523.678 0 -10650.2

-10919.6 0 523.678
0 -10724.9 0
523.678 0 -10650.2

-5444.47 0 -831.932
0 -3810.09 0
-831.932 0 -1765.54

-10919.7 0 -523.679
0 -10724.9 0
-523.679 0 -10650.2

-10919.7 0 -523.679
0 -10724.9 0
-523.679 0 -10650.2

-5037.24 -30.7905 -703.557
-30.7905 -1436.21 24.1118
-703.557 24.1118 -3312.83

-4039.01 -116.759 -948.373
-116.759 1334 12.2759
-948.373 12.2759 1329.18

-3847.59 -183.565 -899.367
-183.565 1451.48 9.49197
-899.367 9.49197 1742.38

-7245.66 -254.363 -550.239
-254.363 -1799.02 134.781
-550.239 134.781 250.119

-5527.29 -179.771 -860.77
-179.771 -612.327 16.454
-860.77 16.454 -606.067

-5335.12 -240.921 -817.89
-240.921 -483.298 13.7474
-817.89 13.7474 -202.187

-7694.02 -0.0107104 -659.438
-0.0107104 -757.828 0.000688974
-659.438 0.000688974 -2370.29

-9614.33 -0.00839756 -334.641
-0.00839756 -3222.12 0.000409843
-334.641 0.000409843 -3146.26

-9850.71 -0.219405 -328.691
-0.219405 -3780.63 8.24189
-328.691 8.24189 -3430.6

-7693.6 -0.0107108 659.455
-0.0107108 -757.182 -0.000688965
659.455 -0.000688965 -2369.69

-9614.37 -0.00839752 334.621
-0.00839752 -3222.18 -0.00040982
334.621 -0.00040982 -3146.33

-9850.75 0.200857 328.674
0.200857 -3780.69 8.24094
328.674 8.24094 -3430.66

-7245.36 254.355 550.232
254.355 -1798.6 134.782
550.232 134.782 250.58

-5526.74 179.76 860.788
179.76 -611.626 16.4527
860.788 16.4527 -605.372

-5334.57 240.909 817.91
240.909 -482.615 13.746
817.91 13.746 -201.5

-5036.85 30.7818 703.571
30.7818 -1435.78 24.1128
703.571 24.1128 -3312.43

-4038.36 116.754 948.395
116.754 1334.8 12.2752
948.395 12.2752 1329.98

-3846.96 183.558 899.389
183.558 1452.27 9.49112
899.389 9.49112 1743.17

-5444.19 0 831.935
0 -3809.81 0
831.935 0 -1765.24

-10919.6 0 523.678
0 -10724.9 0
523.678 0 -10650.2

-10919.6 0 523.678
0 -10724.9 0
523.678 0 -10650.2

-4684.53 1526.76 -731.49
1526.76 -992.538 -242.934
-731.49 -242.934 -3061.2

-12864.8 809.746 -451.725
809.746 -12537.1 -141.447
-451.725 -141.447 -12711.7

-12864.8 809.746 -451.725
809.746 -12537.1 -141.447
-451.725 -141.447 -12711.7

-6284.51 1179.61 -832.081
1179.61 -4434.4 -256.1
-832.081 -256.1 -2582.71

-3643.88 1530.25 -959.983
1530.25 1578.83 -308.902
-959.983 -308.902 2022.55

-3717.75 1505.39 -979.74
1505.39 1775.87 -309.455
-979.74 -309.455 1620.48

-6047.58 1066 -804.264
1066 1192.9 -290.166
-804.264 -290.166 -66.0066

-5149.69 1315.25 -874.228
1315.25 -369.54 -289.461
-874.228 -289.461 61.6764

-5223.09 1293.24 -890.614
1293.24 -192.424 -289.827
-890.614 -289.827 -319.997

-6982.43 995.308 -565.357
995.308 -1401.72 -152.152
-565.357 -152.152 563.303

-8750.75 650.623 -389.5
650.623 -2142.96 -39.1751
-389.5 -39.1751 -1640.79

-8859.71 639.714 -387.139
639.714 -2406.1 -43.3539
-387.139 -43.3539 -1756.63

-6982.15 -995.331 565.35
-995.331 -1401.32 -152.154
565.35 -152.154 563.745

-8750.95 -650.595 389.473
-650.595 -2143.28 -39.1736
389.473 -39.1736 -1641.12

-8859.9 -639.685 387.114
-639.685 -2406.43 -43.3524
387.114 -43.3524 -1756.96

-6047.35 -1066 804.27
-1066 1193.25 -290.17
804.27 -290.17 -65.6904

-5149.13 -1315.29 874.251
-1315.29 -368.854 -289.468
874.251 -289.468 62.3806

-5222.54 -1293.28 890.632
-1293.28 -191.742 -289.833
890.632 -289.833 -319.32

-6284.02 -1179.64 832.099
-1179.64 -4433.86 -256.105
832.099 -256.105 -2582.13

-3643.24 -1530.3 960.01
-1530.3 1579.62 -308.909
960.01 -308.909 2023.35

-3717.12 -1505.44 979.761
-1505.44 1776.65 -309.462
979.761 -309.462 1621.26

-4684.16 -1526.78 731.503
-1526.78 -992.13 -242.937
731.503 -242.937 -3060.81

-12864.5 -809.776 451.741
-809.776 -12536.7 -141.447
451.741 -141.447 -12711.4

-12864.5 -809.776 451.741
-809.776 -12536.7 -141.447
451.741 -141.447 -12711.4

-4684.53 -1526.76 731.49
-1526.76 -992.538 -242.934
731.49 -242.934 -3061.2

-12864.8 -809.746 451.725
-809.746 -12537.1 -141.447
451.725 -141.447 -12711.7

-12864.8 -809.746 451.725
-809.746 -12537.1 -141.447
451.725 -141.447 -12711.7

-6284.51 -1179.61 832.081
-1179.61 -4434.4 -256.1
832.081 -256.1 -2582.71

-3643.88 -1530.25 959.983
-1530.25 1578.83 -308.902
959.983 -308.902 2022.55

-3717.75 -1505.39 979.74
-1505.39 1775.87 -309.455
979.74 -309.455 1620.48

-6047.58 -1066 804.264
-1066 1192.9 -290.166
804.264 -290.166 -66.0066

-5149.69 -1315.25 874.228
-1315.25 -369.54 -289.461
874.228 -289.461 61.6764

-5223.09 -1293.24 890.614
-1293.24 -192.424 -289.827
890.614 -289.827 -319.997

-6982.43 -995.308 565.357
-995.308 -1401.72 -152.152
565.357 -152.152 563.303

-8750.75 -650.623 389.5
-650.623 -2142.96 -39.1751
389.5 -39.1751 -1640.79

-8859.71 -639.714 387.139
-639.714 -2406.1 -43.3539
387.139 -43.3539 -1756.63

-6982.15 995.331 -565.35
995.331 -1401.32 -152.154
-565.35 -152.154 563.745

-8750.95 650.595 -389.473
650.595 -2143.28 -39.1736
-389.473 -39.1736 -1641.12

-8859.9 639.685 -387.114
639.685 -2406.43 -43.3524
-387.114 -43.3524 -1756.96

-6047.35 1066 -804.27
1066 1193.25 -290.17
-804.27 -290.17 -65.6904

-5149.13 1315.29 -874.251
1315.29 -368.854 -289.468
-874.251 -289.468 62.3806

-5222.54 1293.28 -890.632
1293.28 -191.742 -289.833
-890.632 -289.833 -319.32

-6284.02 1179.64 -832.099
1179.64 -4433.86 -256.105
-832.099 -256.105 -2582.13

-3643.24 1530.3 -960.01
1530.3 1579.62 -308.909
-960.01 -308.909 2023.35

-3717.12 1505.44 -979.761
1505.44 1776.65 -309.462
-979.761 -309.462 1621.26

-4684.16 1526.78 -731.503
1526.78 -992.13 -242.937
-731.503 -242.937 -3060.81

-12864.5 809.776 -451.741
809.776 -12536.7 -141.447
-451.741 -141.447 -12711.4

-12864.5 809.776 -451.741
809.776 -12536.7 -141.447
-451.741 -141.447 -12711.4

-5444.47 0 831.932
0 -3810.09 0
831.932 0 -1765.54

-10919.7 0 523.679
0 -10724.9 0
523.679 0 -10650.2

-10919.7 0 523.679
0 -10724.9 0
523.679 0 -10650.2

-5037.24 30.7905 703.557
30.7905 -1436.21 24.1118
703.557 24.1118 -3312.83

-4039.01 116.759 948.373
116.759 1334 12.2759
948.373 12.2759 1329.18

-3847.59 183.565 899.367
183.565 1451.48 9.49197
899.367 9.49197 1742.38

-7245.66 254.363 550.239
254.363 -1799.02 134.781
550.239 134.781 250.119

-5527.29 179.771 860.77
179.771 -612.327 16.454
860.77 16.454 -606.067

-5335.12 240.921 817.89
240.921 -483.298 13.7474
817.89 13.7474 -202.187

-7694.02 0.0107104 659.438
0.0107104 -757.828 0.000688974
659.438 0.000688974 -2370.29

-9614.33 0.00839756 334.641
0.00839756 -3222.12 0.000409843
334.641 0.000409843 -3146.26

-9850.71 0.219405 328.691
0.219405 -3780.63 8.24189
328.691 8.24189 -3430.6

-7693.6 0.0107108 -659.455
0.0107108 -757.182 -0.000688965
-659.455 -0.000688965 -2369.69

-9614.37 0.00839752 -334.621
0.00839752 -3222.18 -0.00040982
-334.621 -0.00040982 -3146.33

-9850.75 -0.200857 -328.674
-0.200857 -3780.69 8.24094
-328.674 8.24094 -3430.66

-7245.36 -254.355 -550.232
-254.355 -1798.6 134.782
-550.232 134.782 250.58

-5526.74 -179.76 -860.788
-179.76 -611.626 16.4527
-860.788 16.4527 -605.372

-5334.57 -240.909 -817.91
-240.909 -482.615 13.746
-817.91 13.746 -201.5

-5036.85 -30.7818 -703.571
-30.7818 -1435.78 24.1128
-703.571 24.1128 -3312.43

-4038.36 -116.754 -948.395
-116.754 1334.8 12.2752
-948.395 12.2752 1329.98

-3846.96 -183.558 -899.389
-183.558 1452.27 9.49112
-899.389 9.49112 1743.17

-5444.19 0 -831.935
0 -3809.81 0
-831.935 0 -1765.24

-10919.6 0 -523.678
0 -10724.9 0
-523.678 0 -10650.2

-10919.6 0 -523.678
0 -10724.9 0
-523.678 0 -10650.2

-5037.24 -30.7905 703.557
-30.7905 -1436.21 -24.1118
703.557 -24.1118 -3312.83

-10919.7 0 523.679
0 -10724.9 0
523.679 0 -10650.2

-10919.7 0 523.679
0 -10724.9 0
523.679 0 -10650.2

-5444.47 0 831.932
0 -3810.09 0
831.932 0 -1765.54

-3847.59 -183.565 899.367
-183.565 1451.48 -9.49197
899.367 -9.49197 1742.38

-4039.01 -116.759 948.373
-116.759 1334 -12.2759
948.373 -12.2759 1329.18

-7694.02 -0.0107104 659.438
-0.0107104 -757.828 -0.000688974
659.438 -0.000688974 -2370.29

-5335.12 -240.921 817.89
-240.921 -483.298 -13.7474
817.89 -13.7474 -202.187

-5527.29 -179.771 860.77
-179.771 -612.327 -16.454
860.77 -16.454 -606.067

-7245.66 -254.363 550.239
-254.363 -1799.02 -134.781
550.239 -134.781 250.119

-9850.71 -0.219405 328.691
-0.219405 -3780.63 -8.24189
328.691 -8.24189 -3430.6

-9614.33 -0.00839756 334.641
-0.00839756 -3222.12 -0.000409843
334.641 -0.000409843 -3146.26

-7245.36 254.355 -550.232
254.355 -1798.6 -134.782
-550.232 -134.782 250.58

-9850.75 0.200857 -328.674
0.200857 -3780.69 -8.24094
-328.674 -8.24094 -3430.66

-9614.37 -0.00839752 -334.621
-0.00839752 -3222.18 0.00040982
-334.621 0.00040982 -3146.33

-7693.6 -0.0107108 -659.455
-0.0107108 -757.182 0.000688965
-659.455 0.000688965 -2369.69

-5334.57 240.909 -817.91
240.909 -482.615 -13.746
-817.91 -13.746 -201.5

-5526.74 179.76 -860.788
179.76 -611.626 -16.4527
-860.788 -16.4527 -605.372

-5444.19 0 -831.935
0 -3809.81 0
-831.935 0 -1765.24

-3846.96 183.558 -899.389
183.558 1452.27 -9.49112
-899.389 -9.49112 1743.17

-4038.36 116.754 -948.395
116.754 1334.8 -12.2752
-948.395 -12.2752 1329.98

-5036.85 30.7818 -703.571
30.7818 -1435.78 -24.1128
-703.571 -24.1128 -3312.43

-10919.6 0 -523.678
0 -10724.9 0
-523.678 0 -10650.2

-10919.6 0 -523.678
0 -10724.9 0
-523.678 0 -10650.2

-6284.51 1179.61 832.081
1179.61 -4434.4 256.1
832.081 256.1 -2582.71

-12864.8 809.746 451.725
809.746 -12537.1 141.447
451.725 141.447 -12711.7

-12864.8 809.746 451.725
809.746 -12537.1 141.447
451.725 141.447 -12711.7

-4684.53 1526.76 731.49
1526.76 -992.538 242.934
731.49 242.934 -3061.2

-3717.75 1505.39 979.74
1505.39 1775.87 309.455
979.74 309.455 1620.48

-3643.88 1530.25 959.983
1530.25 1578.83 308.902
959.983 308.902 2022.55

-6982.43 995.308 565.357
995.308 -1401.72 152.152
565.357 152.152 563.303

-5223.09 1293.24 890.614
1293.24 -192.424 289.827
890.614 289.827 -319.997

-5149.69 1315.25 874.228
1315.25 -369.54 289.461
874.228 289.461 61.6764

-6047.58 1066 804.264
1066 1192.9 290.166
804.264 290.166 -66.0066

-8859.71 639.714 387.139
639.714 -2406.1 43.3539
387.139 43.3539 -1756.63

-8750.75 650.623 389.5
650.623 -2142.96 39.1751
389.5 39.1751 -1640.79

-6047.35 -1066 -804.27
-1066 1193.25 290.17
-804.27 290.17 -65.6904

-8859.9 -639.685 -387.114
-639.685 -2406.43 43.3524
-387.114 43.3524 -1756.96

-8750.95 -650.595 -389.473
-650.595 -2143.28 39.1736
-389.473 39.1736 -1641.12

-6982.15 -995.331 -565.35
-995.331 -1401.32 152.154
-565.35 152.154 563.745

-5222.54 -1293.28 -890.632
-1293.28 -191.742 289.833
-890.632 289.833 -319.32

-5149.13 -1315.29 -874.251
-1315.29 -368.854 289.468
-874.251 289.468 62.3806

-4684.16 -1526.78 -731.503
-1526.78 -992.13 242.937
-731.503 242.937 -3060.81

-3717.12 -1505.44 -979.761
-1505.44 1776.65 309.462
-979.761 309.462 1621.26

-3643.24 -1530.3 -960.01
-1530.3 1579.62 308.909
-960.01 308.909 2023.35

-6284.02 -1179.64 -832.099
-1179.64 -4433.86 256.105
-832.099 256.105 -2582.13

-12864.5 -809.776 -451.741
-809.776 -12536.7 141.447
-451.741 141.447 -12711.4

-12864.5 -809.776 -451.741
-809.776 -12536.7 141.447
-451.741 141.447 -12711.4

-9608.2 -681.87 451.083
-681.87 -7939.69 283.198
451.083 283.198 -5917.36

-12864.8 -809.746 451.725
-809.746 -12537.1 -141.447
451.725 -141.447 -12711.7

-12864.8 -809.746 451.725
-809.746 -12537.1 -141.447
451.725 -141.447 -12711.7

-4684.53 -1526.76 731.49
-1526.76 -992.538 -242.934
731.49 -242.934 -3061.2

-4931.73 -1269.57 495.108
-1269.57 227.836 -0.800152
495.108 -0.800152 77.8799

-4284.45 -1060.4 276.601
-1060.4 373.891 42.0883
276.601 42.0883 1768.79

-6562.8 -1022.9 566.031
-1022.9 -769.895 168.507
566.031 168.507 1258.22

-4654.98 -1178.88 409.788
-1178.88 562.435 28.8366
409.788 28.8366 411.737

-4001.42 -965.071 179.734
-965.071 701.621 69.3637
179.734 69.3637 2111.42

-4409.36 -835.568 142.609
-835.568 2049.68 2.12089
142.609 2.12089 2379.38

-8496.4 -612.66 411.559
-612.66 -2730.47 354.059
411.559 354.059 12.4453

-8359.18 -670.318 392.131
-670.318 -1464.08 282.67
392.131 282.67 -932.91

-4409.38 835.554 -142.618
835.554 2049.65 2.12265
-142.618 2.12265 2379.36

-8496.59 612.635 -411.563
612.635 -2730.78 354.053
-411.563 354.053 12.1028

-8359.38 670.289 -392.131
670.289 -1464.41 282.666
-392.131 282.666 -933.241

-6562.51 1022.92 -566.056
1022.92 -769.495 168.506
-566.056 168.506 1258.67

-4654.74 1178.9 -409.809
1178.9 562.712 28.8347
-409.809 28.8347 412.027

-4001.16 965.084 -179.751
965.084 701.931 69.3619
-179.751 69.3619 2111.77

-4684.16 1526.78 -731.503
1526.78 -992.13 -242.937
-731.503 -242.937 -3060.81

-4931.12 1269.61 -495.133
1269.61 228.598 -0.798848
-495.133 -0.798848 78.653

-4283.81 1060.43 -276.615
1060.43 374.673 42.0899
-276.615 42.0899 1769.64

-9607.53 681.912 -451.114
681.912 -7938.93 283.216
-451.114 283.216 -5916.5

-12864.5 809.776 -451.741
809.776 -12536.7 -141.447
-451.741 -141.447 -12711.4

-12864.5 809.776 -451.741
809.776 -12536.7 -141.447
-451.741 -141.447 -12711.4

-5037.24 30.7905 703.557
30.7905 -1436.21 24.1118
703.557 24.1118 -3312.83

-10919.7 0 523.679
0 -10724.9 0
523.679 0 -10650.2

-10919.7 0 523.679
0 -10724.9 0
523.679 0 -10650.2

-8659.17 0 480.464
0 -7074.2 0
480.464 0 -4969.91

-4363.95 50.7503 330.423
50.7503 459.309 285.984
330.423 285.984 1538.9

-5229.5 229.036 491.207
229.036 -180.864 265.439
491.207 265.439 -204.704

-5400.59 2.17487 134.499
2.17487 1462.4 341.332
134.499 341.332 1044.43

-4067.38 166.539 237.898
166.539 805.535 309.415
237.898 309.415 1879.35

-4933.96 344.995 410.109
344.995 175.815 288.209
410.109 288.209 129.301

-6826.98 273.021 573.861
273.021 -1164.12 456.356
573.861 456.356 948.4

-9463.26 7.83699 344.431
7.83699 -3094.85 314.695
344.431 314.695 -2720.95

-8937.57 7.9366 385.116
7.9366 -2919.52 329.475
385.116 329.475 -932.463

-6826.68 -273.014 -573.885
-273.014 -1163.7 456.362
-573.885 456.362 948.863

-9463.29 -7.81785 -344.437
-7.81785 -3094.91 314.694
-344.437 314.694 -2721.01

-8937.6 -7.92261 -385.128
-7.92261 -2919.58 329.474
-385.128 329.474 -932.524

-5400.5 -2.15449 -134.513
-2.15449 1462.53 341.333
-134.513 341.333 1044.56

-4067.14 -166.525 -237.919
-166.525 805.823 309.419
-237.919 309.419 1879.67

-4933.72 -344.983 -410.13
-344.983 176.111 288.213
-410.13 288.213 129.609

-8658.68 -5.22391e-12 -480.487
-5.22391e-12 -7073.65 9.47234e-12
-480.487 9.47234e-12 -4969.29

-4363.33 -50.7453 -330.442
-50.7453 460.072 285.995
-330.442 285.995 1539.71

-5228.88 -229.037 -491.232
-229.037 -180.082 265.449
-491.232 265.449 -203.914

-5036.85 -30.7818 -703.571
-30.7818 -1435.78 24.1128
-703.571 24.1128 -3312.43

-10919.6 0 -523.678
0 -10724.9 0
-523.678 0 -10650.2

-10919.6 0 -523.678
0 -10724.9 0
-523.678 0 -10650.2

-8659.17 0 480.464
0 -7074.2 0
480.464 0 -4969.91

-10919.7 0 523.679
0 -10724.9 0
523.679 0 -10650.2

-10919.7 0 523.679
0 -10724.9 0
523.679 0 -10650.2

-5037.24 -30.7905 703.557
-30.7905 -1436.21 -24.1118
703.557 -24.1118 -3312.83

-5229.5 -229.036 491.207
-229.036 -180.864 -265.439
491.207 -265.439 -204.704

-4363.95 -50.7503 330.423
-50.7503 459.309 -285.984
330.423 -285.984 1538.9

-6826.98 -273.021 573.861
-273.021 -1164.12 -456.356
573.861 -456.356 948.4

-4933.96 -344.995 410.109
-344.995 175.815 -288.209
410.109 -288.209 129.301

-4067.38 -166.539 237.898
-166.539 805.535 -309.415
237.898 -309.415 1879.35

-5400.59 -2.17487 134.499
-2.17487 1462.4 -341.332
134.499 -341.332 1044.43

-8937.57 -7.9366 385.116
-7.9366 -2919.52 -329.475
385.116 -329.475 -932.463

-9463.26 -7.83699 344.431
-7.83699 -3094.85 -314.695
344.431 -314.695 -2720.95

-5400.5 2.15449 -134.513
2.15449 1462.53 -341.333
-134.513 -341.333 1044.56

-8937.6 7.92261 -385.128
7.92261 -2919.58 -329.474
-385.128 -329.474 -932.524

-9463.29 7.81785 -344.437
7.81785 -3094.91 -314.694
-344.437 -314.694 -2721.01

-6826.68 273.014 -573.885
273.014 -1163.7 -456.362
-573.885 -456.362 948.863

-4933.72 344.983 -410.13
344.983 176.111 -288.213
-410.13 -288.213 129.609

-4067.14 166.525 -237.919
166.525 805.823 -309.419
-237.919 -309.419 1879.67

-5036.85 30.7818 -703.571
30.7818 -1435.78 -24.1128
-703.571 -24.1128 -3312.43

-5228.88 229.037 -491.232
229.037 -180.082 -265.449
-491.232 -265.449 -203.914

-4363.33 50.7453 -330.442
50.7453 460.072 -285.995
-330.442 -285.995 1539.71

-8658.68 -2.61196e-12 -480.487
-2.61196e-12 -7073.65 4.73617e-12
-480.487 4.73617e-12 -4969.29

-10919.6 0 -523.678
0 -10724.9 0
-523.678 0 -10650.2

-10919.6 0 -523.678
0 -10724.9 0
-523.678 0 -10650.2

-4684.53 1526.76 731.49
1526.76 -992.538 242.934
731.49 242.934 -3061.2

-12864.8 809.746 451.725
809.746 -12537.1 141.447
451.725 141.447 -12711.7

-12864.8 809.746 451.725
809.746 -12537.1 141.447
451.725 141.447 -12711.7

-9608.2 681.87 451.083
681.87 -7939.69 -283.198
451.083 -283.198 -5917.36

-4284.45 1060.4 276.601
1060.4 373.891 -42.0883
276.601 -42.0883 1768.79

-4931.73 1269.57 495.108
1269.57 227.836 0.800152
495.108 0.800152 77.8799

-4409.36 835.568 142.609
835.568 2049.68 -2.12089
142.609 -2.12089 2379.38

-4001.42 965.071 179.734
965.071 701.621 -69.3637
179.734 -69.3637 2111.42

-4654.98 1178.88 409.788
1178.88 562.435 -28.8366
409.788 -28.8366 411.737

-6562.8 1022.9 566.031
1022.9 -769.895 -168.507
566.031 -168.507 1258.22

-8359.18 670.318 392.131
670.318 -1464.08 -282.67
392.131 -282.67 -932.91

-8496.4 612.66 411.559
612.66 -2730.47 -354.059
411.559 -354.059 12.4453

-6562.51 -1022.92 -566.056
-1022.92 -769.495 -168.506
-566.056 -168.506 1258.67

-8359.38 -670.289 -392.131
-670.289 -1464.41 -282.666
-392.131 -282.666 -933.241

-8496.59 -612.635 -411.563
-612.635 -2730.78 -354.053
-411.563 -354.053 12.1028

-4409.38 -835.554 -142.618
-835.554 2049.65 -2.12265
-142.618 -2.12265 2379.36

-4001.16 -965.084 -179.751
-965.084 701.931 -69.3619
-179.751 -69.3619 2111.77

-4654.74 -1178.9 -409.809
-1178.9 562.712 -28.8347
-409.809 -28.8347 412.027

-9607.53 -681.912 -451.114
-681.912 -7938.93 -283.216
-451.114 -283.216 -5916.5

-4283.81 -1060.43 -276.615
-1060.43 374.673 -42.0899
-276.615 -42.0899 1769.64

-4931.12 -1269.61 -495.133
-1269.61 228.598 0.798848
-495.133 0.798848 78.653

-4684.16 -1526.78 -731.503
-1526.78 -992.13 242.937
-731.503 242.937 -3060.81

-12864.5 -809.776 -451.741
-809.776 -12536.7 141.447
-451.741 141.447 -12711.4

-12864.5 -809.776 -451.741
-809.776 -12536.7 141.447
-451.741 141.447 -12711.4

