# vtk DataFile Version 3.0
vtk output at time 0.3
ASCII
DATASET UNSTRUCTURED_GRID
POINTS 125 float
0 0 0 0 0 0.05 0 0 0.1 
0 0 0.15 0 0 0.2 0 0.05 0 
0 0.05 0.05 0 0.05 0.1 0 0.05 0.15 
0 0.05 0.2 0 0.1 0 0 0.1 0.05 
0 0.1 0.1 0 0.1 0.15 0 0.1 0.2 
0 0.15 0 0 0.15 0.05 0 0.15 0.1 
0 0.15 0.15 0 0.15 0.2 0 0.2 0 
0 0.2 0.05 0 0.2 0.1 0 0.2 0.15 
0 0.2 0.2 0.0471431 -0.00248485 -0.00406911 0.049369 -0.00343874 0.0480894 
0.0477068 -0.00312455 0.1 0.049369 -0.00343874 0.151911 0.0471431 -0.00248485 0.204069 
0.0462328 0.0486821 -0.00329599 0.0480139 0.0482876 0.0483002 0.0462801 0.0483926 0.1 
0.0480139 0.0482876 0.1517 0.0462328 0.0486821 0.203296 0.0474316 0.1 -0.00383197 
0.0495588 0.1 0.0481873 0.0479489 0.1 0.1 0.0495588 0.1 0.151813 
0.0474316 0.1 0.203832 0.0462328 0.151318 -0.00329599 0.0480139 0.151712 0.0483002 
0.0462801 0.151607 0.1 0.0480139 0.151712 0.1517 0.0462328 0.151318 0.203296 
0.0471431 0.202485 -0.00406911 0.049369 0.203439 0.0480894 0.0477068 0.203125 0.1 
0.049369 0.203439 0.151911 0.0471431 0.202485 0.204069 0.0925 -0.00434497 -0.00718567 
0.0925 -0.00570846 0.0467827 0.0925 -0.00577436 0.1 0.0925 -0.00570846 0.153217 
0.0925 -0.00434497 0.207186 0.0925 0.0476221 -0.00637606 0.0925 0.0470695 0.046821 
0.0924999 0.0469607 0.1 0.0925 0.0470695 0.153179 0.0925 0.0476221 0.206376 
0.0925 0.1 -0.00685614 0.0925 0.1 0.0469179 0.0925 0.1 0.1 
0.0925 0.1 0.153082 0.0925 0.1 0.206856 0.0925 0.152378 -0.00637606 
0.0925 0.152931 0.046821 0.0924999 0.153039 0.1 0.0925 0.152931 0.153179 
0.0925 0.152378 0.206376 0.0925 0.204345 -0.00718567 0.0925 0.205708 0.0467827 
0.0925 0.205774 0.1 0.0925 0.205708 0.153217 0.0925 0.204345 0.207186 
0.137857 -0.00248482 -0.0040691 0.135631 -0.00343871 0.0480894 0.137293 -0.00312452 0.1 
0.135631 -0.00343871 0.151911 0.137857 -0.00248482 0.204069 0.138767 0.0486821 -0.00329598 
0.136986 0.0482876 0.0483002 0.13872 0.0483927 0.1 0.136986 0.0482876 0.1517 
0.138767 0.0486821 0.203296 0.137568 0.1 -0.00383196 0.135441 0.1 0.0481873 
0.137051 0.1 0.1 0.135441 0.1 0.151813 0.137568 0.1 0.203832 
0.138767 0.151318 -0.00329598 0.136986 0.151712 0.0483002 0.13872 0.151607 0.1 
0.136986 0.151712 0.1517 0.138767 0.151318 0.203296 0.137857 0.202485 -0.0040691 
0.135631 0.203439 0.0480894 0.137293 0.203125 0.1 0.135631 0.203439 0.151911 
0.137857 0.202485 0.204069 0.185 0 0 0.185 0 0.05 
0.185 0 0.1 0.185 0 0.15 0.185 0 0.2 
0.185 0.05 0 0.185 0.05 0.05 0.185 0.05 0.1 
0.185 0.05 0.15 0.185 0.05 0.2 0.185 0.1 0 
0.185 0.1 0.05 0.185 0.1 0.1 0.185 0.1 0.15 
0.185 0.1 0.2 0.185 0.15 0 0.185 0.15 0.05 
0.185 0.15 0.1 0.185 0.15 0.15 0.185 0.15 0.2 
0.185 0.2 0 0.185 0.2 0.05 0.185 0.2 0.1 
0.185 0.2 0.15 0.185 0.2 0.2 

CELLS 384 1920
4 5 6 26 31 
4 5 6 1 26 
4 0 5 1 26 
4 0 5 26 25 
4 25 5 26 30 
4 30 5 26 31 
4 26 25 55 50 
4 26 25 30 55 
4 31 26 30 55 
4 26 31 56 55 
4 26 56 51 55 
4 26 51 50 55 
4 55 56 76 81 
4 55 56 51 76 
4 50 55 51 76 
4 50 55 76 75 
4 75 55 76 80 
4 80 55 76 81 
4 76 75 105 100 
4 76 75 80 105 
4 81 76 80 105 
4 76 81 106 105 
4 76 106 101 105 
4 76 101 100 105 
4 10 5 35 36 
4 5 10 11 36 
4 6 5 11 36 
4 5 6 31 36 
4 5 31 30 36 
4 5 30 35 36 
4 36 31 55 56 
4 36 31 30 55 
4 35 36 30 55 
4 35 36 55 60 
4 60 36 55 61 
4 61 36 55 56 
4 60 55 85 86 
4 55 60 61 86 
4 56 55 61 86 
4 55 56 81 86 
4 55 81 80 86 
4 55 80 85 86 
4 86 81 105 106 
4 86 81 80 105 
4 85 86 80 105 
4 85 86 105 110 
4 110 86 105 111 
4 111 86 105 106 
4 15 16 36 41 
4 15 16 11 36 
4 10 15 11 36 
4 10 15 36 35 
4 35 15 36 40 
4 40 15 36 41 
4 36 35 65 60 
4 36 35 40 65 
4 41 36 40 65 
4 36 41 66 65 
4 36 66 61 65 
4 36 61 60 65 
4 65 66 86 91 
4 65 66 61 86 
4 60 65 61 86 
4 60 65 86 85 
4 85 65 86 90 
4 90 65 86 91 
4 86 85 115 110 
4 86 85 90 115 
4 91 86 90 115 
4 86 91 116 115 
4 86 116 111 115 
4 86 111 110 115 
4 20 15 45 46 
4 15 20 21 46 
4 16 15 21 46 
4 15 16 41 46 
4 15 41 40 46 
4 15 40 45 46 
4 46 41 65 66 
4 46 41 40 65 
4 45 46 40 65 
4 45 46 65 70 
4 70 46 65 71 
4 71 46 65 66 
4 70 65 95 96 
4 65 70 71 96 
4 66 65 71 96 
4 65 66 91 96 
4 65 91 90 96 
4 65 90 95 96 
4 96 91 115 116 
4 96 91 90 115 
4 95 96 90 115 
4 95 96 115 120 
4 120 96 115 121 
4 121 96 115 116 
4 7 2 26 27 
4 7 2 1 26 
4 6 7 1 26 
4 6 7 26 31 
4 31 7 26 32 
4 32 7 26 27 
4 31 26 56 57 
4 26 31 32 57 
4 27 26 32 57 
4 26 27 52 57 
4 26 52 51 57 
4 26 51 56 57 
4 57 52 76 77 
4 57 52 51 76 
4 56 57 51 76 
4 56 57 76 81 
4 81 57 76 82 
4 82 57 76 77 
4 81 76 106 107 
4 76 81 82 107 
4 77 76 82 107 
4 76 77 102 107 
4 76 102 101 107 
4 76 101 106 107 
4 7 6 36 31 
4 7 6 11 36 
4 12 7 11 36 
4 7 12 37 36 
4 7 37 32 36 
4 7 32 31 36 
4 36 37 57 62 
4 36 37 32 57 
4 31 36 32 57 
4 31 36 57 56 
4 56 36 57 61 
4 61 36 57 62 
4 57 56 86 81 
4 57 56 61 86 
4 62 57 61 86 
4 57 62 87 86 
4 57 87 82 86 
4 57 82 81 86 
4 86 87 107 112 
4 86 87 82 107 
4 81 86 82 107 
4 81 86 107 106 
4 106 86 107 111 
4 111 86 107 112 
4 17 12 36 37 
4 17 12 11 36 
4 16 17 11 36 
4 16 17 36 41 
4 41 17 36 42 
4 42 17 36 37 
4 41 36 66 67 
4 36 41 42 67 
4 37 36 42 67 
4 36 37 62 67 
4 36 62 61 67 
4 36 61 66 67 
4 67 62 86 87 
4 67 62 61 86 
4 66 67 61 86 
4 66 67 86 91 
4 91 67 86 92 
4 92 67 86 87 
4 91 86 116 117 
4 86 91 92 117 
4 87 86 92 117 
4 86 87 112 117 
4 86 112 111 117 
4 86 111 116 117 
4 17 16 46 41 
4 17 16 21 46 
4 22 17 21 46 
4 17 22 47 46 
4 17 47 42 46 
4 17 42 41 46 
4 46 47 67 72 
4 46 47 42 67 
4 41 46 42 67 
4 41 46 67 66 
4 66 46 67 71 
4 71 46 67 72 
4 67 66 96 91 
4 67 66 71 96 
4 72 67 71 96 
4 67 72 97 96 
4 67 97 92 96 
4 67 92 91 96 
4 96 97 117 122 
4 96 97 92 117 
4 91 96 92 117 
4 91 96 117 116 
4 116 96 117 121 
4 121 96 117 122 
4 7 8 28 33 
4 7 8 3 28 
4 2 7 3 28 
4 2 7 28 27 
4 27 7 28 32 
4 32 7 28 33 
4 28 27 57 52 
4 28 27 32 57 
4 33 28 32 57 
4 28 33 58 57 
4 28 58 53 57 
4 28 53 52 57 
4 57 58 78 83 
4 57 58 53 78 
4 52 57 53 78 
4 52 57 78 77 
4 77 57 78 82 
4 82 57 78 83 
4 78 77 107 102 
4 78 77 82 107 
4 83 78 82 107 
4 78 83 108 107 
4 78 108 103 107 
4 78 103 102 107 
4 12 7 37 38 
4 7 12 13 38 
4 8 7 13 38 
4 7 8 33 38 
4 7 33 32 38 
4 7 32 37 38 
4 38 33 57 58 
4 38 33 32 57 
4 37 38 32 57 
4 37 38 57 62 
4 62 38 57 63 
4 63 38 57 58 
4 62 57 87 88 
4 57 62 63 88 
4 58 57 63 88 
4 57 58 83 88 
4 57 83 82 88 
4 57 82 87 88 
4 88 83 107 108 
4 88 83 82 107 
4 87 88 82 107 
4 87 88 107 112 
4 112 88 107 113 
4 113 88 107 108 
4 17 18 38 43 
4 17 18 13 38 
4 12 17 13 38 
4 12 17 38 37 
4 37 17 38 42 
4 42 17 38 43 
4 38 37 67 62 
4 38 37 42 67 
4 43 38 42 67 
4 38 43 68 67 
4 38 68 63 67 
4 38 63 62 67 
4 67 68 88 93 
4 67 68 63 88 
4 62 67 63 88 
4 62 67 88 87 
4 87 67 88 92 
4 92 67 88 93 
4 88 87 117 112 
4 88 87 92 117 
4 93 88 92 117 
4 88 93 118 117 
4 88 118 113 117 
4 88 113 112 117 
4 22 17 47 48 
4 17 22 23 48 
4 18 17 23 48 
4 17 18 43 48 
4 17 43 42 48 
4 17 42 47 48 
4 48 43 67 68 
4 48 43 42 67 
4 47 48 42 67 
4 47 48 67 72 
4 72 48 67 73 
4 73 48 67 68 
4 72 67 97 98 
4 67 72 73 98 
4 68 67 73 98 
4 67 68 93 98 
4 67 93 92 98 
4 67 92 97 98 
4 98 93 117 118 
4 98 93 92 117 
4 97 98 92 117 
4 97 98 117 122 
4 122 98 117 123 
4 123 98 117 118 
4 9 4 28 29 
4 9 4 3 28 
4 8 9 3 28 
4 8 9 28 33 
4 33 9 28 34 
4 34 9 28 29 
4 33 28 58 59 
4 28 33 34 59 
4 29 28 34 59 
4 28 29 54 59 
4 28 54 53 59 
4 28 53 58 59 
4 59 54 78 79 
4 59 54 53 78 
4 58 59 53 78 
4 58 59 78 83 
4 83 59 78 84 
4 84 59 78 79 
4 83 78 108 109 
4 78 83 84 109 
4 79 78 84 109 
4 78 79 104 109 
4 78 104 103 109 
4 78 103 108 109 
4 9 8 38 33 
4 9 8 13 38 
4 14 9 13 38 
4 9 14 39 38 
4 9 39 34 38 
4 9 34 33 38 
4 38 39 59 64 
4 38 39 34 59 
4 33 38 34 59 
4 33 38 59 58 
4 58 38 59 63 
4 63 38 59 64 
4 59 58 88 83 
4 59 58 63 88 
4 64 59 63 88 
4 59 64 89 88 
4 59 89 84 88 
4 59 84 83 88 
4 88 89 109 114 
4 88 89 84 109 
4 83 88 84 109 
4 83 88 109 108 
4 108 88 109 113 
4 113 88 109 114 
4 19 14 38 39 
4 19 14 13 38 
4 18 19 13 38 
4 18 19 38 43 
4 43 19 38 44 
4 44 19 38 39 
4 43 38 68 69 
4 38 43 44 69 
4 39 38 44 69 
4 38 39 64 69 
4 38 64 63 69 
4 38 63 68 69 
4 69 64 88 89 
4 69 64 63 88 
4 68 69 63 88 
4 68 69 88 93 
4 93 69 88 94 
4 94 69 88 89 
4 93 88 118 119 
4 88 93 94 119 
4 89 88 94 119 
4 88 89 114 119 
4 88 114 113 119 
4 88 113 118 119 
4 19 18 48 43 
4 19 18 23 48 
4 24 19 23 48 
4 19 24 49 48 
4 19 49 44 48 
4 19 44 43 48 
4 48 49 69 74 
4 48 49 44 69 
4 43 48 44 69 
4 43 48 69 68 
4 68 48 69 73 
4 73 48 69 74 
4 69 68 98 93 
4 69 68 73 98 
4 74 69 73 98 
4 69 74 99 98 
4 69 99 94 98 
4 69 94 93 98 
4 98 99 119 124 
4 98 99 94 119 
4 93 98 94 119 
4 93 98 119 118 
4 118 98 119 123 
4 123 98 119 124 

CELL_TYPES 384
10
10
10
10
10
10
10
10
10
10
10
10
10
10
10
10
10
10
10
10
10
10
10
10
10
10
10
10
10
10
10
10
10
10
10
10
10
10
10
10
10
10
10
10
10
10
10
10
10
10
10
10
10
10
10
10
10
10
10
10
10
10
10
10
10
10
10
10
10
10
10
10
10
10
10
10
10
10
10
10
10
10
10
10
10
10
10
10
10
10
10
10
10
10
10
10
10
10
10
10
10
10
10
10
10
10
10
10
10
10
10
10
10
10
10
10
10
10
10
10
10
10
10
10
10
10
10
10
10
10
10
10
10
10
10
10
10
10
10
10
10
10
10
10
10
10
10
10
10
10
10
10
10
10
10
10
10
10
10
10
10
10
10
10
10
10
10
10
10
10
10
10
10
10
10
10
10
10
10
10
10
10
10
10
10
10
10
10
10
10
10
10
10
10
10
10
10
10
10
10
10
10
10
10
10
10
10
10
10
10
10
10
10
10
10
10
10
10
10
10
10
10
10
10
10
10
10
10
10
10
10
10
10
10
10
10
10
10
10
10
10
10
10
10
10
10
10
10
10
10
10
10
10
10
10
10
10
10
10
10
10
10
10
10
10
10
10
10
10
10
10
10
10
10
10
10
10
10
10
10
10
10
10
10
10
10
10
10
10
10
10
10
10
10
10
10
10
10
10
10
10
10
10
10
10
10
10
10
10
10
10
10
10
10
10
10
10
10
10
10
10
10
10
10
10
10
10
10
10
10
10
10
10
10
10
10
10
10
10
10
10
10
10
10
10
10
10
10
10
10
10
10
10
10
10
10
10
10
10
10
10
10
10
10
10
10
10
10
10
10
10
10
10
10
10
10
10
10
10
10
10
10
10
10

POINT_DATA 125
VECTORS displacement float
0 0 0
0 0 0
0 0 0
0 0 0
0 0 0
0 0 0
0 0 0
0 0 0
0 0 0
0 0 0
0 0 0
0 0 0
0 0 0
0 0 0
0 0 0
0 0 0
0 0 0
0 0 0
0 0 0
0 0 0
0 0 0
0 0 0
0 0 0
0 0 0
0 0 0
-0.00285695 -0.00248485 -0.00406911
-0.000631045 -0.00343874 -0.00191063
-0.00229315 -0.00312455 -1.38778e-17
-0.000631045 -0.00343874 0.00191063
-0.00285695 -0.00248485 0.00406911
-0.00376722 -0.00131793 -0.00329599
-0.00198608 -0.00171238 -0.00169983
-0.00371991 -0.00160735 0
-0.00198608 -0.00171238 0.00169983
-0.00376722 -0.00131793 0.00329599
-0.00256841 2.77556e-17 -0.00383197
-0.000441163 0 -0.00181274
-0.00205105 0 -1.38778e-17
-0.000441163 0 0.00181274
-0.00256841 -1.38778e-17 0.00383197
-0.00376722 0.00131793 -0.00329599
-0.00198608 0.00171238 -0.00169983
-0.00371991 0.00160735 -1.38778e-17
-0.00198608 0.00171238 0.00169983
-0.00376722 0.00131793 0.00329599
-0.00285695 0.00248485 -0.00406911
-0.000631045 0.00343874 -0.00191063
-0.00229315 0.00312455 0
-0.000631045 0.00343874 0.00191063
-0.00285695 0.00248485 0.00406911
-0.00750001 -0.00434497 -0.00718567
-0.0075 -0.00570846 -0.00321729
-0.00750004 -0.00577436 0
-0.0075 -0.00570846 0.00321729
-0.00750001 -0.00434497 0.00718567
-0.00750004 -0.00237789 -0.00637606
-0.00750003 -0.00293051 -0.00317901
-0.00750007 -0.00303927 0
-0.00750003 -0.00293051 0.00317901
-0.00750004 -0.00237789 0.00637606
-0.00750002 0 -0.00685614
-0.0075 1.38778e-17 -0.00308209
-0.00750004 0 0
-0.0075 0 0.00308209
-0.00750002 0 0.00685614
-0.00750004 0.00237789 -0.00637606
-0.00750003 0.00293051 -0.00317901
-0.00750007 0.00303927 0
-0.00750003 0.00293051 0.00317901
-0.00750004 0.00237789 0.00637606
-0.00750001 0.00434497 -0.00718567
-0.0075 0.00570846 -0.00321729
-0.00750004 0.00577436 -1.38778e-17
-0.0075 0.00570846 0.00321729
-0.00750001 0.00434497 0.00718567
-0.0121431 -0.00248482 -0.0040691
-0.014369 -0.00343871 -0.00191062
-0.0127069 -0.00312452 0
-0.014369 -0.00343871 0.00191062
-0.0121431 -0.00248482 0.0040691
-0.0112328 -0.00131791 -0.00329598
-0.013014 -0.00171236 -0.00169981
-0.0112802 -0.00160734 0
-0.013014 -0.00171236 0.00169981
-0.0112328 -0.00131791 0.00329598
-0.0124316 0 -0.00383196
-0.0145588 0 -0.00181273
-0.012949 0 0
-0.0145588 0 0.00181273
-0.0124316 1.38778e-17 0.00383196
-0.0112328 0.00131791 -0.00329598
-0.013014 0.00171236 -0.00169981
-0.0112802 0.00160734 -1.38778e-17
-0.013014 0.00171236 0.00169981
-0.0112328 0.00131791 0.00329598
-0.0121431 0.00248482 -0.0040691
-0.014369 0.00343871 -0.00191062
-0.0127069 0.00312452 0
-0.014369 0.00343871 0.00191062
-0.0121431 0.00248482 0.0040691
-0.015 0 0
-0.015 0 0
-0.015 0 0
-0.015 0 0
-0.015 0 0
-0.015 0 0
-0.015 0 0
-0.015 0 0
-0.015 0 0
-0.015 0 0
-0.015 0 0
-0.015 0 0
-0.015 0 0
-0.015 0 0
-0.015 0 0
-0.015 0 0
-0.015 0 0
-0.015 0 0
-0.015 0 0
-0.015 0 0
-0.015 0 0
-0.015 0 0
-0.015 0 0
-0.015 0 0
-0.015 0 0

CELL_DATA 384
TENSORS stress float
-3771.15 -1204.63 -601.755
-1204.63 -867.006 163.09
-601.755 163.09 -2432.93

-10535.1 -789.391 -438.601
-789.391 -10221.3 89.4996
-438.601 89.4996 -10332.6

-10535.1 -789.391 -438.601
-789.391 -10221.3 89.4996
-438.601 89.4996 -10332.6

-7676.79 -647.674 -463.641
-647.674 -6147.77 -258.957
-463.641 -258.957 -4487.83

-3455.97 -848.583 -298.992
-848.583 238.253 -43.1502
-298.992 -43.1502 1296.67

-3975.09 -1013.8 -464.831
-1013.8 134.046 -20.3442
-464.831 -20.3442 42.4794

-3570.96 -689.11 -203.053
-689.11 1548.83 -11.6807
-203.053 -11.6807 1793.14

-3221.49 -767.179 -221.273
-767.179 497.087 -59.452
-221.273 -59.452 1564.61

-3744.19 -935.122 -394.007
-935.122 397.13 -38.1164
-394.007 -38.1164 304.558

-5337.45 -861.521 -489.772
-861.521 -501.263 -137.96
-489.772 -137.96 1013.41

-7158.55 -615.218 -356.707
-615.218 -1271.43 -221.217
-356.707 -221.217 -892.726

-7174.72 -584.33 -372.323
-584.33 -2075 -262.111
-372.323 -262.111 -47.7666

-5337.15 861.538 489.794
861.538 -500.892 -137.959
489.794 -137.959 1013.82

-7158.77 615.191 356.709
615.191 -1271.76 -221.213
356.709 -221.213 -893.056

-7174.94 584.307 372.329
584.307 -2075.32 -262.107
372.329 -262.107 -48.106

-3570.99 689.097 203.062
689.097 1548.8 -11.6825
203.062 -11.6825 1793.11

-3221.2 767.19 221.292
767.19 497.395 -59.4503
221.292 -59.4503 1564.96

-3743.95 935.134 394.028
935.134 397.389 -38.115
394.028 -38.115 304.831

-7676.05 647.704 463.67
647.704 -6146.96 -258.973
463.67 -258.973 -4486.95

-3455.27 848.605 299.006
848.605 239.047 -43.1516
299.006 -43.1516 1297.52

-3974.44 1013.82 464.852
1013.82 134.801 -20.346
464.852 -20.346 43.2469

-3770.77 1204.65 601.763
1204.65 -866.602 163.092
601.763 163.092 -2432.54

-10534.7 789.412 438.613
789.412 -10220.9 89.4993
438.613 89.4993 -10332.2

-10534.7 789.412 438.613
789.412 -10220.9 89.4993
438.613 89.4993 -10332.2

-6912.46 1.24457e-11 -473.664
1.24457e-11 -5487.6 -1.92169e-11
-473.664 -1.92169e-11 -3805.24

-9098.84 0 -470.146
0 -8898.36 0
-470.146 0 -8851.79

-9098.84 0 -470.146
0 -8898.36 0
-470.146 0 -8851.79

-4030.7 -17.2599 -585.912
-17.2599 -1178.97 -24.155
-585.912 -24.155 -2632.44

-4201.96 143.68 -462.38
143.68 -156.991 -211.663
-462.38 -211.663 -173.743

-3506.06 8.09146 -342.304
8.09146 318.569 -227.93
-342.304 -227.93 1130.49

-5544.89 184.552 -493.65
184.552 -784.744 -338.712
-493.65 -338.712 782.027

-3959.87 236.918 -393.838
236.918 118.787 -225.576
-393.838 -225.576 88.4238

-3263.55 101.344 -267.038
101.344 588.163 -242.162
-267.038 -242.162 1396.93

-4383.73 2.32961 -195.185
2.32961 1076.21 -255.466
-195.185 -255.466 793.42

-7583.63 5.02773 -353.115
5.02773 -2259.15 -245.738
-353.115 -245.738 -781.899

-8155.28 4.85672 -324.01
4.85672 -2573.17 -229.426
-324.01 -229.426 -2282.41

-4383.64 -2.30851 195.201
-2.30851 1076.32 -255.467
195.201 -255.467 793.535

-7583.67 -5.01161 353.13
-5.01161 -2259.21 -245.737
353.13 -245.737 -781.96

-8155.32 -4.83498 324.017
-4.83498 -2573.22 -229.425
324.017 -229.425 -2282.47

-5544.59 -184.54 493.673
-184.54 -784.362 -338.716
493.673 -338.716 782.446

-3959.63 -236.902 393.859
-236.902 119.057 -225.579
393.859 -225.579 88.7067

-3263.31 -101.328 267.061
-101.328 588.432 -242.166
267.061 -242.166 1397.22

-4030.31 17.2694 585.92
17.2694 -1178.56 -24.156
585.92 -24.156 -2632.04

-4201.31 -143.677 462.401
-143.677 -156.224 -211.672
462.401 -211.672 -172.966

-3505.4 -8.08584 342.323
-8.08584 319.327 -227.939
342.323 -227.939 1131.29

-6911.92 0 473.686
0 -5487.02 0
473.686 0 -3804.6

-9098.81 0 470.143
0 -8898.32 0
470.143 0 -8851.76

-9098.81 0 470.143
0 -8898.32 0
470.143 0 -8851.76

-4030.7 17.2599 -585.912
17.2599 -1178.97 24.155
-585.912 24.155 -2632.44

-9098.84 0 -470.146
0 -8898.36 0
-470.146 0 -8851.79

-9098.84 0 -470.146
0 -8898.36 0
-470.146 0 -8851.79

-6912.46 1.24457e-11 -473.664
1.24457e-11 -5487.6 -1.92169e-11
-473.664 -1.92169e-11 -3805.24

-3506.06 -8.09146 -342.304
-8.09146 318.569 227.93
-342.304 227.93 1130.49

-4201.96 -143.68 -462.38
-143.68 -156.991 211.663
-462.38 211.663 -173.743

-4383.73 -2.32961 -195.185
-2.32961 1076.21 255.466
-195.185 255.466 793.42

-3263.55 -101.344 -267.038
-101.344 588.163 242.162
-267.038 242.162 1396.93

-3959.87 -236.918 -393.838
-236.918 118.787 225.576
-393.838 225.576 88.4238

-5544.89 -184.552 -493.65
-184.552 -784.744 338.712
-493.65 338.712 782.027

-8155.28 -4.85672 -324.01
-4.85672 -2573.17 229.426
-324.01 229.426 -2282.41

-7583.63 -5.02773 -353.115
-5.02773 -2259.15 245.738
-353.115 245.738 -781.899

-5544.59 184.54 493.673
184.54 -784.362 338.716
493.673 338.716 782.446

-8155.32 4.83498 324.017
4.83498 -2573.22 229.425
324.017 229.425 -2282.47

-7583.67 5.01161 353.13
5.01161 -2259.21 245.737
353.13 245.737 -781.96

-4383.64 2.30851 195.201
2.30851 1076.32 255.467
195.201 255.467 793.535

-3263.31 101.328 267.061
101.328 588.432 242.166
267.061 242.166 1397.22

-3959.63 236.902 393.859
236.902 119.057 225.579
393.859 225.579 88.7067

-6911.92 0 473.686
0 -5487.02 0
473.686 0 -3804.6

-3505.4 8.08584 342.323
8.08584 319.327 227.939
342.323 227.939 1131.29

-4201.31 143.677 462.401
143.677 -156.224 211.672
462.401 211.672 -172.966

-4030.31 -17.2694 585.92
-17.2694 -1178.56 24.156
585.92 24.156 -2632.04

-9098.81 0 470.143
0 -8898.32 0
470.143 0 -8851.76

-9098.81 0 470.143
0 -8898.32 0
470.143 0 -8851.76

-7676.79 647.674 -463.641
647.674 -6147.77 258.957
-463.641 258.957 -4487.83

-10535.1 789.391 -438.601
789.391 -10221.3 -89.4996
-438.601 -89.4996 -10332.6

-10535.1 789.391 -438.601
789.391 -10221.3 -89.4996
-438.601 -89.4996 -10332.6

-3771.15 1204.63 -601.755
1204.63 -867.006 -163.09
-601.755 -163.09 -2432.93

-3975.09 1013.8 -464.831
1013.8 134.046 20.3442
-464.831 20.3442 42.4794

-3455.97 848.583 -298.992
848.583 238.253 43.1502
-298.992 43.1502 1296.67

-5337.45 861.521 -489.772
861.521 -501.263 137.96
-489.772 137.96 1013.41

-3744.19 935.122 -394.007
935.122 397.13 38.1164
-394.007 38.1164 304.558

-3221.49 767.179 -221.273
767.179 497.087 59.452
-221.273 59.452 1564.61

-3570.96 689.11 -203.053
689.11 1548.83 11.6807
-203.053 11.6807 1793.14

-7174.72 584.33 -372.323
584.33 -2075 262.111
-372.323 262.111 -47.7666

-7158.55 615.218 -356.707
615.218 -1271.43 221.217
-356.707 221.217 -892.726

-3570.99 -689.097 203.062
-689.097 1548.8 11.6825
203.062 11.6825 1793.11

-7174.94 -584.307 372.329
-584.307 -2075.32 262.107
372.329 262.107 -48.106

-7158.77 -615.191 356.709
-615.191 -1271.76 221.213
356.709 221.213 -893.056

-5337.15 -861.538 489.794
-861.538 -500.892 137.959
489.794 137.959 1013.82

-3743.95 -935.134 394.028
-935.134 397.389 38.115
394.028 38.115 304.831

-3221.2 -767.19 221.292
-767.19 497.395 59.4503
221.292 59.4503 1564.96

-3770.77 -1204.65 601.763
-1204.65 -866.602 -163.092
601.763 -163.092 -2432.54

-3974.44 -1013.82 464.852
-1013.82 134.801 20.346
464.852 20.346 43.2469

-3455.27 -848.605 299.006
-848.605 239.047 43.1516
299.006 43.1516 1297.52

-7676.05 -647.704 463.67
-647.704 -6146.96 258.973
463.67 258.973 -4486.95

-10534.7 -789.412 438.613
-789.412 -10220.9 -89.4993
438.613 -89.4993 -10332.2

-10534.7 -789.412 438.613
-789.412 -10220.9 -89.4993
438.613 -89.4993 -10332.2

-5036.25 -1010.46 -645.719
-1010.46 -3508.22 180.065
-645.719 180.065 -2044.06

-10535.1 -789.391 -438.601
-789.391 -10221.3 89.4996
-438.601 89.4996 -10332.6

-10535.1 -789.391 -438.601
-789.391 -10221.3 89.4996
-438.601 89.4996 -10332.6

-3771.15 -1204.63 -601.755
-1204.63 -867.006 163.09
-601.755 163.09 -2432.93

-3024.34 -1182.35 -738.46
-1182.35 1272.56 210.295
-738.46 210.295 1173.5

-2976.78 -1204.43 -717.697
-1204.43 1119.52 209.701
-717.697 209.701 1449.08

-5728.59 -842.94 -487.154
-842.94 -1031.05 97.9087
-487.154 97.9087 436.51

-4219.9 -1040.71 -688.816
-1040.71 -176.442 199.106
-688.816 199.106 -259.432

-4172.61 -1061.17 -670.051
-1061.17 -318.321 198.629
-670.051 198.629 4.73516

-4904.89 -910.117 -632.915
-910.117 982.359 201.36
-632.915 201.36 17.6063

-7607.22 -595.238 -352.375
-595.238 -1988.34 14.9698
-352.375 14.9698 -1552.34

-7530.23 -600.765 -353.722
-600.765 -1830.77 12.467
-353.722 12.467 -1476.09

-4904.66 910.115 632.916
910.115 982.665 201.362
632.916 201.362 17.8887

-7607.44 595.211 352.35
595.211 -1988.67 14.9689
352.35 14.9689 -1552.68

-7530.45 600.739 353.695
600.739 -1831.1 12.4661
353.695 12.4661 -1476.42

-5728.29 842.956 487.143
842.956 -1030.68 97.9104
487.143 97.9104 436.916

-4219.33 1040.75 688.825
1040.75 -175.789 199.111
688.825 199.111 -258.785

-4172.03 1061.21 670.065
1061.21 -317.658 198.634
670.065 198.634 5.41006

-3770.77 1204.65 601.763
1204.65 -866.602 163.092
601.763 163.092 -2432.54

-3023.68 1182.38 738.471
1182.38 1273.31 210.3
738.471 210.3 1174.25

-2976.11 1204.46 717.713
1204.46 1120.28 209.706
717.713 209.706 1449.85

-5035.74 1010.49 645.729
1010.49 -3507.69 180.069
645.729 180.069 -2043.5

-10534.7 789.412 438.613
789.412 -10220.9 89.4993
438.613 89.4993 -10332.2

-10534.7 789.412 438.613
789.412 -10220.9 89.4993
438.613 89.4993 -10332.2

-4030.7 -17.2599 -585.912
-17.2599 -1178.97 -24.155
-585.912 -24.155 -2632.44

-9098.84 0 -470.146
0 -8898.36 0
-470.146 0 -8851.79

-9098.84 0 -470.146
0 -8898.36 0
-470.146 0 -8851.79

-4367.07 0 -639.345
0 -3002.4 0
-639.345 0 -1432.46

-3118.13 94.689 -678.518
94.689 1041.57 -3.50032
-678.518 -3.50032 1252.32

-3265.16 42.9017 -720.742
42.9017 962.669 -5.7695
-720.742 -5.7695 952.936

-6284.02 0.0113741 -545.358
0.0113741 -525.974 -0.000490128
-545.358 -0.000490128 -1725.84

-4303.52 150 -633.135
150 -389.19 -5.95601
-633.135 -5.95601 -184.049

-4450.99 101.475 -671.856
101.475 -474.732 -8.19686
-671.856 -8.19686 -477.936

-5935.53 173.906 -478.229
173.906 -1316.49 -101.85
-478.229 -101.85 203.044

-8524.69 0.141207 -312.92
0.141207 -3135.87 -6.04787
-312.92 -6.04787 -2866.18

-8323.28 0.00939908 -316.69
0.00939908 -2725.02 -0.000324355
-316.69 -0.000324355 -2656.51

-5935.22 -173.894 478.218
-173.894 -1316.11 -101.851
478.218 -101.851 203.46

-8524.73 -0.119972 312.901
-0.119972 -3135.93 -6.04711
312.901 -6.04711 -2866.24

-8323.32 0.00939904 316.668
0.00939904 -2725.08 0.000324334
316.668 0.000324334 -2656.57

-6283.58 0.0113744 545.366
0.0113744 -525.376 0.000490119
545.366 0.000490119 -1725.29

-4302.96 -149.983 633.145
-149.983 -388.545 -5.95502
633.145 -5.95502 -183.401

-4450.42 -101.459 671.865
-101.459 -474.069 -8.1958
671.865 -8.1958 -477.279

-4366.79 0 639.342
0 -3002.12 0
639.342 0 -1432.18

-3117.47 -94.6798 678.53
-94.6798 1042.31 -3.49978
678.53 -3.49978 1253.07

-3264.5 -42.8938 720.753
-42.8938 963.43 -5.76893
720.753 -5.76893 953.693

-4030.31 17.2694 585.92
17.2694 -1178.56 -24.156
585.92 -24.156 -2632.04

-9098.81 0 470.143
0 -8898.32 0
470.143 0 -8851.76

-9098.81 0 470.143
0 -8898.32 0
470.143 0 -8851.76

-4367.07 0 -639.345
0 -3002.4 0
-639.345 0 -1432.46

-9098.84 0 -470.146
0 -8898.36 0
-470.146 0 -8851.79

-9098.84 0 -470.146
0 -8898.36 0
-470.146 0 -8851.79

-4030.7 17.2599 -585.912
17.2599 -1178.97 24.155
-585.912 24.155 -2632.44

-3265.16 -42.9017 -720.742
-42.9017 962.669 5.7695
-720.742 5.7695 952.936

-3118.13 -94.689 -678.518
-94.689 1041.57 3.50032
-678.518 3.50032 1252.32

-5935.53 -173.906 -478.229
-173.906 -1316.49 101.85
-478.229 101.85 203.044

-4450.99 -101.475 -671.856
-101.475 -474.732 8.19686
-671.856 8.19686 -477.936

-4303.52 -150 -633.135
-150 -389.19 5.95601
-633.135 5.95601 -184.049

-6284.02 -0.0113741 -545.358
-0.0113741 -525.974 0.000490128
-545.358 0.000490128 -1725.84

-8323.28 -0.00939908 -316.69
-0.00939908 -2725.02 0.000324355
-316.69 0.000324355 -2656.51

-8524.69 -0.141207 -312.92
-0.141207 -3135.87 6.04787
-312.92 6.04787 -2866.18

-6283.58 -0.0113744 545.366
-0.0113744 -525.376 -0.000490119
545.366 -0.000490119 -1725.29

-8323.32 -0.00939904 316.668
-0.00939904 -2725.08 -0.000324334
316.668 -0.000324334 -2656.57

-8524.73 0.119972 312.901
0.119972 -3135.93 6.04711
312.901 6.04711 -2866.24

-5935.22 173.894 478.218
173.894 -1316.11 101.851
478.218 101.851 203.46

-4450.42 101.459 671.865
101.459 -474.069 8.1958
671.865 8.1958 -477.279

-4302.96 149.983 633.145
149.983 -388.545 5.95502
633.145 5.95502 -183.401

-4030.31 -17.2694 585.92
-17.2694 -1178.56 24.156
585.92 24.156 -2632.04

-3264.5 42.8938 720.753
42.8938 963.43 5.76893
720.753 5.76893 953.693

-3117.47 94.6798 678.53
94.6798 1042.31 3.49978
678.53 3.49978 1253.07

-4366.79 0 639.342
0 -3002.12 0
639.342 0 -1432.18

-9098.81 0 470.143
0 -8898.32 0
470.143 0 -8851.76

-9098.81 0 470.143
0 -8898.32 0
470.143 0 -8851.76

-3771.15 1204.63 -601.755
1204.63 -867.006 -163.09
-601.755 -163.09 -2432.93

-10535.1 789.391 -438.601
789.391 -10221.3 -89.4996
-438.601 -89.4996 -10332.6

-10535.1 789.391 -438.601
789.391 -10221.3 -89.4996
-438.601 -89.4996 -10332.6

-5036.25 1010.46 -645.719
1010.46 -3508.22 -180.065
-645.719 -180.065 -2044.06

-2976.78 1204.43 -717.697
1204.43 1119.52 -209.701
-717.697 -209.701 1449.08

-3024.34 1182.35 -738.46
1182.35 1272.56 -210.295
-738.46 -210.295 1173.5

-4904.89 910.117 -632.915
910.117 982.359 -201.36
-632.915 -201.36 17.6063

-4172.61 1061.17 -670.051
1061.17 -318.321 -198.629
-670.051 -198.629 4.73516

-4219.9 1040.71 -688.816
1040.71 -176.442 -199.106
-688.816 -199.106 -259.432

-5728.59 842.94 -487.154
842.94 -1031.05 -97.9087
-487.154 -97.9087 436.51

-7530.23 600.765 -353.722
600.765 -1830.77 -12.467
-353.722 -12.467 -1476.09

-7607.22 595.238 -352.375
595.238 -1988.34 -14.9698
-352.375 -14.9698 -1552.34

-5728.29 -842.956 487.143
-842.956 -1030.68 -97.9104
487.143 -97.9104 436.916

-7530.45 -600.739 353.695
-600.739 -1831.1 -12.4661
353.695 -12.4661 -1476.42

-7607.44 -595.211 352.35
-595.211 -1988.67 -14.9689
352.35 -14.9689 -1552.68

-4904.66 -910.115 632.916
-910.115 982.665 -201.362
632.916 -201.362 17.8887

-4172.03 -1061.21 670.065
-1061.21 -317.658 -198.634
670.065 -198.634 5.41006

-4219.33 -1040.75 688.825
-1040.75 -175.789 -199.111
688.825 -199.111 -258.785

-5035.74 -1010.49 645.729
-1010.49 -3507.69 -180.069
645.729 -180.069 -2043.5

-2976.11 -1204.46 717.713
-1204.46 1120.28 -209.706
717.713 -209.706 1449.85

-3023.68 -1182.38 738.471
-1182.38 1273.31 -210.3
738.471 -210.3 1174.25

-3770.77 -1204.65 601.763
-1204.65 -866.602 -163.092
601.763 -163.092 -2432.54

-10534.7 -789.412 438.613
-789.412 -10220.9 -89.4993
438.613 -89.4993 -10332.2

-10534.7 -789.412 438.613
-789.412 -10220.9 -89.4993
438.613 -89.4993 -10332.2

-3771.15 -1204.63 601.755
-1204.63 -867.006 -163.09
601.755 -163.09 -2432.93

-10535.1 -789.391 438.601
-789.391 -10221.3 -89.4996
438.601 -89.4996 -10332.6

-10535.1 -789.391 438.601
-789.391 -10221.3 -89.4996
438.601 -89.4996 -10332.6

-5036.25 -1010.46 645.719
-1010.46 -3508.22 -180.065
645.719 -180.065 -2044.06

-2976.78 -1204.43 717.697
-1204.43 1119.52 -209.701
717.697 -209.701 1449.08

-3024.34 -1182.35 738.46
-1182.35 1272.56 -210.295
738.46 -210.295 1173.5

-4904.89 -910.117 632.915
-910.117 982.359 -201.36
632.915 -201.36 17.6063

-4172.61 -1061.17 670.051
-1061.17 -318.321 -198.629
670.051 -198.629 4.73516

-4219.9 -1040.71 688.816
-1040.71 -176.442 -199.106
688.816 -199.106 -259.432

-5728.59 -842.94 487.154
-842.94 -1031.05 -97.9087
487.154 -97.9087 436.51

-7530.23 -600.765 353.722
-600.765 -1830.77 -12.467
353.722 -12.467 -1476.09

-7607.22 -595.238 352.375
-595.238 -1988.34 -14.9698
352.375 -14.9698 -1552.34

-5728.29 842.956 -487.143
842.956 -1030.68 -97.9104
-487.143 -97.9104 436.916

-7530.45 600.739 -353.695
600.739 -1831.1 -12.4661
-353.695 -12.4661 -1476.42

-7607.44 595.211 -352.35
595.211 -1988.67 -14.9689
-352.35 -14.9689 -1552.68

-4904.66 910.115 -632.916
910.115 982.665 -201.362
-632.916 -201.362 17.8887

-4172.03 1061.21 -670.065
1061.21 -317.658 -198.634
-670.065 -198.634 5.41006

-4219.33 1040.75 -688.825
1040.75 -175.789 -199.111
-688.825 -199.111 -258.785

-5035.74 1010.49 -645.729
1010.49 -3507.69 -180.069
-645.729 -180.069 -2043.5

-2976.11 1204.46 -717.713
1204.46 1120.28 -209.706
-717.713 -209.706 1449.85

-3023.68 1182.38 -738.471
1182.38 1273.31 -210.3
-738.471 -210.3 1174.25

-3770.77 1204.65 -601.763
1204.65 -866.602 -163.092
-601.763 -163.092 -2432.54

-10534.7 789.412 -438.613
789.412 -10220.9 -89.4993
-438.613 -89.4993 -10332.2

-10534.7 789.412 -438.613
789.412 -10220.9 -89.4993
-438.613 -89.4993 -10332.2

-4367.07 0 639.345
0 -3002.4 0
639.345 0 -1432.46

-9098.84 0 470.146
0 -8898.36 0
470.146 0 -8851.79

-9098.84 0 470.146
0 -8898.36 0
470.146 0 -8851.79

-4030.7 -17.2599 585.912
-17.2599 -1178.97 24.155
585.912 24.155 -2632.44

-3265.16 42.9017 720.742
42.9017 962.669 5.7695
720.742 5.7695 952.936

-3118.13 94.689 678.518
94.689 1041.57 3.50032
678.518 3.50032 1252.32

-5935.53 173.906 478.229
173.906 -1316.49 101.85
478.229 101.85 203.044

-4450.99 101.475 671.856
101.475 -474.732 8.19686
671.856 8.19686 -477.936

-4303.52 150 633.135
150 -389.19 5.95601
633.135 5.95601 -184.049

-6284.02 0.0113741 545.358
0.0113741 -525.974 0.000490128
545.358 0.000490128 -1725.84

-8323.28 0.00939908 316.69
0.00939908 -2725.02 0.000324355
316.69 0.000324355 -2656.51

-8524.69 0.141207 312.92
0.141207 -3135.87 6.04787
312.92 6.04787 -2866.18

-6283.58 0.0113744 -545.366
0.0113744 -525.376 -0.000490119
-545.366 -0.000490119 -1725.29

-8323.32 0.00939904 -316.668
0.00939904 -2725.08 -0.000324334
-316.668 -0.000324334 -2656.57

-8524.73 -0.119972 -312.901
-0.119972 -3135.93 6.04711
-312.901 6.04711 -2866.24

-5935.22 -173.894 -478.218
-173.894 -1316.11 101.851
-478.218 101.851 203.46

-4450.42 -101.459 -671.865
-101.459 -474.069 8.1958
-671.865 8.1958 -477.279

-4302.96 -149.983 -633.145
-149.983 -388.545 5.95502
-633.145 5.95502 -183.401

-4030.31 17.2694 -585.92
17.2694 -1178.56 24.156
-585.92 24.156 -2632.04

-3264.5 -42.8938 -720.753
-42.8938 963.43 5.76893
-720.753 5.76893 953.693

-3117.47 -94.6798 -678.53
-94.6798 1042.31 3.49978
-678.53 3.49978 1253.07

-4366.79 0 -639.342
0 -3002.12 0
-639.342 0 -1432.18

-9098.81 0 -470.143
0 -8898.32 0
-470.143 0 -8851.76

-9098.81 0 -470.143
0 -8898.32 0
-470.143 0 -8851.76

-4030.7 17.2599 585.912
17.2599 -1178.97 -24.155
585.912 -24.155 -2632.44

-9098.84 0 470.146
0 -8898.36 0
470.146 0 -8851.79

-9098.84 0 470.146
0 -8898.36 0
470.146 0 -8851.79

-4367.07 0 639.345
0 -3002.4 0
639.345 0 -1432.46

-3118.13 -94.689 678.518
-94.689 1041.57 -3.50032
678.518 -3.50032 1252.32

-3265.16 -42.9017 720.742
-42.9017 962.669 -5.7695
720.742 -5.7695 952.936

-6284.02 -0.0113741 545.358
-0.0113741 -525.974 -0.000490128
545.358 -0.000490128 -1725.84

-4303.52 -150 633.135
-150 -389.19 -5.95601
633.135 -5.95601 -184.049

-4450.99 -101.475 671.856
-101.475 -474.732 -8.19686
671.856 -8.19686 -477.936

-5935.53 -173.906 478.229
-173.906 -1316.49 -101.85
478.229 -101.85 203.044

-8524.69 -0.141207 312.92
-0.141207 -3135.87 -6.04787
312.92 -6.04787 -2866.18

-8323.28 -0.00939908 316.69
-0.00939908 -2725.02 -0.000324355
316.69 -0.000324355 -2656.51

-5935.22 173.894 -478.218
173.894 -1316.11 -101.851
-478.218 -101.851 203.46

-8524.73 0.119972 -312.901
0.119972 -3135.93 -6.04711
-312.901 -6.04711 -2866.24

-8323.32 -0.00939904 -316.668
-0.00939904 -2725.08 0.000324334
-316.668 0.000324334 -2656.57

-6283.58 -0.0113744 -545.366
-0.0113744 -525.376 0.000490119
-545.366 0.000490119 -1725.29

-4302.96 149.983 -633.145
149.983 -388.545 -5.95502
-633.145 -5.95502 -183.401

-4450.42 101.459 -671.865
101.459 -474.069 -8.1958
-671.865 -8.1958 -477.279

-4366.79 0 -639.342
0 -3002.12 0
-639.342 0 -1432.18

-3117.47 94.6798 -678.53
94.6798 1042.31 -3.49978
-678.53 -3.49978 1253.07

-3264.5 42.8938 -720.753
42.8938 963.43 -5.76893
-720.753 -5.76893 953.693

-4030.31 -17.2694 -585.92
-17.2694 -1178.56 -24.156
-585.92 -24.156 -2632.04

-9098.81 0 -470.143
0 -8898.32 0
-470.143 0 -8851.76

-9098.81 0 -470.143
0 -8898.32 0
-470.143 0 -8851.76

-5036.25 1010.46 645.719
1010.46 -3508.22 180.065
645.719 180.065 -2044.06

-10535.1 789.391 438.601
789.391 -10221.3 89.4996
438.601 89.4996 -10332.6

-10535.1 789.391 438.601
789.391 -10221.3 89.4996
438.601 89.4996 -10332.6

-3771.15 1204.63 601.755
1204.63 -867.006 163.09
601.755 163.09 -2432.93

-3024.34 1182.35 738.46
1182.35 1272.56 210.295
738.46 210.295 1173.5

-2976.78 1204.43 717.697
1204.43 1119.52 209.701
717.697 209.701 1449.08

-5728.59 842.94 487.154
842.94 -1031.05 97.9087
487.154 97.9087 436.51

-4219.9 1040.71 688.816
1040.71 -176.442 199.106
688.816 199.106 -259.432

-4172.61 1061.17 670.051
1061.17 -318.321 198.629
670.051 198.629 4.73516

-4904.89 910.117 632.915
910.117 982.359 201.36
632.915 201.36 17.6063

-7607.22 595.238 352.375
595.238 -1988.34 14.9698
352.375 14.9698 -1552.34

-7530.23 600.765 353.722
600.765 -1830.77 12.467
353.722 12.467 -1476.09

-4904.66 -910.115 -632.916
-910.115 982.665 201.362
-632.916 201.362 17.8887

-7607.44 -595.211 -352.35
-595.211 -1988.67 14.9689
-352.35 14.9689 -1552.68

-7530.45 -600.739 -353.695
-600.739 -1831.1 12.4661
-353.695 12.4661 -1476.42

-5728.29 -842.956 -487.143
-842.956 -1030.68 97.9104
-487.143 97.9104 436.916

-4219.33 -1040.75 -688.825
-1040.75 -175.789 199.111
-688.825 199.111 -258.785

-4172.03 -1061.21 -670.065
-1061.21 -317.658 198.634
-670.065 198.634 5.41006

-3770.77 -1204.65 -601.763
-1204.65 -866.602 163.092
-601.763 163.092 -2432.54

-3023.68 -1182.38 -738.471
-1182.38 1273.31 210.3
-738.471 210.3 1174.25

-2976.11 -1204.46 -717.713
-1204.46 1120.28 209.706
-717.713 209.706 1449.85

-5035.74 -1010.49 -645.729
-1010.49 -3507.69 180.069
-645.729 180.069 -2043.5

-10534.7 -789.412 -438.613
-789.412 -10220.9 89.4993
-438.613 89.4993 -10332.2

-10534.7 -789.412 -438.613
-789.412 -10220.9 89.4993
-438.613 89.4993 -10332.2

-7676.79 -647.674 463.641
-647.674 -6147.77 258.957
463.641 258.957 -4487.83

-10535.1 -789.391 438.601
-789.391 -10221.3 -89.4996
438.601 -89.4996 -10332.6

-10535.1 -789.391 438.601
-789.391 -10221.3 -89.4996
438.601 -89.4996 -10332.6

-3771.15 -1204.63 601.755
-1204.63 -867.006 -163.09
601.755 -163.09 -2432.93

-3975.09 -1013.8 464.831
-1013.8 134.046 20.3442
464.831 20.3442 42.4794

-3455.97 -848.583 298.992
-848.583 238.253 43.1502
298.992 43.1502 1296.67

-5337.45 -861.521 489.772
-861.521 -501.263 137.96
489.772 137.96 1013.41

-3744.19 -935.122 394.007
-935.122 397.13 38.1164
394.007 38.1164 304.558

-3221.49 -767.179 221.273
-767.179 497.087 59.452
221.273 59.452 1564.61

-3570.96 -689.11 203.053
-689.11 1548.83 11.6807
203.053 11.6807 1793.14

-7174.72 -584.33 372.323
-584.33 -2075 262.111
372.323 262.111 -47.7666

-7158.55 -615.218 356.707
-615.218 -1271.43 221.217
356.707 221.217 -892.726

-3570.99 689.097 -203.062
689.097 1548.8 11.6825
-203.062 11.6825 1793.11

-7174.94 584.307 -372.329
584.307 -2075.32 262.107
-372.329 262.107 -48.106

-7158.77 615.191 -356.709
615.191 -1271.76 221.213
-356.709 221.213 -893.056

-5337.15 861.538 -489.794
861.538 -500.892 137.959
-489.794 137.959 1013.82

-3743.95 935.134 -394.028
935.134 397.389 38.115
-394.028 38.115 304.831

-3221.2 767.19 -221.292
767.19 497.395 59.4503
-221.292 59.4503 1564.96

-3770.77 1204.65 -601.763
1204.65 -866.602 -163.092
-601.763 -163.092 -2432.54

-3974.44 1013.82 -464.852
1013.82 134.801 20.346
-464.852 20.346 43.2469

-3455.27 848.605 -299.006
848.605 239.047 43.1516
-299.006 43.1516 1297.52

-7676.05 647.704 -463.67
647.704 -6146.96 258.973
-463.67 258.973 -4486.95

-10534.7 789.412 -438.613
789.412 -10220.9 -89.4993
-438.613 -89.4993 -10332.2

-10534.7 789.412 -438.613
789.412 -10220.9 -89.4993
-438.613 -89.4993 -10332.2

-4030.7 -17.2599 585.912
-17.2599 -1178.97 24.155
585.912 24.155 -2632.44

-9098.84 0 470.146
0 -8898.36 0
470.146 0 -8851.79

-9098.84 0 470.146
0 -8898.36 0
470.146 0 -8851.79

-6912.46 -3.11143e-12 473.664
-3.11143e-12 -5487.6 -4.80422e-12
473.664 -4.80422e-12 -3805.24

-3506.06 8.09146 342.304
8.09146 318.569 227.93
342.304 227.93 1130.49

-4201.96 143.68 462.38
143.68 -156.991 211.663
462.38 211.663 -173.743

-4383.73 2.32961 195.185
2.32961 1076.21 255.466
195.185 255.466 793.42

-3263.55 101.344 267.038
101.344 588.163 242.162
267.038 242.162 1396.93

-3959.87 236.918 393.838
236.918 118.787 225.576
393.838 225.576 88.4238

-5544.89 184.552 493.65
184.552 -784.744 338.712
493.65 338.712 782.027

-8155.28 4.85672 324.01
4.85672 -2573.17 229.426
324.01 229.426 -2282.41

-7583.63 5.02773 353.115
5.02773 -2259.15 245.738
353.115 245.738 -781.899

-5544.59 -184.54 -493.673
-184.54 -784.362 338.716
-493.673 338.716 782.446

-8155.32 -4.83498 -324.017
-4.83498 -2573.22 229.425
-324.017 229.425 -2282.47

-7583.67 -5.01161 -353.13
-5.01161 -2259.21 245.737
-353.13 245.737 -781.96

-4383.64 -2.30851 -195.201
-2.30851 1076.32 255.467
-195.201 255.467 793.535

-3263.31 -101.328 -267.061
-101.328 588.432 242.166
-267.061 242.166 1397.22

-3959.63 -236.902 -393.859
-236.902 119.057 225.579
-393.859 225.579 88.7067

-6911.92 -6.2231e-12 -473.686
-6.2231e-12 -5487.02 9.60872e-12
-473.686 9.60872e-12 -3804.6

-3505.4 -8.08584 -342.323
-8.08584 319.327 227.939
-342.323 227.939 1131.29

-4201.31 -143.677 -462.401
-143.677 -156.224 211.672
-462.401 211.672 -172.966

-4030.31 17.2694 -585.92
17.2694 -1178.56 24.156
-585.92 24.156 -2632.04

-9098.81 0 -470.143
0 -8898.32 0
-470.143 0 -8851.76

-9098.81 0 -470.143
0 -8898.32 0
-470.143 0 -8851.76

-6912.46 -3.11143e-12 473.664
-3.11143e-12 -5487.6 -4.80422e-12
473.664 -4.80422e-12 -3805.24

-9098.84 0 470.146
0 -8898.36 0
470.146 0 -8851.79

-9098.84 0 470.146
0 -8898.36 0
470.146 0 -8851.79

-4030.7 17.2599 585.912
17.2599 -1178.97 -24.155
585.912 -24.155 -2632.44

-4201.96 -143.68 462.38
-143.68 -156.991 -211.663
462.38 -211.663 -173.743

-3506.06 -8.09146 342.304
-8.09146 318.569 -227.93
342.304 -227.93 1130.49

-5544.89 -184.552 493.65
-184.552 -784.744 -338.712
493.65 -338.712 782.027

-3959.87 -236.918 393.838
-236.918 118.787 -225.576
393.838 -225.576 88.4238

-3263.55 -101.344 267.038
-101.344 588.163 -242.162
267.038 -242.162 1396.93

-4383.73 -2.32961 195.185
-2.32961 1076.21 -255.466
195.185 -255.466 793.42

-7583.63 -5.02773 353.115
-5.02773 -2259.15 -245.738
353.115 -245.738 -781.899

-8155.28 -4.85672 324.01
-4.85672 -2573.17 -229.426
324.01 -229.426 -2282.41

-4383.64 2.30851 -195.201
2.30851 1076.32 -255.467
-195.201 -255.467 793.535

-7583.67 5.01161 -353.13
5.01161 -2259.21 -245.737
-353.13 -245.737 -781.96

-8155.32 4.83498 -324.017
4.83498 -2573.22 -229.425
-324.017 -229.425 -2282.47

-5544.59 184.54 -493.673
184.54 -784.362 -338.716
-493.673 -338.716 782.446

-3959.63 236.902 -393.859
236.902 119.057 -225.579
-393.859 -225.579 88.7067

-3263.31 101.328 -267.061
101.328 588.432 -242.166
-267.061 -242.166 1397.22

-4030.31 -17.2694 -585.92
-17.2694 -1178.56 -24.156
-585.92 -24.156 -2632.04

-4201.31 143.677 -462.401
143.677 -156.224 -211.672
-462.401 -211.672 -172.966

-3505.4 8.08584 -342.323
8.08584 319.327 -227.939
-342.323 -227.939 1131.29

-6911.92 -3.11155e-12 -473.686
-3.11155e-12 -5487.02 4.80436e-12
-473.686 4.80436e-12 -3804.6

-9098.81 0 -470.143
0 -8898.32 0
-470.143 0 -8851.76

-9098.81 0 -470.143
0 -8898.32 0
-470.143 0 -8851.76

-3771.15 1204.63 601.755
1204.63 -867.006 163.09
601.755 163.09 -2432.93

-10535.1 789.391 438.601
789.391 -10221.3 89.4996
438.601 89.4996 -10332.6

-10535.1 789.391 438.601
789.391 -10221.3 89.4996
438.601 89.4996 -10332.6

-7676.79 647.674 463.641
647.674 -6147.77 -258.957
463.641 -258.957 -4487.83

-3455.97 848.583 298.992
848.583 238.253 -43.1502
298.992 -43.1502 1296.67

-3975.09 1013.8 464.831
1013.8 134.046 -20.3442
464.831 -20.3442 42.4794

-3570.96 689.11 203.053
689.11 1548.83 -11.6807
203.053 -11.6807 1793.14

-3221.49 767.179 221.273
767.179 497.087 -59.452
221.273 -59.452 1564.61

-3744.19 935.122 394.007
935.122 397.13 -38.1164
394.007 -38.1164 304.558

-5337.45 861.521 489.772
861.521 -501.263 -137.96
489.772 -137.96 1013.41

-7158.55 615.218 356.707
615.218 -1271.43 -221.217
356.707 -221.217 -892.726

-7174.72 584.33 372.323
584.33 -2075 -262.111
372.323 -262.111 -47.7666

-5337.15 -861.538 -489.794
-861.538 -500.892 -137.959
-489.794 -137.959 1013.82

-7158.77 -615.191 -356.709
-615.191 -1271.76 -221.213
-356.709 -221.213 -893.056

-7174.94 -584.307 -372.329
-584.307 -2075.32 -262.107
-372.329 -262.107 -48.106

-3570.99 -689.097 -203.062
-689.097 1548.8 -11.6825
-203.062 -11.6825 1793.11

-3221.2 -767.19 -221.292
-767.19 497.395 -59.4503
-221.292 -59.4503 1564.96

-3743.95 -935.134 -394.028
-935.134 397.389 -38.115
-394.028 -38.115 304.831

-7676.05 -647.704 -463.67
-647.704 -6146.96 -258.973
-463.67 -258.973 -4486.95

-3455.27 -848.605 -299.006
-848.605 239.047 -43.1516
-299.006 -43.1516 1297.52

-3974.44 -1013.82 -464.852
-1013.82 134.801 -20.346
-464.852 -20.346 43.2469

-3770.77 -1204.65 -601.763
-1204.65 -866.602 163.092
-601.763 163.092 -2432.54

-10534.7 -789.412 -438.613
-789.412 -10220.9 89.4993
-438.613 89.4993 -10332.2

-10534.7 -789.412 -438.613
-789.412 -10220.9 89.4993
-438.613 89.4993 -10332.2

