# vtk DataFile Version 3.0
vtk output at time 0.7
ASCII
DATASET UNSTRUCTURED_GRID
POINTS 125 float
0 0 0 0 0 0.05 0 0 0.1 
0 0 0.15 0 0 0.2 0 0.05 0 
0 0.05 0.05 0 0.05 0.1 0 0.05 0.15 
0 0.05 0.2 0 0.1 0 0 0.1 0.05 
0 0.1 0.1 0 0.1 0.15 0 0.1 0.2 
0 0.15 0 0 0.15 0.05 0 0.15 0.1 
0 0.15 0.15 0 0.15 0.2 0 0.2 0 
0 0.2 0.05 0 0.2 0.1 0 0.2 0.15 
0 0.2 0.2 0.0432091 -0.00532212 -0.00833507 0.0485142 -0.0072066 0.045937 
0.0445564 -0.00656501 0.1 0.0485142 -0.0072066 0.154063 0.0432091 -0.00532212 0.208335 
0.0411826 0.0471966 -0.00680314 0.0454606 0.0464278 0.046395 0.0413187 0.0466202 0.1 
0.0454606 0.0464278 0.153605 0.0411826 0.0471966 0.206803 0.044096 0.1 -0.00783026 
0.0492422 0.1 0.0461831 0.0454206 0.1 0.1 0.0492422 0.1 0.153817 
0.044096 0.1 0.20783 0.0411826 0.152803 -0.00680314 0.0454606 0.153572 0.046395 
0.0413187 0.15338 0.1 0.0454606 0.153572 0.153605 0.0411826 0.152803 0.206803 
0.0432091 0.205322 -0.00833507 0.0485142 0.207207 0.045937 0.0445564 0.206565 0.1 
0.0485142 0.207207 0.154063 0.0432091 0.205322 0.208335 0.0825 -0.00906748 -0.0146108 
0.0825 -0.0116518 0.0433333 0.0825 -0.0118277 0.1 0.0825 -0.0116518 0.156667 
0.0825 -0.00906748 0.214611 0.0825 0.0449512 -0.013144 0.0825 0.043899 0.0434361 
0.0824999 0.0436083 0.1 0.0825 0.043899 0.156564 0.0825 0.0449512 0.213144 
0.0825 0.1 -0.0139167 0.0825 0.1 0.0437057 0.0825 0.1 0.1 
0.0825 0.1 0.156294 0.0825 0.1 0.213917 0.0825 0.155049 -0.013144 
0.0825 0.156101 0.0434361 0.0824999 0.156392 0.1 0.0825 0.156101 0.156564 
0.0825 0.155049 0.213144 0.0825 0.209067 -0.0146108 0.0825 0.211652 0.0433333 
0.0825 0.211828 0.1 0.0825 0.211652 0.156667 0.0825 0.209067 0.214611 
0.121791 -0.00532209 -0.00833506 0.116486 -0.00720658 0.045937 0.120444 -0.00656498 0.1 
0.116486 -0.00720658 0.154063 0.121791 -0.00532209 0.208335 0.123817 0.0471966 -0.00680313 
0.119539 0.0464278 0.046395 0.123681 0.0466202 0.1 0.119539 0.0464278 0.153605 
0.123817 0.0471966 0.206803 0.120904 0.1 -0.00783025 0.115758 0.1 0.0461831 
0.119579 0.1 0.1 0.115758 0.1 0.153817 0.120904 0.1 0.20783 
0.123817 0.152803 -0.00680313 0.119539 0.153572 0.046395 0.123681 0.15338 0.1 
0.119539 0.153572 0.153605 0.123817 0.152803 0.206803 0.121791 0.205322 -0.00833506 
0.116486 0.207207 0.045937 0.120444 0.206565 0.1 0.116486 0.207207 0.154063 
0.121791 0.205322 0.208335 0.165 0 0 0.165 0 0.05 
0.165 0 0.1 0.165 0 0.15 0.165 0 0.2 
0.165 0.05 0 0.165 0.05 0.05 0.165 0.05 0.1 
0.165 0.05 0.15 0.165 0.05 0.2 0.165 0.1 0 
0.165 0.1 0.05 0.165 0.1 0.1 0.165 0.1 0.15 
0.165 0.1 0.2 0.165 0.15 0 0.165 0.15 0.05 
0.165 0.15 0.1 0.165 0.15 0.15 0.165 0.15 0.2 
0.165 0.2 0 0.165 0.2 0.05 0.165 0.2 0.1 
0.165 0.2 0.15 0.165 0.2 0.2 

CELLS 384 1920
4 5 6 26 31 
4 5 6 1 26 
4 0 5 1 26 
4 0 5 26 25 
4 25 5 26 30 
4 30 5 26 31 
4 26 25 55 50 
4 26 25 30 55 
4 31 26 30 55 
4 26 31 56 55 
4 26 56 51 55 
4 26 51 50 55 
4 55 56 76 81 
4 55 56 51 76 
4 50 55 51 76 
4 50 55 76 75 
4 75 55 76 80 
4 80 55 76 81 
4 76 75 105 100 
4 76 75 80 105 
4 81 76 80 105 
4 76 81 106 105 
4 76 106 101 105 
4 76 101 100 105 
4 10 5 35 36 
4 5 10 11 36 
4 6 5 11 36 
4 5 6 31 36 
4 5 31 30 36 
4 5 30 35 36 
4 36 31 55 56 
4 36 31 30 55 
4 35 36 30 55 
4 35 36 55 60 
4 60 36 55 61 
4 61 36 55 56 
4 60 55 85 86 
4 55 60 61 86 
4 56 55 61 86 
4 55 56 81 86 
4 55 81 80 86 
4 55 80 85 86 
4 86 81 105 106 
4 86 81 80 105 
4 85 86 80 105 
4 85 86 105 110 
4 110 86 105 111 
4 111 86 105 106 
4 15 16 36 41 
4 15 16 11 36 
4 10 15 11 36 
4 10 15 36 35 
4 35 15 36 40 
4 40 15 36 41 
4 36 35 65 60 
4 36 35 40 65 
4 41 36 40 65 
4 36 41 66 65 
4 36 66 61 65 
4 36 61 60 65 
4 65 66 86 91 
4 65 66 61 86 
4 60 65 61 86 
4 60 65 86 85 
4 85 65 86 90 
4 90 65 86 91 
4 86 85 115 110 
4 86 85 90 115 
4 91 86 90 115 
4 86 91 116 115 
4 86 116 111 115 
4 86 111 110 115 
4 20 15 45 46 
4 15 20 21 46 
4 16 15 21 46 
4 15 16 41 46 
4 15 41 40 46 
4 15 40 45 46 
4 46 41 65 66 
4 46 41 40 65 
4 45 46 40 65 
4 45 46 65 70 
4 70 46 65 71 
4 71 46 65 66 
4 70 65 95 96 
4 65 70 71 96 
4 66 65 71 96 
4 65 66 91 96 
4 65 91 90 96 
4 65 90 95 96 
4 96 91 115 116 
4 96 91 90 115 
4 95 96 90 115 
4 95 96 115 120 
4 120 96 115 121 
4 121 96 115 116 
4 7 2 26 27 
4 7 2 1 26 
4 6 7 1 26 
4 6 7 26 31 
4 31 7 26 32 
4 32 7 26 27 
4 31 26 56 57 
4 26 31 32 57 
4 27 26 32 57 
4 26 27 52 57 
4 26 52 51 57 
4 26 51 56 57 
4 57 52 76 77 
4 57 52 51 76 
4 56 57 51 76 
4 56 57 76 81 
4 81 57 76 82 
4 82 57 76 77 
4 81 76 106 107 
4 76 81 82 107 
4 77 76 82 107 
4 76 77 102 107 
4 76 102 101 107 
4 76 101 106 107 
4 7 6 36 31 
4 7 6 11 36 
4 12 7 11 36 
4 7 12 37 36 
4 7 37 32 36 
4 7 32 31 36 
4 36 37 57 62 
4 36 37 32 57 
4 31 36 32 57 
4 31 36 57 56 
4 56 36 57 61 
4 61 36 57 62 
4 57 56 86 81 
4 57 56 61 86 
4 62 57 61 86 
4 57 62 87 86 
4 57 87 82 86 
4 57 82 81 86 
4 86 87 107 112 
4 86 87 82 107 
4 81 86 82 107 
4 81 86 107 106 
4 106 86 107 111 
4 111 86 107 112 
4 17 12 36 37 
4 17 12 11 36 
4 16 17 11 36 
4 16 17 36 41 
4 41 17 36 42 
4 42 17 36 37 
4 41 36 66 67 
4 36 41 42 67 
4 37 36 42 67 
4 36 37 62 67 
4 36 62 61 67 
4 36 61 66 67 
4 67 62 86 87 
4 67 62 61 86 
4 66 67 61 86 
4 66 67 86 91 
4 91 67 86 92 
4 92 67 86 87 
4 91 86 116 117 
4 86 91 92 117 
4 87 86 92 117 
4 86 87 112 117 
4 86 112 111 117 
4 86 111 116 117 
4 17 16 46 41 
4 17 16 21 46 
4 22 17 21 46 
4 17 22 47 46 
4 17 47 42 46 
4 17 42 41 46 
4 46 47 67 72 
4 46 47 42 67 
4 41 46 42 67 
4 41 46 67 66 
4 66 46 67 71 
4 71 46 67 72 
4 67 66 96 91 
4 67 66 71 96 
4 72 67 71 96 
4 67 72 97 96 
4 67 97 92 96 
4 67 92 91 96 
4 96 97 117 122 
4 96 97 92 117 
4 91 96 92 117 
4 91 96 117 116 
4 116 96 117 121 
4 121 96 117 122 
4 7 8 28 33 
4 7 8 3 28 
4 2 7 3 28 
4 2 7 28 27 
4 27 7 28 32 
4 32 7 28 33 
4 28 27 57 52 
4 28 27 32 57 
4 33 28 32 57 
4 28 33 58 57 
4 28 58 53 57 
4 28 53 52 57 
4 57 58 78 83 
4 57 58 53 78 
4 52 57 53 78 
4 52 57 78 77 
4 77 57 78 82 
4 82 57 78 83 
4 78 77 107 102 
4 78 77 82 107 
4 83 78 82 107 
4 78 83 108 107 
4 78 108 103 107 
4 78 103 102 107 
4 12 7 37 38 
4 7 12 13 38 
4 8 7 13 38 
4 7 8 33 38 
4 7 33 32 38 
4 7 32 37 38 
4 38 33 57 58 
4 38 33 32 57 
4 37 38 32 57 
4 37 38 57 62 
4 62 38 57 63 
4 63 38 57 58 
4 62 57 87 88 
4 57 62 63 88 
4 58 57 63 88 
4 57 58 83 88 
4 57 83 82 88 
4 57 82 87 88 
4 88 83 107 108 
4 88 83 82 107 
4 87 88 82 107 
4 87 88 107 112 
4 112 88 107 113 
4 113 88 107 108 
4 17 18 38 43 
4 17 18 13 38 
4 12 17 13 38 
4 12 17 38 37 
4 37 17 38 42 
4 42 17 38 43 
4 38 37 67 62 
4 38 37 42 67 
4 43 38 42 67 
4 38 43 68 67 
4 38 68 63 67 
4 38 63 62 67 
4 67 68 88 93 
4 67 68 63 88 
4 62 67 63 88 
4 62 67 88 87 
4 87 67 88 92 
4 92 67 88 93 
4 88 87 117 112 
4 88 87 92 117 
4 93 88 92 117 
4 88 93 118 117 
4 88 118 113 117 
4 88 113 112 117 
4 22 17 47 48 
4 17 22 23 48 
4 18 17 23 48 
4 17 18 43 48 
4 17 43 42 48 
4 17 42 47 48 
4 48 43 67 68 
4 48 43 42 67 
4 47 48 42 67 
4 47 48 67 72 
4 72 48 67 73 
4 73 48 67 68 
4 72 67 97 98 
4 67 72 73 98 
4 68 67 73 98 
4 67 68 93 98 
4 67 93 92 98 
4 67 92 97 98 
4 98 93 117 118 
4 98 93 92 117 
4 97 98 92 117 
4 97 98 117 122 
4 122 98 117 123 
4 123 98 117 118 
4 9 4 28 29 
4 9 4 3 28 
4 8 9 3 28 
4 8 9 28 33 
4 33 9 28 34 
4 34 9 28 29 
4 33 28 58 59 
4 28 33 34 59 
4 29 28 34 59 
4 28 29 54 59 
4 28 54 53 59 
4 28 53 58 59 
4 59 54 78 79 
4 59 54 53 78 
4 58 59 53 78 
4 58 59 78 83 
4 83 59 78 84 
4 84 59 78 79 
4 83 78 108 109 
4 78 83 84 109 
4 79 78 84 109 
4 78 79 104 109 
4 78 104 103 109 
4 78 103 108 109 
4 9 8 38 33 
4 9 8 13 38 
4 14 9 13 38 
4 9 14 39 38 
4 9 39 34 38 
4 9 34 33 38 
4 38 39 59 64 
4 38 39 34 59 
4 33 38 34 59 
4 33 38 59 58 
4 58 38 59 63 
4 63 38 59 64 
4 59 58 88 83 
4 59 58 63 88 
4 64 59 63 88 
4 59 64 89 88 
4 59 89 84 88 
4 59 84 83 88 
4 88 89 109 114 
4 88 89 84 109 
4 83 88 84 109 
4 83 88 109 108 
4 108 88 109 113 
4 113 88 109 114 
4 19 14 38 39 
4 19 14 13 38 
4 18 19 13 38 
4 18 19 38 43 
4 43 19 38 44 
4 44 19 38 39 
4 43 38 68 69 
4 38 43 44 69 
4 39 38 44 69 
4 38 39 64 69 
4 38 64 63 69 
4 38 63 68 69 
4 69 64 88 89 
4 69 64 63 88 
4 68 69 63 88 
4 68 69 88 93 
4 93 69 88 94 
4 94 69 88 89 
4 93 88 118 119 
4 88 93 94 119 
4 89 88 94 119 
4 88 89 114 119 
4 88 114 113 119 
4 88 113 118 119 
4 19 18 48 43 
4 19 18 23 48 
4 24 19 23 48 
4 19 24 49 48 
4 19 49 44 48 
4 19 44 43 48 
4 48 49 69 74 
4 48 49 44 69 
4 43 48 44 69 
4 43 48 69 68 
4 68 48 69 73 
4 73 48 69 74 
4 69 68 98 93 
4 69 68 73 98 
4 74 69 73 98 
4 69 74 99 98 
4 69 99 94 98 
4 69 94 93 98 
4 98 99 119 124 
4 98 99 94 119 
4 93 98 94 119 
4 93 98 119 118 
4 118 98 119 123 
4 123 98 119 124 

CELL_TYPES 384
10
10
10
10
10
10
10
10
10
10
10
10
10
10
10
10
10
10
10
10
10
10
10
10
10
10
10
10
10
10
10
10
10
10
10
10
10
10
10
10
10
10
10
10
10
10
10
10
10
10
10
10
10
10
10
10
10
10
10
10
10
10
10
10
10
10
10
10
10
10
10
10
10
10
10
10
10
10
10
10
10
10
10
10
10
10
10
10
10
10
10
10
10
10
10
10
10
10
10
10
10
10
10
10
10
10
10
10
10
10
10
10
10
10
10
10
10
10
10
10
10
10
10
10
10
10
10
10
10
10
10
10
10
10
10
10
10
10
10
10
10
10
10
10
10
10
10
10
10
10
10
10
10
10
10
10
10
10
10
10
10
10
10
10
10
10
10
10
10
10
10
10
10
10
10
10
10
10
10
10
10
10
10
10
10
10
10
10
10
10
10
10
10
10
10
10
10
10
10
10
10
10
10
10
10
10
10
10
10
10
10
10
10
10
10
10
10
10
10
10
10
10
10
10
10
10
10
10
10
10
10
10
10
10
10
10
10
10
10
10
10
10
10
10
10
10
10
10
10
10
10
10
10
10
10
10
10
10
10
10
10
10
10
10
10
10
10
10
10
10
10
10
10
10
10
10
10
10
10
10
10
10
10
10
10
10
10
10
10
10
10
10
10
10
10
10
10
10
10
10
10
10
10
10
10
10
10
10
10
10
10
10
10
10
10
10
10
10
10
10
10
10
10
10
10
10
10
10
10
10
10
10
10
10
10
10
10
10
10
10
10
10
10
10
10
10
10
10
10
10
10
10
10
10
10
10
10
10
10
10
10
10
10
10
10
10
10
10
10
10
10
10
10
10
10
10
10
10
10
10
10
10
10
10

POINT_DATA 125
VECTORS displacement float
0 0 0
0 0 0
0 0 0
0 0 0
0 0 0
0 0 0
0 0 0
0 0 0
0 0 0
0 0 0
0 0 0
0 0 0
0 0 0
0 0 0
0 0 0
0 0 0
0 0 0
0 0 0
0 0 0
0 0 0
0 0 0
0 0 0
0 0 0
0 0 0
0 0 0
-0.0067909 -0.00532212 -0.00833507
-0.00148576 -0.0072066 -0.00406301
-0.00544362 -0.00656501 1.38778e-17
-0.00148576 -0.0072066 0.00406301
-0.0067909 -0.00532212 0.00833507
-0.00881743 -0.00280336 -0.00680314
-0.00453935 -0.00357223 -0.00360498
-0.00868134 -0.00337983 0
-0.00453935 -0.00357223 0.00360498
-0.00881743 -0.00280336 0.00680314
-0.00590404 0 -0.00783026
-0.000757793 0 -0.00381689
-0.00457939 0 0
-0.000757793 -1.38778e-17 0.00381689
-0.00590404 0 0.00783026
-0.00881743 0.00280336 -0.00680314
-0.00453935 0.00357223 -0.00360498
-0.00868134 0.00337983 1.38778e-17
-0.00453935 0.00357223 0.00360498
-0.00881743 0.00280336 0.00680314
-0.0067909 0.00532212 -0.00833507
-0.00148576 0.0072066 -0.00406301
-0.00544362 0.00656501 -1.38778e-17
-0.00148576 0.0072066 0.00406301
-0.0067909 0.00532212 0.00833507
-0.0175 -0.00906748 -0.0146108
-0.0175 -0.0116518 -0.00666666
-0.0175 -0.0118277 0
-0.0175 -0.0116518 0.00666666
-0.0175 -0.00906748 0.0146108
-0.0175 -0.00504884 -0.013144
-0.0175 -0.00610099 -0.00656389
-0.0175001 -0.00639167 0
-0.0175 -0.00610099 0.00656389
-0.0175 -0.00504884 0.013144
-0.0175 1.38778e-17 -0.0139167
-0.0175 0 -0.00629433
-0.0175 0 0
-0.0175 0 0.00629433
-0.0175 -1.38778e-17 0.0139167
-0.0175 0.00504884 -0.013144
-0.0175 0.00610099 -0.00656389
-0.0175001 0.00639167 0
-0.0175 0.00610099 0.00656389
-0.0175 0.00504884 0.013144
-0.0175 0.00906748 -0.0146108
-0.0175 0.0116518 -0.00666666
-0.0175 0.0118277 -1.38778e-17
-0.0175 0.0116518 0.00666666
-0.0175 0.00906748 0.0146108
-0.0282091 -0.00532209 -0.00833506
-0.0335143 -0.00720658 -0.004063
-0.0295564 -0.00656498 0
-0.0335143 -0.00720658 0.004063
-0.0282091 -0.00532209 0.00833506
-0.0261826 -0.00280335 -0.00680313
-0.0304607 -0.00357222 -0.00360497
-0.0263187 -0.00337982 0
-0.0304607 -0.00357222 0.00360497
-0.0261826 -0.00280335 0.00680313
-0.029096 -1.38778e-17 -0.00783025
-0.0342422 -1.38778e-17 -0.00381688
-0.0304206 -1.38778e-17 0
-0.0342422 0 0.00381688
-0.029096 -1.38778e-17 0.00783025
-0.0261826 0.00280335 -0.00680313
-0.0304607 0.00357222 -0.00360497
-0.0263187 0.00337982 1.38778e-17
-0.0304607 0.00357222 0.00360497
-0.0261826 0.00280335 0.00680313
-0.0282091 0.00532209 -0.00833506
-0.0335143 0.00720658 -0.004063
-0.0295564 0.00656498 1.38778e-17
-0.0335143 0.00720658 0.004063
-0.0282091 0.00532209 0.00833506
-0.035 0 0
-0.035 0 0
-0.035 0 0
-0.035 0 0
-0.035 0 0
-0.035 0 0
-0.035 0 0
-0.035 0 0
-0.035 0 0
-0.035 0 0
-0.035 0 0
-0.035 0 0
-0.035 0 0
-0.035 0 0
-0.035 0 0
-0.035 0 0
-0.035 0 0
-0.035 0 0
-0.035 0 0
-0.035 0 0
-0.035 0 0
-0.035 0 0
-0.035 0 0
-0.035 0 0
-0.035 0 0

CELL_DATA 384
TENSORS stress float
-6695.81 -2333.53 -988.675
-2333.53 -1027.35 521.798
-988.675 521.798 -4581.62

-17080.7 -654.909 -369.231
-654.909 -16860 322.189
-369.231 322.189 -17249.8

-17080.7 -654.909 -369.231
-654.909 -16860 322.189
-369.231 322.189 -17249.8

-14006.7 -434.24 -213.22
-434.24 -12820.2 -284.734
-213.22 -284.734 -10103.4

-6027.81 -1554.16 37.3868
-1554.16 951.746 -35.3656
37.3868 -35.3656 3313.36

-7013.12 -1844.56 -353.515
-1844.56 556.995 86.5927
-353.515 86.5927 177.071

-6220.99 -1113.61 300.718
-1113.61 3436.1 -18.7534
300.718 -18.7534 3988.58

-5662.55 -1447.83 182.552
-1447.83 1443.06 -105.295
182.552 -105.295 3837.64

-6665.78 -1751.29 -237.713
-1751.29 1064.78 11.6194
-237.713 11.6194 688.536

-9061.53 -1178.31 -628.431
-1178.31 -2157.98 -212.888
-628.431 -212.888 1496.2

-9848.9 -625.879 -386.385
-625.879 -1588 -483.599
-386.385 -483.599 -357.185

-10341.8 -458.982 -399.81
-458.982 -4666.56 -673.912
-399.81 -673.912 495.028

-9061.26 1178.36 628.463
1178.36 -2157.43 -212.887
628.463 -212.887 1496.82

-9849.03 625.845 386.382
625.845 -1588.35 -483.594
386.382 -483.594 -357.542

-10341.9 458.955 399.811
458.955 -4666.89 -673.904
399.811 -673.904 494.654

-6220.99 1113.59 -300.709
1113.59 3436.11 -18.7539
-300.709 -18.7539 3988.58

-5662.31 1447.85 -182.541
1447.85 1443.41 -105.292
-182.541 -105.292 3838.05

-6665.54 1751.32 237.733
1751.32 1065.14 11.6237
237.733 11.6237 688.906

-14006.1 434.306 213.245
434.306 -12819.5 -284.752
213.245 -284.752 -10102.6

-6027.27 1554.22 -37.3806
1554.22 952.563 -35.3657
-37.3806 -35.3657 3314.26

-7012.59 1844.64 353.541
1844.64 557.838 86.5949
353.541 86.5949 177.927

-6695.48 2333.58 988.699
2333.58 -1026.93 521.804
988.699 521.804 -4581.24

-17080.4 654.954 369.257
654.954 -16859.7 322.192
369.257 322.192 -17249.5

-17080.4 654.954 369.257
654.954 -16859.7 322.192
369.257 322.192 -17249.5

-12682.4 0 -299.702
0 -11270 0
-299.702 0 -8195.48

-13490.5 0 -645.017
0 -13363.5 0
-645.017 0 -13182.4

-13490.5 0 -645.017
0 -13363.5 0
-645.017 0 -13182.4

-7337.43 274.495 -908.028
274.495 -1941.42 -11.1075
-908.028 -11.1075 -4960.38

-7509.68 535.091 -346.42
535.091 -268.334 -366.926
-346.42 -366.926 -305.6

-6202.38 259.99 -43.3441
259.99 996.949 -398.742
-43.3441 -398.742 2901.36

-9461.19 507.254 -657.556
507.254 -2924.63 -780.508
-657.556 -780.508 923.706

-7114.71 700.269 -244.078
700.269 300.637 -421.123
-244.078 -421.123 206.215

-5801.85 424.16 89.5416
424.16 1538.35 -455.9
89.5416 -455.9 3423.37

-7575.8 -7.17816 276.026
-7.17816 2407.12 -514.028
276.026 -514.028 1504.74

-10595.6 14.7202 -359.605
14.7202 -4615.1 -529.325
-359.605 -529.325 -894.474

-10757.8 15.3591 -305.312
15.3591 -3716.38 -545.082
-305.312 -545.082 -2962.64

-7575.69 7.19831 -276.019
7.19831 2407.34 -514.031
-276.019 -514.031 1504.96

-10595.6 -14.7109 359.615
-14.7109 -4615.16 -529.323
359.615 -529.323 -894.539

-10757.9 -15.3439 305.315
-15.3439 -3716.44 -545.08
305.315 -545.08 -2962.7

-9460.89 -507.268 657.589
-507.268 -2924.05 -780.52
657.589 -780.52 924.37

-7114.45 -700.269 244.098
-700.269 301.034 -421.13
244.098 -421.13 206.624

-5801.6 -424.152 -89.5277
-424.152 1538.72 -455.907
-89.5277 -455.907 3423.78

-7337.07 -274.492 908.054
-274.492 -1940.96 -11.1078
908.054 -11.1078 -4959.97

-7509.12 -535.108 346.445
-535.108 -267.453 -366.939
346.445 -366.939 -304.71

-6201.83 -259.992 43.3555
-259.992 997.791 -398.756
43.3555 -398.756 2902.27

-12682 1.34382e-12 299.722
1.34382e-12 -11269.5 6.75823e-13
299.722 6.75823e-13 -8194.86

-13490.5 1.87618e-12 645.019
1.87618e-12 -13363.4 5.26615e-13
645.019 5.26615e-13 -13182.4

-13490.5 1.87618e-12 645.019
1.87618e-12 -13363.4 5.26615e-13
645.019 5.26615e-13 -13182.4

-7337.43 -274.495 -908.028
-274.495 -1941.42 11.1075
-908.028 11.1075 -4960.38

-13490.5 0 -645.017
0 -13363.5 0
-645.017 0 -13182.4

-13490.5 0 -645.017
0 -13363.5 0
-645.017 0 -13182.4

-12682.4 0 -299.702
0 -11270 0
-299.702 0 -8195.48

-6202.38 -259.99 -43.3441
-259.99 996.949 398.742
-43.3441 398.742 2901.36

-7509.68 -535.091 -346.42
-535.091 -268.334 366.926
-346.42 366.926 -305.6

-7575.8 7.17816 276.026
7.17816 2407.12 514.028
276.026 514.028 1504.74

-5801.85 -424.16 89.5416
-424.16 1538.35 455.9
89.5416 455.9 3423.37

-7114.71 -700.269 -244.078
-700.269 300.637 421.123
-244.078 421.123 206.215

-9461.19 -507.254 -657.556
-507.254 -2924.63 780.508
-657.556 780.508 923.706

-10757.8 -15.3591 -305.312
-15.3591 -3716.38 545.082
-305.312 545.082 -2962.64

-10595.6 -14.7202 -359.605
-14.7202 -4615.1 529.325
-359.605 529.325 -894.474

-9460.89 507.268 657.589
507.268 -2924.05 780.52
657.589 780.52 924.37

-10757.9 15.3439 305.315
15.3439 -3716.44 545.08
305.315 545.08 -2962.7

-10595.6 14.7109 359.615
14.7109 -4615.16 529.323
359.615 529.323 -894.539

-7575.69 -7.19831 -276.019
-7.19831 2407.34 514.031
-276.019 514.031 1504.96

-5801.6 424.152 -89.5277
424.152 1538.72 455.907
-89.5277 455.907 3423.78

-7114.45 700.269 244.098
700.269 301.034 421.13
244.098 421.13 206.624

-12682 1.34382e-12 299.722
1.34382e-12 -11269.5 6.75823e-13
299.722 6.75823e-13 -8194.86

-6201.83 259.992 43.3555
259.992 997.791 398.756
43.3555 398.756 2902.27

-7509.12 535.108 346.445
535.108 -267.453 366.939
346.445 366.939 -304.71

-7337.07 274.492 908.054
274.492 -1940.96 11.1078
908.054 11.1078 -4959.97

-13490.5 1.87618e-12 645.019
1.87618e-12 -13363.4 5.26615e-13
645.019 5.26615e-13 -13182.4

-13490.5 1.87618e-12 645.019
1.87618e-12 -13363.4 5.26615e-13
645.019 5.26615e-13 -13182.4

-14006.7 434.24 -213.22
434.24 -12820.2 284.734
-213.22 284.734 -10103.4

-17080.7 654.909 -369.231
654.909 -16860 -322.189
-369.231 -322.189 -17249.8

-17080.7 654.909 -369.231
654.909 -16860 -322.189
-369.231 -322.189 -17249.8

-6695.81 2333.53 -988.675
2333.53 -1027.35 -521.798
-988.675 -521.798 -4581.62

-7013.12 1844.56 -353.515
1844.56 556.995 -86.5927
-353.515 -86.5927 177.071

-6027.81 1554.16 37.3868
1554.16 951.746 35.3656
37.3868 35.3656 3313.36

-9061.53 1178.31 -628.431
1178.31 -2157.98 212.888
-628.431 212.888 1496.2

-6665.78 1751.29 -237.713
1751.29 1064.78 -11.6194
-237.713 -11.6194 688.536

-5662.55 1447.83 182.552
1447.83 1443.06 105.295
182.552 105.295 3837.64

-6220.99 1113.61 300.718
1113.61 3436.1 18.7534
300.718 18.7534 3988.58

-10341.8 458.982 -399.81
458.982 -4666.56 673.912
-399.81 673.912 495.028

-9848.9 625.879 -386.385
625.879 -1588 483.599
-386.385 483.599 -357.185

-6220.99 -1113.59 -300.709
-1113.59 3436.11 18.7539
-300.709 18.7539 3988.58

-10341.9 -458.955 399.811
-458.955 -4666.89 673.904
399.811 673.904 494.654

-9849.03 -625.845 386.382
-625.845 -1588.35 483.594
386.382 483.594 -357.542

-9061.26 -1178.36 628.463
-1178.36 -2157.43 212.887
628.463 212.887 1496.82

-6665.54 -1751.32 237.733
-1751.32 1065.14 -11.6237
237.733 -11.6237 688.906

-5662.31 -1447.85 -182.541
-1447.85 1443.41 105.292
-182.541 105.292 3838.05

-6695.48 -2333.58 988.699
-2333.58 -1026.93 -521.804
988.699 -521.804 -4581.24

-7012.59 -1844.64 353.541
-1844.64 557.838 -86.5949
353.541 -86.5949 177.927

-6027.27 -1554.22 -37.3806
-1554.22 952.563 35.3657
-37.3806 35.3657 3314.26

-14006.1 -434.306 213.245
-434.306 -12819.5 284.752
213.245 284.752 -10102.6

-17080.4 -654.954 369.257
-654.954 -16859.7 -322.192
369.257 -322.192 -17249.5

-17080.4 -654.954 369.257
-654.954 -16859.7 -322.192
369.257 -322.192 -17249.5

-9087.54 -1375.24 -1313.66
-1375.24 -6772.74 508.25
-1313.66 508.25 -3905.74

-17080.7 -654.909 -369.231
-654.909 -16860 322.189
-369.231 322.189 -17249.8

-17080.7 -654.909 -369.231
-654.909 -16860 322.189
-369.231 322.189 -17249.8

-6695.81 -2333.53 -988.675
-2333.53 -1027.35 521.798
-988.675 521.798 -4581.62

-5155.72 -2322.29 -1711.8
-2322.29 3363.07 666.494
-1711.8 666.494 3033.31

-4964.68 -2375.24 -1704.53
-2375.24 3134.76 665.648
-1704.53 665.648 3917.39

-9446.82 -1125.36 -641.039
-1125.36 -2969.36 293.733
-641.039 293.733 582.772

-7411.07 -1832.41 -1423.63
-1832.41 -325.591 611.03
-1423.63 611.03 -578.366

-7221.72 -1873.12 -1428.54
-1873.12 -496.071 610.944
-1428.54 610.944 245.437

-8437.63 -1252.48 -1173.22
-1252.48 1347.05 576.68
-1173.22 576.68 -733.708

-10325.2 -572.12 -381.639
-572.12 -3026.32 75.2177
-381.639 75.2177 -1546.53

-10187 -597.429 -387.181
-597.429 -2509.32 65.9308
-387.181 65.9308 -1318.8

-8437.41 1252.49 1173.24
1252.49 1347.51 576.686
1173.24 576.686 -733.28

-10325.3 572.087 381.612
572.087 -3026.67 75.2147
381.612 75.2147 -1546.89

-10187.1 597.397 387.153
597.397 -2509.67 65.9278
387.153 65.9278 -1319.16

-9446.55 1125.41 641.04
1125.41 -2968.81 293.735
641.04 293.735 583.39

-7410.55 1832.49 1423.68
1832.49 -324.752 611.041
1423.68 611.041 -577.534

-7221.2 1873.2 1428.59
1873.2 -495.252 610.955
1428.59 610.955 246.292

-6695.48 2333.58 988.699
2333.58 -1026.93 521.804
988.699 521.804 -4581.24

-5155.12 2322.38 1711.86
2322.38 3364.01 666.505
1711.86 666.505 3034.24

-4964.09 2375.33 1704.59
2375.33 3135.67 665.66
1704.59 665.66 3918.34

-9087.09 1375.3 1313.7
1375.3 -6772.19 508.258
1313.7 508.258 -3905.11

-17080.4 654.954 369.257
654.954 -16859.7 322.192
369.257 322.192 -17249.5

-17080.4 654.954 369.257
654.954 -16859.7 322.192
369.257 322.192 -17249.5

-7337.43 274.495 -908.028
274.495 -1941.42 -11.1075
-908.028 -11.1075 -4960.38

-13490.5 0 -645.017
0 -13363.5 0
-645.017 0 -13182.4

-13490.5 0 -645.017
0 -13363.5 0
-645.017 0 -13182.4

-7843.15 0 -1367.25
0 -5795.19 0
-1367.25 0 -2401.04

-5400.22 586.878 -1548.89
586.878 2746.61 -60.4912
-1548.89 -60.4912 3294.39

-5715.19 454.086 -1618.97
454.086 2435.43 -63.3482
-1618.97 -63.3482 2514.44

-10495.6 0.00969048 -766.569
0.00969048 -1988.3 -0.00161949
-766.569 -0.00161949 -4879.45

-7604.78 581.896 -1289.61
581.896 -828.603 -72.6934
-1289.61 -72.6934 -308.652

-7922.34 469.112 -1337.56
469.112 -1171.75 -75.2596
-1337.56 -75.2596 -1066.41

-9844.82 458.376 -608.226
458.376 -3740.19 -276.423
-608.226 -276.423 5.12591

-11086.2 0.463257 -280.613
0.463257 -4661.97 -15.7941
-280.613 -15.7941 -3935.7

-10841.2 0.00703067 -287.92
0.00703067 -3580.63 -0.000691536
-287.92 -0.000691536 -3611.07

-9844.53 -458.389 608.23
-458.389 -3739.61 -276.425
608.23 -276.425 5.78679

-11086.3 -0.449033 280.598
-0.449033 -4662.03 -15.7925
280.598 -15.7925 -3935.77

-10841.2 0.00703062 287.903
0.00703062 -3580.7 0.000691498
287.903 0.000691498 -3611.14

-10495.2 0.00969105 766.621
0.00969105 -1987.43 0.00161947
766.621 0.00161947 -4878.66

-7604.24 -581.904 1289.67
-581.904 -827.751 -72.6901
1289.67 -72.6901 -307.788

-7921.79 -469.121 1337.61
-469.121 -1170.87 -75.2569
1337.61 -75.2569 -1065.54

-7842.88 2.6282e-12 1367.27
2.6282e-12 -5794.88 3.75872e-13
1367.27 3.75872e-13 -2400.7

-5399.61 -586.886 1548.95
-586.886 2747.55 -60.4887
1548.95 -60.4887 3295.35

-5714.57 -454.096 1619.03
-454.096 2436.4 -63.3464
1619.03 -63.3464 2515.4

-7337.07 -274.492 908.054
-274.492 -1940.96 -11.1078
908.054 -11.1078 -4959.97

-13490.5 1.87618e-12 645.019
1.87618e-12 -13363.4 5.26615e-13
645.019 5.26615e-13 -13182.4

-13490.5 1.87618e-12 645.019
1.87618e-12 -13363.4 5.26615e-13
645.019 5.26615e-13 -13182.4

-7843.15 0 -1367.25
0 -5795.19 0
-1367.25 0 -2401.04

-13490.5 0 -645.017
0 -13363.5 0
-645.017 0 -13182.4

-13490.5 0 -645.017
0 -13363.5 0
-645.017 0 -13182.4

-7337.43 -274.495 -908.028
-274.495 -1941.42 11.1075
-908.028 11.1075 -4960.38

-5715.19 -454.086 -1618.97
-454.086 2435.43 63.3482
-1618.97 63.3482 2514.44

-5400.22 -586.878 -1548.89
-586.878 2746.61 60.4912
-1548.89 60.4912 3294.39

-9844.82 -458.376 -608.226
-458.376 -3740.19 276.423
-608.226 276.423 5.12591

-7922.34 -469.112 -1337.56
-469.112 -1171.75 75.2596
-1337.56 75.2596 -1066.41

-7604.78 -581.896 -1289.61
-581.896 -828.603 72.6934
-1289.61 72.6934 -308.652

-10495.6 -0.00969048 -766.569
-0.00969048 -1988.3 0.00161949
-766.569 0.00161949 -4879.45

-10841.2 -0.00703067 -287.92
-0.00703067 -3580.63 0.000691536
-287.92 0.000691536 -3611.07

-11086.2 -0.463257 -280.613
-0.463257 -4661.97 15.7941
-280.613 15.7941 -3935.7

-10495.2 -0.00969105 766.621
-0.00969105 -1987.43 -0.00161947
766.621 -0.00161947 -4878.66

-10841.2 -0.00703062 287.903
-0.00703062 -3580.7 -0.000691498
287.903 -0.000691498 -3611.14

-11086.3 0.449033 280.598
0.449033 -4662.03 15.7925
280.598 15.7925 -3935.77

-9844.53 458.389 608.23
458.389 -3739.61 276.425
608.23 276.425 5.78679

-7921.79 469.121 1337.61
469.121 -1170.87 75.2569
1337.61 75.2569 -1065.54

-7604.24 581.904 1289.67
581.904 -827.751 72.6901
1289.67 72.6901 -307.788

-7337.07 274.492 908.054
274.492 -1940.96 11.1078
908.054 11.1078 -4959.97

-5714.57 454.096 1619.03
454.096 2436.4 63.3464
1619.03 63.3464 2515.4

-5399.61 586.886 1548.95
586.886 2747.55 60.4887
1548.95 60.4887 3295.35

-7842.88 2.6282e-12 1367.27
2.6282e-12 -5794.88 3.75872e-13
1367.27 3.75872e-13 -2400.7

-13490.5 1.87618e-12 645.019
1.87618e-12 -13363.4 5.26615e-13
645.019 5.26615e-13 -13182.4

-13490.5 1.87618e-12 645.019
1.87618e-12 -13363.4 5.26615e-13
645.019 5.26615e-13 -13182.4

-6695.81 2333.53 -988.675
2333.53 -1027.35 -521.798
-988.675 -521.798 -4581.62

-17080.7 654.909 -369.231
654.909 -16860 -322.189
-369.231 -322.189 -17249.8

-17080.7 654.909 -369.231
654.909 -16860 -322.189
-369.231 -322.189 -17249.8

-9087.54 1375.24 -1313.66
1375.24 -6772.74 -508.25
-1313.66 -508.25 -3905.74

-4964.68 2375.24 -1704.53
2375.24 3134.76 -665.648
-1704.53 -665.648 3917.39

-5155.72 2322.29 -1711.8
2322.29 3363.07 -666.494
-1711.8 -666.494 3033.31

-8437.63 1252.48 -1173.22
1252.48 1347.05 -576.68
-1173.22 -576.68 -733.708

-7221.72 1873.12 -1428.54
1873.12 -496.071 -610.944
-1428.54 -610.944 245.437

-7411.07 1832.41 -1423.63
1832.41 -325.591 -611.03
-1423.63 -611.03 -578.366

-9446.82 1125.36 -641.039
1125.36 -2969.36 -293.733
-641.039 -293.733 582.772

-10187 597.429 -387.181
597.429 -2509.32 -65.9308
-387.181 -65.9308 -1318.8

-10325.2 572.12 -381.639
572.12 -3026.32 -75.2177
-381.639 -75.2177 -1546.53

-9446.55 -1125.41 641.04
-1125.41 -2968.81 -293.735
641.04 -293.735 583.39

-10187.1 -597.397 387.153
-597.397 -2509.67 -65.9278
387.153 -65.9278 -1319.16

-10325.3 -572.087 381.612
-572.087 -3026.67 -75.2147
381.612 -75.2147 -1546.89

-8437.41 -1252.49 1173.24
-1252.49 1347.51 -576.686
1173.24 -576.686 -733.28

-7221.2 -1873.2 1428.59
-1873.2 -495.252 -610.955
1428.59 -610.955 246.292

-7410.55 -1832.49 1423.68
-1832.49 -324.752 -611.041
1423.68 -611.041 -577.534

-9087.09 -1375.3 1313.7
-1375.3 -6772.19 -508.258
1313.7 -508.258 -3905.11

-4964.09 -2375.33 1704.59
-2375.33 3135.67 -665.66
1704.59 -665.66 3918.34

-5155.12 -2322.38 1711.86
-2322.38 3364.01 -666.505
1711.86 -666.505 3034.24

-6695.48 -2333.58 988.699
-2333.58 -1026.93 -521.804
988.699 -521.804 -4581.24

-17080.4 -654.954 369.257
-654.954 -16859.7 -322.192
369.257 -322.192 -17249.5

-17080.4 -654.954 369.257
-654.954 -16859.7 -322.192
369.257 -322.192 -17249.5

-6695.81 -2333.53 988.675
-2333.53 -1027.35 -521.798
988.675 -521.798 -4581.62

-17080.7 -654.909 369.231
-654.909 -16860 -322.189
369.231 -322.189 -17249.8

-17080.7 -654.909 369.231
-654.909 -16860 -322.189
369.231 -322.189 -17249.8

-9087.54 -1375.24 1313.66
-1375.24 -6772.74 -508.25
1313.66 -508.25 -3905.74

-4964.68 -2375.24 1704.53
-2375.24 3134.76 -665.648
1704.53 -665.648 3917.39

-5155.72 -2322.29 1711.8
-2322.29 3363.07 -666.494
1711.8 -666.494 3033.31

-8437.63 -1252.48 1173.22
-1252.48 1347.05 -576.68
1173.22 -576.68 -733.708

-7221.72 -1873.12 1428.54
-1873.12 -496.071 -610.944
1428.54 -610.944 245.437

-7411.07 -1832.41 1423.63
-1832.41 -325.591 -611.03
1423.63 -611.03 -578.366

-9446.82 -1125.36 641.039
-1125.36 -2969.36 -293.733
641.039 -293.733 582.772

-10187 -597.429 387.181
-597.429 -2509.32 -65.9308
387.181 -65.9308 -1318.8

-10325.2 -572.12 381.639
-572.12 -3026.32 -75.2177
381.639 -75.2177 -1546.53

-9446.55 1125.41 -641.04
1125.41 -2968.81 -293.735
-641.04 -293.735 583.39

-10187.1 597.397 -387.153
597.397 -2509.67 -65.9278
-387.153 -65.9278 -1319.16

-10325.3 572.087 -381.612
572.087 -3026.67 -75.2147
-381.612 -75.2147 -1546.89

-8437.41 1252.49 -1173.24
1252.49 1347.51 -576.686
-1173.24 -576.686 -733.28

-7221.2 1873.2 -1428.59
1873.2 -495.252 -610.955
-1428.59 -610.955 246.292

-7410.55 1832.49 -1423.68
1832.49 -324.752 -611.041
-1423.68 -611.041 -577.534

-9087.09 1375.3 -1313.7
1375.3 -6772.19 -508.258
-1313.7 -508.258 -3905.11

-4964.09 2375.33 -1704.59
2375.33 3135.67 -665.66
-1704.59 -665.66 3918.34

-5155.12 2322.38 -1711.86
2322.38 3364.01 -666.505
-1711.86 -666.505 3034.24

-6695.48 2333.58 -988.699
2333.58 -1026.93 -521.804
-988.699 -521.804 -4581.24

-17080.4 654.954 -369.257
654.954 -16859.7 -322.192
-369.257 -322.192 -17249.5

-17080.4 654.954 -369.257
654.954 -16859.7 -322.192
-369.257 -322.192 -17249.5

-7843.15 -1.33297e-12 1367.25
-1.33297e-12 -5795.19 -9.83652e-12
1367.25 -9.83652e-12 -2401.04

-13490.5 -1.87617e-12 645.017
-1.87617e-12 -13363.5 -5.26615e-13
645.017 -5.26615e-13 -13182.4

-13490.5 -1.87617e-12 645.017
-1.87617e-12 -13363.5 -5.26615e-13
645.017 -5.26615e-13 -13182.4

-7337.43 274.495 908.028
274.495 -1941.42 11.1075
908.028 11.1075 -4960.38

-5715.19 454.086 1618.97
454.086 2435.43 63.3482
1618.97 63.3482 2514.44

-5400.22 586.878 1548.89
586.878 2746.61 60.4912
1548.89 60.4912 3294.39

-9844.82 458.376 608.226
458.376 -3740.19 276.423
608.226 276.423 5.12591

-7922.34 469.112 1337.56
469.112 -1171.75 75.2596
1337.56 75.2596 -1066.41

-7604.78 581.896 1289.61
581.896 -828.603 72.6934
1289.61 72.6934 -308.652

-10495.6 0.00969048 766.569
0.00969048 -1988.3 0.00161949
766.569 0.00161949 -4879.45

-10841.2 0.00703067 287.92
0.00703067 -3580.63 0.000691536
287.92 0.000691536 -3611.07

-11086.2 0.463257 280.613
0.463257 -4661.97 15.7941
280.613 15.7941 -3935.7

-10495.2 0.00969105 -766.621
0.00969105 -1987.43 -0.00161947
-766.621 -0.00161947 -4878.66

-10841.2 0.00703062 -287.903
0.00703062 -3580.7 -0.000691498
-287.903 -0.000691498 -3611.14

-11086.3 -0.449033 -280.598
-0.449033 -4662.03 15.7925
-280.598 15.7925 -3935.77

-9844.53 -458.389 -608.23
-458.389 -3739.61 276.425
-608.23 276.425 5.78679

-7921.79 -469.121 -1337.61
-469.121 -1170.87 75.2569
-1337.61 75.2569 -1065.54

-7604.24 -581.904 -1289.67
-581.904 -827.751 72.6901
-1289.67 72.6901 -307.788

-7337.07 -274.492 -908.054
-274.492 -1940.96 11.1078
-908.054 11.1078 -4959.97

-5714.57 -454.096 -1619.03
-454.096 2436.4 63.3464
-1619.03 63.3464 2515.4

-5399.61 -586.886 -1548.95
-586.886 2747.55 60.4887
-1548.95 60.4887 3295.35

-7842.88 1.29523e-12 -1367.27
1.29523e-12 -5794.88 9.46078e-12
-1367.27 9.46078e-12 -2400.7

-13490.5 0 -645.019
0 -13363.4 0
-645.019 0 -13182.4

-13490.5 0 -645.019
0 -13363.4 0
-645.019 0 -13182.4

-7337.43 -274.495 908.028
-274.495 -1941.42 -11.1075
908.028 -11.1075 -4960.38

-13490.5 -1.87617e-12 645.017
-1.87617e-12 -13363.5 -5.26615e-13
645.017 -5.26615e-13 -13182.4

-13490.5 -1.87617e-12 645.017
-1.87617e-12 -13363.5 -5.26615e-13
645.017 -5.26615e-13 -13182.4

-7843.15 -1.33297e-12 1367.25
-1.33297e-12 -5795.19 -9.83652e-12
1367.25 -9.83652e-12 -2401.04

-5400.22 -586.878 1548.89
-586.878 2746.61 -60.4912
1548.89 -60.4912 3294.39

-5715.19 -454.086 1618.97
-454.086 2435.43 -63.3482
1618.97 -63.3482 2514.44

-10495.6 -0.00969048 766.569
-0.00969048 -1988.3 -0.00161949
766.569 -0.00161949 -4879.45

-7604.78 -581.896 1289.61
-581.896 -828.603 -72.6934
1289.61 -72.6934 -308.652

-7922.34 -469.112 1337.56
-469.112 -1171.75 -75.2596
1337.56 -75.2596 -1066.41

-9844.82 -458.376 608.226
-458.376 -3740.19 -276.423
608.226 -276.423 5.12591

-11086.2 -0.463257 280.613
-0.463257 -4661.97 -15.7941
280.613 -15.7941 -3935.7

-10841.2 -0.00703067 287.92
-0.00703067 -3580.63 -0.000691536
287.92 -0.000691536 -3611.07

-9844.53 458.389 -608.23
458.389 -3739.61 -276.425
-608.23 -276.425 5.78679

-11086.3 0.449033 -280.598
0.449033 -4662.03 -15.7925
-280.598 -15.7925 -3935.77

-10841.2 -0.00703062 -287.903
-0.00703062 -3580.7 0.000691498
-287.903 0.000691498 -3611.14

-10495.2 -0.00969105 -766.621
-0.00969105 -1987.43 0.00161947
-766.621 0.00161947 -4878.66

-7604.24 581.904 -1289.67
581.904 -827.751 -72.6901
-1289.67 -72.6901 -307.788

-7921.79 469.121 -1337.61
469.121 -1170.87 -75.2569
-1337.61 -75.2569 -1065.54

-7842.88 1.29523e-12 -1367.27
1.29523e-12 -5794.88 9.46078e-12
-1367.27 9.46078e-12 -2400.7

-5399.61 586.886 -1548.95
586.886 2747.55 -60.4887
-1548.95 -60.4887 3295.35

-5714.57 454.096 -1619.03
454.096 2436.4 -63.3464
-1619.03 -63.3464 2515.4

-7337.07 274.492 -908.054
274.492 -1940.96 -11.1078
-908.054 -11.1078 -4959.97

-13490.5 0 -645.019
0 -13363.4 0
-645.019 0 -13182.4

-13490.5 0 -645.019
0 -13363.4 0
-645.019 0 -13182.4

-9087.54 1375.24 1313.66
1375.24 -6772.74 508.25
1313.66 508.25 -3905.74

-17080.7 654.909 369.231
654.909 -16860 322.189
369.231 322.189 -17249.8

-17080.7 654.909 369.231
654.909 -16860 322.189
369.231 322.189 -17249.8

-6695.81 2333.53 988.675
2333.53 -1027.35 521.798
988.675 521.798 -4581.62

-5155.72 2322.29 1711.8
2322.29 3363.07 666.494
1711.8 666.494 3033.31

-4964.68 2375.24 1704.53
2375.24 3134.76 665.648
1704.53 665.648 3917.39

-9446.82 1125.36 641.039
1125.36 -2969.36 293.733
641.039 293.733 582.772

-7411.07 1832.41 1423.63
1832.41 -325.591 611.03
1423.63 611.03 -578.366

-7221.72 1873.12 1428.54
1873.12 -496.071 610.944
1428.54 610.944 245.437

-8437.63 1252.48 1173.22
1252.48 1347.05 576.68
1173.22 576.68 -733.708

-10325.2 572.12 381.639
572.12 -3026.32 75.2177
381.639 75.2177 -1546.53

-10187 597.429 387.181
597.429 -2509.32 65.9308
387.181 65.9308 -1318.8

-8437.41 -1252.49 -1173.24
-1252.49 1347.51 576.686
-1173.24 576.686 -733.28

-10325.3 -572.087 -381.612
-572.087 -3026.67 75.2147
-381.612 75.2147 -1546.89

-10187.1 -597.397 -387.153
-597.397 -2509.67 65.9278
-387.153 65.9278 -1319.16

-9446.55 -1125.41 -641.04
-1125.41 -2968.81 293.735
-641.04 293.735 583.39

-7410.55 -1832.49 -1423.68
-1832.49 -324.752 611.041
-1423.68 611.041 -577.534

-7221.2 -1873.2 -1428.59
-1873.2 -495.252 610.955
-1428.59 610.955 246.292

-6695.48 -2333.58 -988.699
-2333.58 -1026.93 521.804
-988.699 521.804 -4581.24

-5155.12 -2322.38 -1711.86
-2322.38 3364.01 666.505
-1711.86 666.505 3034.24

-4964.09 -2375.33 -1704.59
-2375.33 3135.67 665.66
-1704.59 665.66 3918.34

-9087.09 -1375.3 -1313.7
-1375.3 -6772.19 508.258
-1313.7 508.258 -3905.11

-17080.4 -654.954 -369.257
-654.954 -16859.7 322.192
-369.257 322.192 -17249.5

-17080.4 -654.954 -369.257
-654.954 -16859.7 322.192
-369.257 322.192 -17249.5

-14006.7 -434.24 213.22
-434.24 -12820.2 284.734
213.22 284.734 -10103.4

-17080.7 -654.909 369.231
-654.909 -16860 -322.189
369.231 -322.189 -17249.8

-17080.7 -654.909 369.231
-654.909 -16860 -322.189
369.231 -322.189 -17249.8

-6695.81 -2333.53 988.675
-2333.53 -1027.35 -521.798
988.675 -521.798 -4581.62

-7013.12 -1844.56 353.515
-1844.56 556.995 -86.5927
353.515 -86.5927 177.071

-6027.81 -1554.16 -37.3868
-1554.16 951.746 35.3656
-37.3868 35.3656 3313.36

-9061.53 -1178.31 628.431
-1178.31 -2157.98 212.888
628.431 212.888 1496.2

-6665.78 -1751.29 237.713
-1751.29 1064.78 -11.6194
237.713 -11.6194 688.536

-5662.55 -1447.83 -182.552
-1447.83 1443.06 105.295
-182.552 105.295 3837.64

-6220.99 -1113.61 -300.718
-1113.61 3436.1 18.7534
-300.718 18.7534 3988.58

-10341.8 -458.982 399.81
-458.982 -4666.56 673.912
399.81 673.912 495.028

-9848.9 -625.879 386.385
-625.879 -1588 483.599
386.385 483.599 -357.185

-6220.99 1113.59 300.709
1113.59 3436.11 18.7539
300.709 18.7539 3988.58

-10341.9 458.955 -399.811
458.955 -4666.89 673.904
-399.811 673.904 494.654

-9849.03 625.845 -386.382
625.845 -1588.35 483.594
-386.382 483.594 -357.542

-9061.26 1178.36 -628.463
1178.36 -2157.43 212.887
-628.463 212.887 1496.82

-6665.54 1751.32 -237.733
1751.32 1065.14 -11.6237
-237.733 -11.6237 688.906

-5662.31 1447.85 182.541
1447.85 1443.41 105.292
182.541 105.292 3838.05

-6695.48 2333.58 -988.699
2333.58 -1026.93 -521.804
-988.699 -521.804 -4581.24

-7012.59 1844.64 -353.541
1844.64 557.838 -86.5949
-353.541 -86.5949 177.927

-6027.27 1554.22 37.3806
1554.22 952.563 35.3657
37.3806 35.3657 3314.26

-14006.1 434.306 -213.245
434.306 -12819.5 284.752
-213.245 284.752 -10102.6

-17080.4 654.954 -369.257
654.954 -16859.7 -322.192
-369.257 -322.192 -17249.5

-17080.4 654.954 -369.257
654.954 -16859.7 -322.192
-369.257 -322.192 -17249.5

-7337.43 274.495 908.028
274.495 -1941.42 11.1075
908.028 11.1075 -4960.38

-13490.5 -1.87617e-12 645.017
-1.87617e-12 -13363.5 -5.26615e-13
645.017 -5.26615e-13 -13182.4

-13490.5 -1.87617e-12 645.017
-1.87617e-12 -13363.5 -5.26615e-13
645.017 -5.26615e-13 -13182.4

-12682.4 -6.66981e-15 299.702
-6.66981e-15 -11270 3.81616e-12
299.702 3.81616e-12 -8195.48

-6202.38 259.99 43.3441
259.99 996.949 398.742
43.3441 398.742 2901.36

-7509.68 535.091 346.42
535.091 -268.334 366.926
346.42 366.926 -305.6

-7575.8 -7.17816 -276.026
-7.17816 2407.12 514.028
-276.026 514.028 1504.74

-5801.85 424.16 -89.5416
424.16 1538.35 455.9
-89.5416 455.9 3423.37

-7114.71 700.269 244.078
700.269 300.637 421.123
244.078 421.123 206.215

-9461.19 507.254 657.556
507.254 -2924.63 780.508
657.556 780.508 923.706

-10757.8 15.3591 305.312
15.3591 -3716.38 545.082
305.312 545.082 -2962.64

-10595.6 14.7202 359.605
14.7202 -4615.1 529.325
359.605 529.325 -894.474

-9460.89 -507.268 -657.589
-507.268 -2924.05 780.52
-657.589 780.52 924.37

-10757.9 -15.3439 -305.315
-15.3439 -3716.44 545.08
-305.315 545.08 -2962.7

-10595.6 -14.7109 -359.615
-14.7109 -4615.16 529.323
-359.615 529.323 -894.539

-7575.69 7.19831 276.019
7.19831 2407.34 514.031
276.019 514.031 1504.96

-5801.6 -424.152 89.5277
-424.152 1538.72 455.907
89.5277 455.907 3423.78

-7114.45 -700.269 -244.098
-700.269 301.034 421.13
-244.098 421.13 206.624

-12682 1.33714e-12 -299.722
1.33714e-12 -11269.5 -4.4921e-12
-299.722 -4.4921e-12 -8194.86

-6201.83 -259.992 -43.3555
-259.992 997.791 398.756
-43.3555 398.756 2902.27

-7509.12 -535.108 -346.445
-535.108 -267.453 366.939
-346.445 366.939 -304.71

-7337.07 -274.492 -908.054
-274.492 -1940.96 11.1078
-908.054 11.1078 -4959.97

-13490.5 0 -645.019
0 -13363.4 0
-645.019 0 -13182.4

-13490.5 0 -645.019
0 -13363.4 0
-645.019 0 -13182.4

-12682.4 -6.66981e-15 299.702
-6.66981e-15 -11270 3.81616e-12
299.702 3.81616e-12 -8195.48

-13490.5 -1.87617e-12 645.017
-1.87617e-12 -13363.5 -5.26615e-13
645.017 -5.26615e-13 -13182.4

-13490.5 -1.87617e-12 645.017
-1.87617e-12 -13363.5 -5.26615e-13
645.017 -5.26615e-13 -13182.4

-7337.43 -274.495 908.028
-274.495 -1941.42 -11.1075
908.028 -11.1075 -4960.38

-7509.68 -535.091 346.42
-535.091 -268.334 -366.926
346.42 -366.926 -305.6

-6202.38 -259.99 43.3441
-259.99 996.949 -398.742
43.3441 -398.742 2901.36

-9461.19 -507.254 657.556
-507.254 -2924.63 -780.508
657.556 -780.508 923.706

-7114.71 -700.269 244.078
-700.269 300.637 -421.123
244.078 -421.123 206.215

-5801.85 -424.16 -89.5416
-424.16 1538.35 -455.9
-89.5416 -455.9 3423.37

-7575.8 7.17816 -276.026
7.17816 2407.12 -514.028
-276.026 -514.028 1504.74

-10595.6 -14.7202 359.605
-14.7202 -4615.1 -529.325
359.605 -529.325 -894.474

-10757.8 -15.3591 305.312
-15.3591 -3716.38 -545.082
305.312 -545.082 -2962.64

-7575.69 -7.19831 276.019
-7.19831 2407.34 -514.031
276.019 -514.031 1504.96

-10595.6 14.7109 -359.615
14.7109 -4615.16 -529.323
-359.615 -529.323 -894.539

-10757.9 15.3439 -305.315
15.3439 -3716.44 -545.08
-305.315 -545.08 -2962.7

-9460.89 507.268 -657.589
507.268 -2924.05 -780.52
-657.589 -780.52 924.37

-7114.45 700.269 -244.098
700.269 301.034 -421.13
-244.098 -421.13 206.624

-5801.6 424.152 89.5277
424.152 1538.72 -455.907
89.5277 -455.907 3423.78

-7337.07 274.492 -908.054
274.492 -1940.96 -11.1078
-908.054 -11.1078 -4959.97

-7509.12 535.108 -346.445
535.108 -267.453 -366.939
-346.445 -366.939 -304.71

-6201.83 259.992 -43.3555
259.992 997.791 -398.756
-43.3555 -398.756 2902.27

-12682 1.33714e-12 -299.722
1.33714e-12 -11269.5 -4.4921e-12
-299.722 -4.4921e-12 -8194.86

-13490.5 0 -645.019
0 -13363.4 0
-645.019 0 -13182.4

-13490.5 0 -645.019
0 -13363.4 0
-645.019 0 -13182.4

-6695.81 2333.53 988.675
2333.53 -1027.35 521.798
988.675 521.798 -4581.62

-17080.7 654.909 369.231
654.909 -16860 322.189
369.231 322.189 -17249.8

-17080.7 654.909 369.231
654.909 -16860 322.189
369.231 322.189 -17249.8

-14006.7 434.24 213.22
434.24 -12820.2 -284.734
213.22 -284.734 -10103.4

-6027.81 1554.16 -37.3868
1554.16 951.746 -35.3656
-37.3868 -35.3656 3313.36

-7013.12 1844.56 353.515
1844.56 556.995 86.5927
353.515 86.5927 177.071

-6220.99 1113.61 -300.718
1113.61 3436.1 -18.7534
-300.718 -18.7534 3988.58

-5662.55 1447.83 -182.552
1447.83 1443.06 -105.295
-182.552 -105.295 3837.64

-6665.78 1751.29 237.713
1751.29 1064.78 11.6194
237.713 11.6194 688.536

-9061.53 1178.31 628.431
1178.31 -2157.98 -212.888
628.431 -212.888 1496.2

-9848.9 625.879 386.385
625.879 -1588 -483.599
386.385 -483.599 -357.185

-10341.8 458.982 399.81
458.982 -4666.56 -673.912
399.81 -673.912 495.028

-9061.26 -1178.36 -628.463
-1178.36 -2157.43 -212.887
-628.463 -212.887 1496.82

-9849.03 -625.845 -386.382
-625.845 -1588.35 -483.594
-386.382 -483.594 -357.542

-10341.9 -458.955 -399.811
-458.955 -4666.89 -673.904
-399.811 -673.904 494.654

-6220.99 -1113.59 300.709
-1113.59 3436.11 -18.7539
300.709 -18.7539 3988.58

-5662.31 -1447.85 182.541
-1447.85 1443.41 -105.292
182.541 -105.292 3838.05

-6665.54 -1751.32 -237.733
-1751.32 1065.14 11.6237
-237.733 11.6237 688.906

-14006.1 -434.306 -213.245
-434.306 -12819.5 -284.752
-213.245 -284.752 -10102.6

-6027.27 -1554.22 37.3806
-1554.22 952.563 -35.3657
37.3806 -35.3657 3314.26

-7012.59 -1844.64 -353.541
-1844.64 557.838 86.5949
-353.541 86.5949 177.927

-6695.48 -2333.58 -988.699
-2333.58 -1026.93 521.804
-988.699 521.804 -4581.24

-17080.4 -654.954 -369.257
-654.954 -16859.7 322.192
-369.257 322.192 -17249.5

-17080.4 -654.954 -369.257
-654.954 -16859.7 322.192
-369.257 322.192 -17249.5

