# vtk DataFile Version 3.0
vtk output at time 0.2
ASCII
DATASET UNSTRUCTURED_GRID
POINTS 125 float
0 0 0 0 0 0.05 0 0 0.1 
0 0 0.15 0 0 0.2 0 0.05 0 
0 0.05 0.05 0 0.05 0.1 0 0.05 0.15 
0 0.05 0.2 0 0.1 0 0 0.1 0.05 
0 0.1 0.1 0 0.1 0.15 0 0.1 0.2 
0 0.15 0 0 0.15 0.05 0 0.15 0.1 
0 0.15 0.15 0 0.15 0.2 0 0.2 0 
0 0.2 0.05 0 0.2 0.1 0 0.2 0.15 
0 0.2 0.2 0.0481089 -0.0016902 -0.00280323 0.0495842 -0.00235044 0.0486997 
0.0484843 -0.00214152 0.1 0.0495842 -0.00235044 0.1513 0.0481089 -0.0016902 0.202803 
0.0474907 0.0491036 -0.00227202 0.0486732 0.0488288 0.0488382 0.0475204 0.0489003 0.1 
0.0486732 0.0488288 0.151162 0.0474907 0.0491036 0.202272 0.0482809 0.1 -0.00264489 
0.0496846 0.1 0.0487616 0.048619 0.1 0.1 0.0496846 0.1 0.151238 
0.0482809 0.1 0.202645 0.0474907 0.150896 -0.00227202 0.0486732 0.151171 0.0488382 
0.0475204 0.1511 0.1 0.0486732 0.151171 0.151162 0.0474907 0.150896 0.202272 
0.0481089 0.20169 -0.00280323 0.0495842 0.20235 0.0486997 0.0484843 0.202142 0.1 
0.0495842 0.20235 0.1513 0.0481089 0.20169 0.202803 0.095 -0.002982 -0.00495601 
0.095 -0.00392349 0.0477968 0.095 -0.0039894 0.1 0.095 -0.00392349 0.152203 
0.095 -0.002982 0.204956 0.095 0.048381 -0.00439698 0.095 0.0480014 0.0478091 
0.0949999 0.047921 0.1 0.095 0.0480014 0.152191 0.095 0.048381 0.204397 
0.095 0.1 -0.00472833 0.095 0.1 0.0478813 0.095 0.1 0.1 
0.095 0.1 0.152119 0.095 0.1 0.204728 0.095 0.151619 -0.00439698 
0.095 0.151999 0.0478091 0.0949999 0.152079 0.1 0.095 0.151999 0.152191 
0.095 0.151619 0.204397 0.095 0.202982 -0.00495601 0.095 0.203923 0.0477968 
0.095 0.203989 0.1 0.095 0.203923 0.152203 0.095 0.202982 0.204956 
0.141891 -0.00169016 -0.00280322 0.140416 -0.00235041 0.0486997 0.141516 -0.00214148 0.1 
0.140416 -0.00235041 0.1513 0.141891 -0.00169016 0.202803 0.142509 0.0491037 -0.002272 
0.141327 0.0488289 0.0488382 0.14248 0.0489003 0.1 0.141327 0.0488289 0.151162 
0.142509 0.0491037 0.202272 0.141719 0.1 -0.00264487 0.140315 0.1 0.0487617 
0.141381 0.1 0.1 0.140315 0.1 0.151238 0.141719 0.1 0.202645 
0.142509 0.150896 -0.002272 0.141327 0.151171 0.0488382 0.14248 0.1511 0.1 
0.141327 0.151171 0.151162 0.142509 0.150896 0.202272 0.141891 0.20169 -0.00280322 
0.140416 0.20235 0.0486997 0.141516 0.202141 0.1 0.140416 0.20235 0.1513 
0.141891 0.20169 0.202803 0.19 0 0 0.19 0 0.05 
0.19 0 0.1 0.19 0 0.15 0.19 0 0.2 
0.19 0.05 0 0.19 0.05 0.05 0.19 0.05 0.1 
0.19 0.05 0.15 0.19 0.05 0.2 0.19 0.1 0 
0.19 0.1 0.05 0.19 0.1 0.1 0.19 0.1 0.15 
0.19 0.1 0.2 0.19 0.15 0 0.19 0.15 0.05 
0.19 0.15 0.1 0.19 0.15 0.15 0.19 0.15 0.2 
0.19 0.2 0 0.19 0.2 0.05 0.19 0.2 0.1 
0.19 0.2 0.15 0.19 0.2 0.2 

CELLS 384 1920
4 5 6 26 31 
4 5 6 1 26 
4 0 5 1 26 
4 0 5 26 25 
4 25 5 26 30 
4 30 5 26 31 
4 26 25 55 50 
4 26 25 30 55 
4 31 26 30 55 
4 26 31 56 55 
4 26 56 51 55 
4 26 51 50 55 
4 55 56 76 81 
4 55 56 51 76 
4 50 55 51 76 
4 50 55 76 75 
4 75 55 76 80 
4 80 55 76 81 
4 76 75 105 100 
4 76 75 80 105 
4 81 76 80 105 
4 76 81 106 105 
4 76 106 101 105 
4 76 101 100 105 
4 10 5 35 36 
4 5 10 11 36 
4 6 5 11 36 
4 5 6 31 36 
4 5 31 30 36 
4 5 30 35 36 
4 36 31 55 56 
4 36 31 30 55 
4 35 36 30 55 
4 35 36 55 60 
4 60 36 55 61 
4 61 36 55 56 
4 60 55 85 86 
4 55 60 61 86 
4 56 55 61 86 
4 55 56 81 86 
4 55 81 80 86 
4 55 80 85 86 
4 86 81 105 106 
4 86 81 80 105 
4 85 86 80 105 
4 85 86 105 110 
4 110 86 105 111 
4 111 86 105 106 
4 15 16 36 41 
4 15 16 11 36 
4 10 15 11 36 
4 10 15 36 35 
4 35 15 36 40 
4 40 15 36 41 
4 36 35 65 60 
4 36 35 40 65 
4 41 36 40 65 
4 36 41 66 65 
4 36 66 61 65 
4 36 61 60 65 
4 65 66 86 91 
4 65 66 61 86 
4 60 65 61 86 
4 60 65 86 85 
4 85 65 86 90 
4 90 65 86 91 
4 86 85 115 110 
4 86 85 90 115 
4 91 86 90 115 
4 86 91 116 115 
4 86 116 111 115 
4 86 111 110 115 
4 20 15 45 46 
4 15 20 21 46 
4 16 15 21 46 
4 15 16 41 46 
4 15 41 40 46 
4 15 40 45 46 
4 46 41 65 66 
4 46 41 40 65 
4 45 46 40 65 
4 45 46 65 70 
4 70 46 65 71 
4 71 46 65 66 
4 70 65 95 96 
4 65 70 71 96 
4 66 65 71 96 
4 65 66 91 96 
4 65 91 90 96 
4 65 90 95 96 
4 96 91 115 116 
4 96 91 90 115 
4 95 96 90 115 
4 95 96 115 120 
4 120 96 115 121 
4 121 96 115 116 
4 7 2 26 27 
4 7 2 1 26 
4 6 7 1 26 
4 6 7 26 31 
4 31 7 26 32 
4 32 7 26 27 
4 31 26 56 57 
4 26 31 32 57 
4 27 26 32 57 
4 26 27 52 57 
4 26 52 51 57 
4 26 51 56 57 
4 57 52 76 77 
4 57 52 51 76 
4 56 57 51 76 
4 56 57 76 81 
4 81 57 76 82 
4 82 57 76 77 
4 81 76 106 107 
4 76 81 82 107 
4 77 76 82 107 
4 76 77 102 107 
4 76 102 101 107 
4 76 101 106 107 
4 7 6 36 31 
4 7 6 11 36 
4 12 7 11 36 
4 7 12 37 36 
4 7 37 32 36 
4 7 32 31 36 
4 36 37 57 62 
4 36 37 32 57 
4 31 36 32 57 
4 31 36 57 56 
4 56 36 57 61 
4 61 36 57 62 
4 57 56 86 81 
4 57 56 61 86 
4 62 57 61 86 
4 57 62 87 86 
4 57 87 82 86 
4 57 82 81 86 
4 86 87 107 112 
4 86 87 82 107 
4 81 86 82 107 
4 81 86 107 106 
4 106 86 107 111 
4 111 86 107 112 
4 17 12 36 37 
4 17 12 11 36 
4 16 17 11 36 
4 16 17 36 41 
4 41 17 36 42 
4 42 17 36 37 
4 41 36 66 67 
4 36 41 42 67 
4 37 36 42 67 
4 36 37 62 67 
4 36 62 61 67 
4 36 61 66 67 
4 67 62 86 87 
4 67 62 61 86 
4 66 67 61 86 
4 66 67 86 91 
4 91 67 86 92 
4 92 67 86 87 
4 91 86 116 117 
4 86 91 92 117 
4 87 86 92 117 
4 86 87 112 117 
4 86 112 111 117 
4 86 111 116 117 
4 17 16 46 41 
4 17 16 21 46 
4 22 17 21 46 
4 17 22 47 46 
4 17 47 42 46 
4 17 42 41 46 
4 46 47 67 72 
4 46 47 42 67 
4 41 46 42 67 
4 41 46 67 66 
4 66 46 67 71 
4 71 46 67 72 
4 67 66 96 91 
4 67 66 71 96 
4 72 67 71 96 
4 67 72 97 96 
4 67 97 92 96 
4 67 92 91 96 
4 96 97 117 122 
4 96 97 92 117 
4 91 96 92 117 
4 91 96 117 116 
4 116 96 117 121 
4 121 96 117 122 
4 7 8 28 33 
4 7 8 3 28 
4 2 7 3 28 
4 2 7 28 27 
4 27 7 28 32 
4 32 7 28 33 
4 28 27 57 52 
4 28 27 32 57 
4 33 28 32 57 
4 28 33 58 57 
4 28 58 53 57 
4 28 53 52 57 
4 57 58 78 83 
4 57 58 53 78 
4 52 57 53 78 
4 52 57 78 77 
4 77 57 78 82 
4 82 57 78 83 
4 78 77 107 102 
4 78 77 82 107 
4 83 78 82 107 
4 78 83 108 107 
4 78 108 103 107 
4 78 103 102 107 
4 12 7 37 38 
4 7 12 13 38 
4 8 7 13 38 
4 7 8 33 38 
4 7 33 32 38 
4 7 32 37 38 
4 38 33 57 58 
4 38 33 32 57 
4 37 38 32 57 
4 37 38 57 62 
4 62 38 57 63 
4 63 38 57 58 
4 62 57 87 88 
4 57 62 63 88 
4 58 57 63 88 
4 57 58 83 88 
4 57 83 82 88 
4 57 82 87 88 
4 88 83 107 108 
4 88 83 82 107 
4 87 88 82 107 
4 87 88 107 112 
4 112 88 107 113 
4 113 88 107 108 
4 17 18 38 43 
4 17 18 13 38 
4 12 17 13 38 
4 12 17 38 37 
4 37 17 38 42 
4 42 17 38 43 
4 38 37 67 62 
4 38 37 42 67 
4 43 38 42 67 
4 38 43 68 67 
4 38 68 63 67 
4 38 63 62 67 
4 67 68 88 93 
4 67 68 63 88 
4 62 67 63 88 
4 62 67 88 87 
4 87 67 88 92 
4 92 67 88 93 
4 88 87 117 112 
4 88 87 92 117 
4 93 88 92 117 
4 88 93 118 117 
4 88 118 113 117 
4 88 113 112 117 
4 22 17 47 48 
4 17 22 23 48 
4 18 17 23 48 
4 17 18 43 48 
4 17 43 42 48 
4 17 42 47 48 
4 48 43 67 68 
4 48 43 42 67 
4 47 48 42 67 
4 47 48 67 72 
4 72 48 67 73 
4 73 48 67 68 
4 72 67 97 98 
4 67 72 73 98 
4 68 67 73 98 
4 67 68 93 98 
4 67 93 92 98 
4 67 92 97 98 
4 98 93 117 118 
4 98 93 92 117 
4 97 98 92 117 
4 97 98 117 122 
4 122 98 117 123 
4 123 98 117 118 
4 9 4 28 29 
4 9 4 3 28 
4 8 9 3 28 
4 8 9 28 33 
4 33 9 28 34 
4 34 9 28 29 
4 33 28 58 59 
4 28 33 34 59 
4 29 28 34 59 
4 28 29 54 59 
4 28 54 53 59 
4 28 53 58 59 
4 59 54 78 79 
4 59 54 53 78 
4 58 59 53 78 
4 58 59 78 83 
4 83 59 78 84 
4 84 59 78 79 
4 83 78 108 109 
4 78 83 84 109 
4 79 78 84 109 
4 78 79 104 109 
4 78 104 103 109 
4 78 103 108 109 
4 9 8 38 33 
4 9 8 13 38 
4 14 9 13 38 
4 9 14 39 38 
4 9 39 34 38 
4 9 34 33 38 
4 38 39 59 64 
4 38 39 34 59 
4 33 38 34 59 
4 33 38 59 58 
4 58 38 59 63 
4 63 38 59 64 
4 59 58 88 83 
4 59 58 63 88 
4 64 59 63 88 
4 59 64 89 88 
4 59 89 84 88 
4 59 84 83 88 
4 88 89 109 114 
4 88 89 84 109 
4 83 88 84 109 
4 83 88 109 108 
4 108 88 109 113 
4 113 88 109 114 
4 19 14 38 39 
4 19 14 13 38 
4 18 19 13 38 
4 18 19 38 43 
4 43 19 38 44 
4 44 19 38 39 
4 43 38 68 69 
4 38 43 44 69 
4 39 38 44 69 
4 38 39 64 69 
4 38 64 63 69 
4 38 63 68 69 
4 69 64 88 89 
4 69 64 63 88 
4 68 69 63 88 
4 68 69 88 93 
4 93 69 88 94 
4 94 69 88 89 
4 93 88 118 119 
4 88 93 94 119 
4 89 88 94 119 
4 88 89 114 119 
4 88 114 113 119 
4 88 113 118 119 
4 19 18 48 43 
4 19 18 23 48 
4 24 19 23 48 
4 19 24 49 48 
4 19 49 44 48 
4 19 44 43 48 
4 48 49 69 74 
4 48 49 44 69 
4 43 48 44 69 
4 43 48 69 68 
4 68 48 69 73 
4 73 48 69 74 
4 69 68 98 93 
4 69 68 73 98 
4 74 69 73 98 
4 69 74 99 98 
4 69 99 94 98 
4 69 94 93 98 
4 98 99 119 124 
4 98 99 94 119 
4 93 98 94 119 
4 93 98 119 118 
4 118 98 119 123 
4 123 98 119 124 

CELL_TYPES 384
10
10
10
10
10
10
10
10
10
10
10
10
10
10
10
10
10
10
10
10
10
10
10
10
10
10
10
10
10
10
10
10
10
10
10
10
10
10
10
10
10
10
10
10
10
10
10
10
10
10
10
10
10
10
10
10
10
10
10
10
10
10
10
10
10
10
10
10
10
10
10
10
10
10
10
10
10
10
10
10
10
10
10
10
10
10
10
10
10
10
10
10
10
10
10
10
10
10
10
10
10
10
10
10
10
10
10
10
10
10
10
10
10
10
10
10
10
10
10
10
10
10
10
10
10
10
10
10
10
10
10
10
10
10
10
10
10
10
10
10
10
10
10
10
10
10
10
10
10
10
10
10
10
10
10
10
10
10
10
10
10
10
10
10
10
10
10
10
10
10
10
10
10
10
10
10
10
10
10
10
10
10
10
10
10
10
10
10
10
10
10
10
10
10
10
10
10
10
10
10
10
10
10
10
10
10
10
10
10
10
10
10
10
10
10
10
10
10
10
10
10
10
10
10
10
10
10
10
10
10
10
10
10
10
10
10
10
10
10
10
10
10
10
10
10
10
10
10
10
10
10
10
10
10
10
10
10
10
10
10
10
10
10
10
10
10
10
10
10
10
10
10
10
10
10
10
10
10
10
10
10
10
10
10
10
10
10
10
10
10
10
10
10
10
10
10
10
10
10
10
10
10
10
10
10
10
10
10
10
10
10
10
10
10
10
10
10
10
10
10
10
10
10
10
10
10
10
10
10
10
10
10
10
10
10
10
10
10
10
10
10
10
10
10
10
10
10
10
10
10
10
10
10
10
10
10
10
10
10
10
10
10
10
10
10
10
10
10
10
10
10
10
10
10
10
10
10
10
10
10
10
10
10
10

POINT_DATA 125
VECTORS displacement float
0 0 0
0 0 0
0 0 0
0 0 0
0 0 0
0 0 0
0 0 0
0 0 0
0 0 0
0 0 0
0 0 0
0 0 0
0 0 0
0 0 0
0 0 0
0 0 0
0 0 0
0 0 0
0 0 0
0 0 0
0 0 0
0 0 0
0 0 0
0 0 0
0 0 0
-0.00189105 -0.0016902 -0.00280323
-0.000415789 -0.00235044 -0.00130028
-0.0015157 -0.00214152 -1.38778e-17
-0.000415789 -0.00235044 0.00130028
-0.00189105 -0.0016902 0.00280323
-0.00250932 -0.000896366 -0.00227202
-0.00132678 -0.00117116 -0.00116179
-0.00247962 -0.00109975 0
-0.00132678 -0.00117116 0.00116179
-0.00250932 -0.000896366 0.00227202
-0.00171911 0 -0.00264489
-0.000315397 -1.38778e-17 -0.00123837
-0.00138095 -1.38778e-17 1.38778e-17
-0.000315397 0 0.00123837
-0.00171911 1.38778e-17 0.00264489
-0.00250932 0.000896366 -0.00227202
-0.00132678 0.00117116 -0.00116179
-0.00247962 0.00109975 -1.38778e-17
-0.00132678 0.00117116 0.00116179
-0.00250932 0.000896366 0.00227202
-0.00189105 0.0016902 -0.00280323
-0.000415789 0.00235044 -0.00130028
-0.0015157 0.00214152 1.38778e-17
-0.000415789 0.00235044 0.00130028
-0.00189105 0.0016902 0.00280323
-0.00500001 -0.002982 -0.00495601
-0.005 -0.00392349 -0.00220316
-0.00500004 -0.0039894 -1.38778e-17
-0.005 -0.00392349 0.00220316
-0.00500001 -0.002982 0.00495601
-0.00500004 -0.00161902 -0.00439698
-0.00500004 -0.00199865 -0.00219092
-0.00500007 -0.00207896 0
-0.00500004 -0.00199865 0.00219092
-0.00500004 -0.00161902 0.00439698
-0.00500002 1.38778e-17 -0.00472833
-0.005 0 -0.00211871
-0.00500004 0 0
-0.005 0 0.00211871
-0.00500002 0 0.00472833
-0.00500004 0.00161902 -0.00439698
-0.00500004 0.00199865 -0.00219092
-0.00500007 0.00207896 0
-0.00500004 0.00199865 0.00219092
-0.00500004 0.00161902 0.00439698
-0.00500001 0.002982 -0.00495601
-0.005 0.00392349 -0.00220316
-0.00500004 0.0039894 1.38778e-17
-0.005 0.00392349 0.00220316
-0.00500001 0.002982 0.00495601
-0.00810898 -0.00169016 -0.00280322
-0.00958423 -0.00235041 -0.00130026
-0.00848434 -0.00214148 0
-0.00958423 -0.00235041 0.00130026
-0.00810898 -0.00169016 0.00280322
-0.00749074 -0.000896348 -0.002272
-0.00867326 -0.00117115 -0.00116177
-0.00752046 -0.00109973 1.38778e-17
-0.00867326 -0.00117115 0.00116177
-0.00749074 -0.000896348 0.002272
-0.00828092 -1.38778e-17 -0.00264487
-0.0096846 0 -0.00123835
-0.00861908 0 0
-0.0096846 0 0.00123835
-0.00828092 -1.38778e-17 0.00264487
-0.00749074 0.000896348 -0.002272
-0.00867326 0.00117115 -0.00116177
-0.00752046 0.00109973 0
-0.00867326 0.00117115 0.00116177
-0.00749074 0.000896348 0.002272
-0.00810898 0.00169016 -0.00280322
-0.00958423 0.00235041 -0.00130026
-0.00848434 0.00214148 -1.38778e-17
-0.00958423 0.00235041 0.00130026
-0.00810898 0.00169016 0.00280322
-0.01 0 0
-0.01 0 0
-0.01 0 0
-0.01 0 0
-0.01 0 0
-0.01 0 0
-0.01 0 0
-0.01 0 0
-0.01 0 0
-0.01 0 0
-0.01 0 0
-0.01 0 0
-0.01 0 0
-0.01 0 0
-0.01 0 0
-0.01 0 0
-0.01 0 0
-0.01 0 0
-0.01 0 0
-0.01 0 0
-0.01 0 0
-0.01 0 0
-0.01 0 0
-0.01 0 0
-0.01 0 0

CELL_DATA 384
TENSORS stress float
-2705.78 -847.454 -441.595
-847.454 -670.252 93.7994
-441.595 93.7994 -1726.67

-7659.66 -678.044 -375.099
-678.044 -7401.73 45.0832
-375.099 45.0832 -7458.28

-7659.66 -678.044 -375.099
-678.044 -7401.73 45.0832
-375.099 45.0832 -7458.28

-5460.35 -533.877 -410.835
-533.877 -4244.77 -210.685
-410.835 -210.685 -3032.65

-2479.28 -605.226 -268.143
-605.226 130.58 -38.8008
-268.143 -38.8008 843.947

-2853.51 -720.271 -381.292
-720.271 59.4419 -30.7668
-381.292 -30.7668 13.1865

-2579.84 -506.659 -206.586
-506.659 1035.87 -19.2808
-206.586 -19.2808 1194.63

-2306.54 -543.772 -212.015
-543.772 312.499 -46.5263
-212.015 -46.5263 1030.21

-2682.38 -660.096 -328.426
-660.096 243.445 -39.2159
-328.426 -39.2159 196.406

-3865.96 -640.487 -376.11
-640.487 -295.312 -99.9475
-376.11 -99.9475 712.481

-5459.74 -501.144 -288.622
-501.144 -978.526 -157.131
-288.622 -157.131 -731.447

-5386.3 -488.879 -298.247
-488.879 -1406.08 -174.618
-298.247 -174.618 -67.8017

-3865.64 640.499 376.131
640.499 -294.965 -99.9469
376.131 -99.9469 712.859

-5460 501.12 288.628
501.12 -978.855 -157.128
288.628 -157.128 -731.779

-5386.56 488.859 298.257
488.859 -1406.4 -174.615
298.257 -174.615 -68.1404

-2579.88 506.648 206.597
506.648 1035.84 -19.2826
206.597 -19.2826 1194.6

-2306.23 543.779 212.035
543.779 312.81 -46.5244
212.035 -46.5244 1030.55

-2682.14 660.105 328.447
660.105 243.688 -39.2151
328.447 -39.2151 196.665

-5459.54 533.894 410.859
533.894 -4243.92 -210.698
410.859 -210.698 -3031.73

-2478.51 605.237 268.154
605.237 131.401 -38.8016
268.154 -38.8016 844.817

-2852.8 720.285 381.308
720.285 60.2028 -30.7687
381.308 -30.7687 13.9614

-2705.38 847.458 441.598
847.458 -669.853 93.8009
441.598 93.8009 -1726.27

-7659.26 678.055 375.105
678.055 -7401.33 45.0826
375.105 45.0826 -7457.88

-7659.26 678.055 375.105
678.055 -7401.33 45.0826
375.105 45.0826 -7457.88

-4913.96 7.00872e-15 -407.226
7.00872e-15 -3789.59 -4.5214e-12
-407.226 -4.5214e-12 -2592.43

-6713.48 -3.41761e-12 -381.209
-3.41761e-12 -6532.36 2.07756e-13
-381.209 2.07756e-13 -6509.19

-6713.48 -3.41761e-12 -381.209
-3.41761e-12 -6532.36 2.07756e-13
-381.209 2.07756e-13 -6509.19

-2874.89 -41.9954 -434.553
-41.9954 -864.173 -20.8487
-434.553 -20.8487 -1867.61

-3007.21 73.5031 -380.096
73.5031 -124.599 -149.188
-380.096 -149.188 -134.843

-2504.69 -16.8918 -299.418
-16.8918 195.095 -160.625
-299.418 -160.625 738.192

-4010.7 104.55 -377.555
104.55 -476.177 -221.372
-377.555 -221.372 557.72

-2830.82 140.313 -328.189
140.313 65.15 -155.913
-328.189 -155.913 48.4193

-2328.18 49.9983 -244.374
49.9983 381.95 -167.471
-244.374 -167.471 923.659

-3173.05 1.54781 -201.238
1.54781 691.327 -166.003
-201.238 -166.003 524.3

-5709.41 2.46529 -286.525
2.46529 -1554.32 -160.467
-286.525 -160.467 -571.616

-6241.11 2.32002 -270.252
2.32002 -1891.08 -146.453
-270.252 -146.453 -1682.5

-3172.96 -1.52577 201.257
-1.52577 691.43 -166.004
201.257 -166.004 524.406

-5709.45 -2.44671 286.543
-2.44671 -1554.38 -160.466
286.543 -160.466 -571.675

-6241.16 -2.29503 270.262
-2.29503 -1891.14 -146.452
270.262 -146.452 -1682.56

-4010.38 -104.533 377.575
-104.533 -475.827 -221.374
377.575 -221.374 558.1

-2830.57 -140.293 328.209
-140.293 65.3957 -155.915
328.209 -155.915 48.68

-2327.93 -49.9808 244.398
-49.9808 382.203 -167.473
244.398 -167.473 923.938

-2874.49 42.0051 434.556
42.0051 -863.77 -20.8494
434.556 -20.8494 -1867.22

-3006.5 -73.4977 380.112
-73.4977 -123.834 -149.194
380.112 -149.194 -134.066

-2503.96 16.8972 299.435
16.8972 195.861 -160.632
299.435 -160.632 738.993

-4913.36 3.65749e-12 407.245
3.65749e-12 -3788.97 4.86044e-12
407.245 4.86044e-12 -2591.77

-6713.45 0 381.204
0 -6532.33 0
381.204 0 -6509.16

-6713.45 0 381.204
0 -6532.33 0
381.204 0 -6509.16

-2874.89 41.9954 -434.553
41.9954 -864.173 20.8487
-434.553 20.8487 -1867.61

-6713.48 -3.41761e-12 -381.209
-3.41761e-12 -6532.36 2.07756e-13
-381.209 2.07756e-13 -6509.19

-6713.48 -3.41761e-12 -381.209
-3.41761e-12 -6532.36 2.07756e-13
-381.209 2.07756e-13 -6509.19

-4913.96 7.00872e-15 -407.226
7.00872e-15 -3789.59 -4.5214e-12
-407.226 -4.5214e-12 -2592.43

-2504.69 16.8918 -299.418
16.8918 195.095 160.625
-299.418 160.625 738.192

-3007.21 -73.5031 -380.096
-73.5031 -124.599 149.188
-380.096 149.188 -134.843

-3173.05 -1.54781 -201.238
-1.54781 691.327 166.003
-201.238 166.003 524.3

-2328.18 -49.9983 -244.374
-49.9983 381.95 167.471
-244.374 167.471 923.659

-2830.82 -140.313 -328.189
-140.313 65.15 155.913
-328.189 155.913 48.4193

-4010.7 -104.55 -377.555
-104.55 -476.177 221.372
-377.555 221.372 557.72

-6241.11 -2.32002 -270.252
-2.32002 -1891.08 146.453
-270.252 146.453 -1682.5

-5709.41 -2.46529 -286.525
-2.46529 -1554.32 160.467
-286.525 160.467 -571.616

-4010.38 104.533 377.575
104.533 -475.827 221.374
377.575 221.374 558.1

-6241.16 2.29503 270.262
2.29503 -1891.14 146.452
270.262 146.452 -1682.56

-5709.45 2.44671 286.543
2.44671 -1554.38 160.466
286.543 160.466 -571.675

-3172.96 1.52577 201.257
1.52577 691.43 166.004
201.257 166.004 524.406

-2327.93 49.9808 244.398
49.9808 382.203 167.473
244.398 167.473 923.938

-2830.57 140.293 328.209
140.293 65.3957 155.915
328.209 155.915 48.68

-4913.36 3.65749e-12 407.245
3.65749e-12 -3788.97 4.86044e-12
407.245 4.86044e-12 -2591.77

-2503.96 -16.8972 299.435
-16.8972 195.861 160.632
299.435 160.632 738.993

-3006.5 73.4977 380.112
73.4977 -123.834 149.194
380.112 149.194 -134.066

-2874.49 -42.0051 434.556
-42.0051 -863.77 20.8494
434.556 20.8494 -1867.22

-6713.45 0 381.204
0 -6532.33 0
381.204 0 -6509.16

-6713.45 0 381.204
0 -6532.33 0
381.204 0 -6509.16

-5460.35 533.877 -410.835
533.877 -4244.77 210.685
-410.835 210.685 -3032.65

-7659.66 678.044 -375.099
678.044 -7401.73 -45.0832
-375.099 -45.0832 -7458.28

-7659.66 678.044 -375.099
678.044 -7401.73 -45.0832
-375.099 -45.0832 -7458.28

-2705.78 847.454 -441.595
847.454 -670.252 -93.7994
-441.595 -93.7994 -1726.67

-2853.51 720.271 -381.292
720.271 59.4419 30.7668
-381.292 30.7668 13.1865

-2479.28 605.226 -268.143
605.226 130.58 38.8008
-268.143 38.8008 843.947

-3865.96 640.487 -376.11
640.487 -295.312 99.9475
-376.11 99.9475 712.481

-2682.38 660.096 -328.426
660.096 243.445 39.2159
-328.426 39.2159 196.406

-2306.54 543.772 -212.015
543.772 312.499 46.5263
-212.015 46.5263 1030.21

-2579.84 506.659 -206.586
506.659 1035.87 19.2808
-206.586 19.2808 1194.63

-5386.3 488.879 -298.247
488.879 -1406.08 174.618
-298.247 174.618 -67.8017

-5459.74 501.144 -288.622
501.144 -978.526 157.131
-288.622 157.131 -731.447

-2579.88 -506.648 206.597
-506.648 1035.84 19.2826
206.597 19.2826 1194.6

-5386.56 -488.859 298.257
-488.859 -1406.4 174.615
298.257 174.615 -68.1404

-5460 -501.12 288.628
-501.12 -978.855 157.128
288.628 157.128 -731.779

-3865.64 -640.499 376.131
-640.499 -294.965 99.9469
376.131 99.9469 712.859

-2682.14 -660.105 328.447
-660.105 243.688 39.2151
328.447 39.2151 196.665

-2306.23 -543.779 212.035
-543.779 312.81 46.5244
212.035 46.5244 1030.55

-2705.38 -847.458 441.598
-847.458 -669.853 -93.8009
441.598 -93.8009 -1726.27

-2852.8 -720.285 381.308
-720.285 60.2028 30.7687
381.308 30.7687 13.9614

-2478.51 -605.237 268.154
-605.237 131.401 38.8016
268.154 38.8016 844.817

-5459.54 -533.894 410.859
-533.894 -4243.92 210.698
410.859 210.698 -3031.73

-7659.26 -678.055 375.105
-678.055 -7401.33 -45.0826
375.105 -45.0826 -7457.88

-7659.26 -678.055 375.105
-678.055 -7401.33 -45.0826
375.105 -45.0826 -7457.88

-3594.68 -769.212 -445.447
-769.212 -2480.06 110.6
-445.447 110.6 -1443.83

-7659.66 -678.044 -375.099
-678.044 -7401.73 45.0832
-375.099 45.0832 -7458.28

-7659.66 -678.044 -375.099
-678.044 -7401.73 45.0832
-375.099 45.0832 -7458.28

-2705.78 -847.454 -441.595
-847.454 -670.252 93.7994
-441.595 93.7994 -1726.67

-2192.17 -827.833 -496.226
-827.833 800.46 124.105
-496.226 124.105 749.316

-2165.18 -846.553 -477.487
-846.553 698.528 123.61
-477.487 123.61 915.654

-4190.84 -630.505 -373.518
-630.505 -692.163 50.0854
-373.518 50.0854 285.551

-3039.09 -745.37 -474.275
-745.37 -150.302 119.108
-474.275 119.108 -194.136

-3012.24 -763.301 -456.523
-763.301 -247.359 118.675
-456.523 118.675 -32.7836

-3544.65 -691.096 -440.935
-691.096 706.773 120.955
-440.935 120.955 49.668

-5814.2 -491 -285.727
-491 -1456.37 -8.17554
-285.727 -8.17554 -1201.76

-5773.9 -492.734 -286.293
-492.734 -1390.18 -9.28771
-286.293 -9.28771 -1160.76

-3544.41 691.09 440.931
691.09 707.042 120.956
440.931 120.956 49.9144

-5814.47 490.977 285.702
490.977 -1456.7 -8.17587
285.702 -8.17587 -1202.1

-5774.17 492.711 286.267
492.711 -1390.51 -9.28803
286.267 -9.28803 -1161.1

-4190.53 630.516 373.503
630.516 -691.815 50.0866
373.503 50.0866 285.928

-3038.49 745.394 474.275
745.394 -149.671 119.111
474.275 119.111 -193.51

-3011.62 763.321 456.528
763.321 -246.712 118.679
456.528 118.679 -32.1297

-2705.38 847.458 441.598
847.458 -669.853 93.8009
441.598 93.8009 -1726.27

-2191.48 827.85 496.228
827.85 801.186 124.109
496.228 124.109 750.039

-2164.47 846.566 477.493
846.566 699.27 123.613
477.493 123.613 916.405

-3594.15 769.224 445.449
769.224 -2479.53 110.602
445.449 110.602 -1443.29

-7659.26 678.055 375.105
678.055 -7401.33 45.0826
375.105 45.0826 -7457.88

-7659.26 678.055 375.105
678.055 -7401.33 45.0826
375.105 45.0826 -7457.88

-2874.89 -41.9954 -434.553
-41.9954 -864.173 -20.8487
-434.553 -20.8487 -1867.61

-6713.48 -3.41761e-12 -381.209
-3.41761e-12 -6532.36 2.07756e-13
-381.209 2.07756e-13 -6509.19

-6713.48 -3.41761e-12 -381.209
-3.41761e-12 -6532.36 2.07756e-13
-381.209 2.07756e-13 -6509.19

-3120.25 -4.08432e-12 -437.46
-4.08432e-12 -2108.96 1.04803e-13
-437.46 1.04803e-13 -1033.62

-2251.92 32.1936 -455.399
32.1936 656.139 -0.754012
-455.399 -0.754012 791.184

-2352.46 -4.81899 -488.367
-4.81899 607.897 -2.40613
-488.367 -2.40613 599.609

-4571.2 0.0121984 -396.779
0.0121984 -338.883 -0.000314535
-396.779 -0.000314535 -1133.4

-3094.29 76.4893 -435.385
76.4893 -286.782 -1.87624
-435.385 -1.87624 -154.265

-3195.03 41.0155 -466.714
41.0155 -338.017 -3.52591
-466.714 -3.52591 -343.319

-4335.42 99.8797 -369.462
99.8797 -873.97 -70.6612
-369.462 -70.6612 129.81

-6554.41 0.0750537 -264.07
0.0750537 -2303.89 -3.91413
-264.07 -3.91413 -2111.69

-6405.75 0.0106966 -265.816
0.0106966 -2034.08 -0.000231265
-265.816 -0.000231265 -1983.93

-4335.1 -99.8628 369.448
-99.8628 -873.619 -70.6614
369.448 -70.6614 130.189

-6554.45 -0.0504528 264.051
-0.0504528 -2303.95 -3.91358
264.051 -3.91358 -2111.75

-6405.8 0.0106965 265.792
0.0106965 -2034.14 0.000231246
265.792 0.000231246 -1983.99

-4570.73 0.0121988 396.779
0.0121988 -338.323 0.000314525
396.779 0.000314525 -1132.87

-3093.7 -76.4686 435.385
-76.4686 -286.166 -1.87561
435.385 -1.87561 -153.649

-3194.43 -40.996 466.714
-40.996 -337.384 -3.5251
466.714 -3.5251 -342.691

-3119.98 0 437.453
0 -2108.69 0
437.453 0 -1033.35

-2251.24 -32.1832 455.402
-32.1832 656.851 -0.753719
455.402 -0.753719 791.897

-2351.77 4.82833 488.369
4.82833 608.626 -2.40568
488.369 -2.40568 600.334

-2874.49 42.0051 434.556
42.0051 -863.77 -20.8494
434.556 -20.8494 -1867.22

-6713.45 0 381.204
0 -6532.33 0
381.204 0 -6509.16

-6713.45 0 381.204
0 -6532.33 0
381.204 0 -6509.16

-3120.25 -4.08432e-12 -437.46
-4.08432e-12 -2108.96 1.04803e-13
-437.46 1.04803e-13 -1033.62

-6713.48 -3.41761e-12 -381.209
-3.41761e-12 -6532.36 2.07756e-13
-381.209 2.07756e-13 -6509.19

-6713.48 -3.41761e-12 -381.209
-3.41761e-12 -6532.36 2.07756e-13
-381.209 2.07756e-13 -6509.19

-2874.89 41.9954 -434.553
41.9954 -864.173 20.8487
-434.553 20.8487 -1867.61

-2352.46 4.81899 -488.367
4.81899 607.897 2.40613
-488.367 2.40613 599.609

-2251.92 -32.1936 -455.399
-32.1936 656.139 0.754012
-455.399 0.754012 791.184

-4335.42 -99.8797 -369.462
-99.8797 -873.97 70.6612
-369.462 70.6612 129.81

-3195.03 -41.0155 -466.714
-41.0155 -338.017 3.52591
-466.714 3.52591 -343.319

-3094.29 -76.4893 -435.385
-76.4893 -286.782 1.87624
-435.385 1.87624 -154.265

-4571.2 -0.0121984 -396.779
-0.0121984 -338.883 0.000314535
-396.779 0.000314535 -1133.4

-6405.75 -0.0106966 -265.816
-0.0106966 -2034.08 0.000231265
-265.816 0.000231265 -1983.93

-6554.41 -0.0750537 -264.07
-0.0750537 -2303.89 3.91413
-264.07 3.91413 -2111.69

-4570.73 -0.0121988 396.779
-0.0121988 -338.323 -0.000314525
396.779 -0.000314525 -1132.87

-6405.8 -0.0106965 265.792
-0.0106965 -2034.14 -0.000231246
265.792 -0.000231246 -1983.99

-6554.45 0.0504528 264.051
0.0504528 -2303.95 3.91358
264.051 3.91358 -2111.75

-4335.1 99.8628 369.448
99.8628 -873.619 70.6614
369.448 70.6614 130.189

-3194.43 40.996 466.714
40.996 -337.384 3.5251
466.714 3.5251 -342.691

-3093.7 76.4686 435.385
76.4686 -286.166 1.87561
435.385 1.87561 -153.649

-2874.49 -42.0051 434.556
-42.0051 -863.77 20.8494
434.556 20.8494 -1867.22

-2351.77 -4.82833 488.369
-4.82833 608.626 2.40568
488.369 2.40568 600.334

-2251.24 32.1832 455.402
32.1832 656.851 0.753719
455.402 0.753719 791.897

-3119.98 0 437.453
0 -2108.69 0
437.453 0 -1033.35

-6713.45 0 381.204
0 -6532.33 0
381.204 0 -6509.16

-6713.45 0 381.204
0 -6532.33 0
381.204 0 -6509.16

-2705.78 847.454 -441.595
847.454 -670.252 -93.7994
-441.595 -93.7994 -1726.67

-7659.66 678.044 -375.099
678.044 -7401.73 -45.0832
-375.099 -45.0832 -7458.28

-7659.66 678.044 -375.099
678.044 -7401.73 -45.0832
-375.099 -45.0832 -7458.28

-3594.68 769.212 -445.447
769.212 -2480.06 -110.6
-445.447 -110.6 -1443.83

-2165.18 846.553 -477.487
846.553 698.528 -123.61
-477.487 -123.61 915.654

-2192.17 827.833 -496.226
827.833 800.46 -124.105
-496.226 -124.105 749.316

-3544.65 691.096 -440.935
691.096 706.773 -120.955
-440.935 -120.955 49.668

-3012.24 763.301 -456.523
763.301 -247.359 -118.675
-456.523 -118.675 -32.7836

-3039.09 745.37 -474.275
745.37 -150.302 -119.108
-474.275 -119.108 -194.136

-4190.84 630.505 -373.518
630.505 -692.163 -50.0854
-373.518 -50.0854 285.551

-5773.9 492.734 -286.293
492.734 -1390.18 9.28771
-286.293 9.28771 -1160.76

-5814.2 491 -285.727
491 -1456.37 8.17554
-285.727 8.17554 -1201.76

-4190.53 -630.516 373.503
-630.516 -691.815 -50.0866
373.503 -50.0866 285.928

-5774.17 -492.711 286.267
-492.711 -1390.51 9.28803
286.267 9.28803 -1161.1

-5814.47 -490.977 285.702
-490.977 -1456.7 8.17587
285.702 8.17587 -1202.1

-3544.41 -691.09 440.931
-691.09 707.042 -120.956
440.931 -120.956 49.9144

-3011.62 -763.321 456.528
-763.321 -246.712 -118.679
456.528 -118.679 -32.1297

-3038.49 -745.394 474.275
-745.394 -149.671 -119.111
474.275 -119.111 -193.51

-3594.15 -769.224 445.449
-769.224 -2479.53 -110.602
445.449 -110.602 -1443.29

-2164.47 -846.566 477.493
-846.566 699.27 -123.613
477.493 -123.613 916.405

-2191.48 -827.85 496.228
-827.85 801.186 -124.109
496.228 -124.109 750.039

-2705.38 -847.458 441.598
-847.458 -669.853 -93.8009
441.598 -93.8009 -1726.27

-7659.26 -678.055 375.105
-678.055 -7401.33 -45.0826
375.105 -45.0826 -7457.88

-7659.26 -678.055 375.105
-678.055 -7401.33 -45.0826
375.105 -45.0826 -7457.88

-2705.78 -847.454 441.595
-847.454 -670.252 -93.7994
441.595 -93.7994 -1726.67

-7659.66 -678.044 375.099
-678.044 -7401.73 -45.0832
375.099 -45.0832 -7458.28

-7659.66 -678.044 375.099
-678.044 -7401.73 -45.0832
375.099 -45.0832 -7458.28

-3594.68 -769.212 445.447
-769.212 -2480.06 -110.6
445.447 -110.6 -1443.83

-2165.18 -846.553 477.487
-846.553 698.528 -123.61
477.487 -123.61 915.654

-2192.17 -827.833 496.226
-827.833 800.46 -124.105
496.226 -124.105 749.316

-3544.65 -691.096 440.935
-691.096 706.773 -120.955
440.935 -120.955 49.668

-3012.24 -763.301 456.523
-763.301 -247.359 -118.675
456.523 -118.675 -32.7836

-3039.09 -745.37 474.275
-745.37 -150.302 -119.108
474.275 -119.108 -194.136

-4190.84 -630.505 373.518
-630.505 -692.163 -50.0854
373.518 -50.0854 285.551

-5773.9 -492.734 286.293
-492.734 -1390.18 9.28771
286.293 9.28771 -1160.76

-5814.2 -491 285.727
-491 -1456.37 8.17554
285.727 8.17554 -1201.76

-4190.53 630.516 -373.503
630.516 -691.815 -50.0866
-373.503 -50.0866 285.928

-5774.17 492.711 -286.267
492.711 -1390.51 9.28803
-286.267 9.28803 -1161.1

-5814.47 490.977 -285.702
490.977 -1456.7 8.17587
-285.702 8.17587 -1202.1

-3544.41 691.09 -440.931
691.09 707.042 -120.956
-440.931 -120.956 49.9144

-3011.62 763.321 -456.528
763.321 -246.712 -118.679
-456.528 -118.679 -32.1297

-3038.49 745.394 -474.275
745.394 -149.671 -119.111
-474.275 -119.111 -193.51

-3594.15 769.224 -445.449
769.224 -2479.53 -110.602
-445.449 -110.602 -1443.29

-2164.47 846.566 -477.493
846.566 699.27 -123.613
-477.493 -123.613 916.405

-2191.48 827.85 -496.228
827.85 801.186 -124.109
-496.228 -124.109 750.039

-2705.38 847.458 -441.598
847.458 -669.853 -93.8009
-441.598 -93.8009 -1726.27

-7659.26 678.055 -375.105
678.055 -7401.33 -45.0826
-375.105 -45.0826 -7457.88

-7659.26 678.055 -375.105
678.055 -7401.33 -45.0826
-375.105 -45.0826 -7457.88

-3120.25 -3.68439e-12 437.46
-3.68439e-12 -2108.96 9.56217e-12
437.46 9.56217e-12 -1033.62

-6713.48 0 381.209
0 -6532.36 0
381.209 0 -6509.19

-6713.48 0 381.209
0 -6532.36 0
381.209 0 -6509.19

-2874.89 -41.9954 434.553
-41.9954 -864.173 20.8487
434.553 20.8487 -1867.61

-2352.46 -4.81899 488.367
-4.81899 607.897 2.40613
488.367 2.40613 599.609

-2251.92 32.1936 455.399
32.1936 656.139 0.754012
455.399 0.754012 791.184

-4335.42 99.8797 369.462
99.8797 -873.97 70.6612
369.462 70.6612 129.81

-3195.03 41.0155 466.714
41.0155 -338.017 3.52591
466.714 3.52591 -343.319

-3094.29 76.4893 435.385
76.4893 -286.782 1.87624
435.385 1.87624 -154.265

-4571.2 0.0121984 396.779
0.0121984 -338.883 0.000314535
396.779 0.000314535 -1133.4

-6405.75 0.0106966 265.816
0.0106966 -2034.08 0.000231265
265.816 0.000231265 -1983.93

-6554.41 0.0750537 264.07
0.0750537 -2303.89 3.91413
264.07 3.91413 -2111.69

-4570.73 0.0121988 -396.779
0.0121988 -338.323 -0.000314525
-396.779 -0.000314525 -1132.87

-6405.8 0.0106965 -265.792
0.0106965 -2034.14 -0.000231246
-265.792 -0.000231246 -1983.99

-6554.45 -0.0504528 -264.051
-0.0504528 -2303.95 3.91358
-264.051 3.91358 -2111.75

-4335.1 -99.8628 -369.448
-99.8628 -873.619 70.6614
-369.448 70.6614 130.189

-3194.43 -40.996 -466.714
-40.996 -337.384 3.5251
-466.714 3.5251 -342.691

-3093.7 -76.4686 -435.385
-76.4686 -286.166 1.87561
-435.385 1.87561 -153.649

-2874.49 42.0051 -434.556
42.0051 -863.77 20.8494
-434.556 20.8494 -1867.22

-2351.77 4.82833 -488.369
4.82833 608.626 2.40568
-488.369 2.40568 600.334

-2251.24 -32.1832 -455.402
-32.1832 656.851 0.753719
-455.402 0.753719 791.897

-3119.98 0 -437.453
0 -2108.69 0
-437.453 0 -1033.35

-6713.45 0 -381.204
0 -6532.33 0
-381.204 0 -6509.16

-6713.45 0 -381.204
0 -6532.33 0
-381.204 0 -6509.16

-2874.89 41.9954 434.553
41.9954 -864.173 -20.8487
434.553 -20.8487 -1867.61

-6713.48 0 381.209
0 -6532.36 0
381.209 0 -6509.19

-6713.48 0 381.209
0 -6532.36 0
381.209 0 -6509.19

-3120.25 -3.68439e-12 437.46
-3.68439e-12 -2108.96 9.56217e-12
437.46 9.56217e-12 -1033.62

-2251.92 -32.1936 455.399
-32.1936 656.139 -0.754012
455.399 -0.754012 791.184

-2352.46 4.81899 488.367
4.81899 607.897 -2.40613
488.367 -2.40613 599.609

-4571.2 -0.0121984 396.779
-0.0121984 -338.883 -0.000314535
396.779 -0.000314535 -1133.4

-3094.29 -76.4893 435.385
-76.4893 -286.782 -1.87624
435.385 -1.87624 -154.265

-3195.03 -41.0155 466.714
-41.0155 -338.017 -3.52591
466.714 -3.52591 -343.319

-4335.42 -99.8797 369.462
-99.8797 -873.97 -70.6612
369.462 -70.6612 129.81

-6554.41 -0.0750537 264.07
-0.0750537 -2303.89 -3.91413
264.07 -3.91413 -2111.69

-6405.75 -0.0106966 265.816
-0.0106966 -2034.08 -0.000231265
265.816 -0.000231265 -1983.93

-4335.1 99.8628 -369.448
99.8628 -873.619 -70.6614
-369.448 -70.6614 130.189

-6554.45 0.0504528 -264.051
0.0504528 -2303.95 -3.91358
-264.051 -3.91358 -2111.75

-6405.8 -0.0106965 -265.792
-0.0106965 -2034.14 0.000231246
-265.792 0.000231246 -1983.99

-4570.73 -0.0121988 -396.779
-0.0121988 -338.323 0.000314525
-396.779 0.000314525 -1132.87

-3093.7 76.4686 -435.385
76.4686 -286.166 -1.87561
-435.385 -1.87561 -153.649

-3194.43 40.996 -466.714
40.996 -337.384 -3.5251
-466.714 -3.5251 -342.691

-3119.98 0 -437.453
0 -2108.69 0
-437.453 0 -1033.35

-2251.24 32.1832 -455.402
32.1832 656.851 -0.753719
-455.402 -0.753719 791.897

-2351.77 -4.82833 -488.369
-4.82833 608.626 -2.40568
-488.369 -2.40568 600.334

-2874.49 -42.0051 -434.556
-42.0051 -863.77 -20.8494
-434.556 -20.8494 -1867.22

-6713.45 0 -381.204
0 -6532.33 0
-381.204 0 -6509.16

-6713.45 0 -381.204
0 -6532.33 0
-381.204 0 -6509.16

-3594.68 769.212 445.447
769.212 -2480.06 110.6
445.447 110.6 -1443.83

-7659.66 678.044 375.099
678.044 -7401.73 45.0832
375.099 45.0832 -7458.28

-7659.66 678.044 375.099
678.044 -7401.73 45.0832
375.099 45.0832 -7458.28

-2705.78 847.454 441.595
847.454 -670.252 93.7994
441.595 93.7994 -1726.67

-2192.17 827.833 496.226
827.833 800.46 124.105
496.226 124.105 749.316

-2165.18 846.553 477.487
846.553 698.528 123.61
477.487 123.61 915.654

-4190.84 630.505 373.518
630.505 -692.163 50.0854
373.518 50.0854 285.551

-3039.09 745.37 474.275
745.37 -150.302 119.108
474.275 119.108 -194.136

-3012.24 763.301 456.523
763.301 -247.359 118.675
456.523 118.675 -32.7836

-3544.65 691.096 440.935
691.096 706.773 120.955
440.935 120.955 49.668

-5814.2 491 285.727
491 -1456.37 -8.17554
285.727 -8.17554 -1201.76

-5773.9 492.734 286.293
492.734 -1390.18 -9.28771
286.293 -9.28771 -1160.76

-3544.41 -691.09 -440.931
-691.09 707.042 120.956
-440.931 120.956 49.9144

-5814.47 -490.977 -285.702
-490.977 -1456.7 -8.17587
-285.702 -8.17587 -1202.1

-5774.17 -492.711 -286.267
-492.711 -1390.51 -9.28803
-286.267 -9.28803 -1161.1

-4190.53 -630.516 -373.503
-630.516 -691.815 50.0866
-373.503 50.0866 285.928

-3038.49 -745.394 -474.275
-745.394 -149.671 119.111
-474.275 119.111 -193.51

-3011.62 -763.321 -456.528
-763.321 -246.712 118.679
-456.528 118.679 -32.1297

-2705.38 -847.458 -441.598
-847.458 -669.853 93.8009
-441.598 93.8009 -1726.27

-2191.48 -827.85 -496.228
-827.85 801.186 124.109
-496.228 124.109 750.039

-2164.47 -846.566 -477.493
-846.566 699.27 123.613
-477.493 123.613 916.405

-3594.15 -769.224 -445.449
-769.224 -2479.53 110.602
-445.449 110.602 -1443.29

-7659.26 -678.055 -375.105
-678.055 -7401.33 45.0826
-375.105 45.0826 -7457.88

-7659.26 -678.055 -375.105
-678.055 -7401.33 45.0826
-375.105 45.0826 -7457.88

-5460.35 -533.877 410.835
-533.877 -4244.77 210.685
410.835 210.685 -3032.65

-7659.66 -678.044 375.099
-678.044 -7401.73 -45.0832
375.099 -45.0832 -7458.28

-7659.66 -678.044 375.099
-678.044 -7401.73 -45.0832
375.099 -45.0832 -7458.28

-2705.78 -847.454 441.595
-847.454 -670.252 -93.7994
441.595 -93.7994 -1726.67

-2853.51 -720.271 381.292
-720.271 59.4419 30.7668
381.292 30.7668 13.1865

-2479.28 -605.226 268.143
-605.226 130.58 38.8008
268.143 38.8008 843.947

-3865.96 -640.487 376.11
-640.487 -295.312 99.9475
376.11 99.9475 712.481

-2682.38 -660.096 328.426
-660.096 243.445 39.2159
328.426 39.2159 196.406

-2306.54 -543.772 212.015
-543.772 312.499 46.5263
212.015 46.5263 1030.21

-2579.84 -506.659 206.586
-506.659 1035.87 19.2808
206.586 19.2808 1194.63

-5386.3 -488.879 298.247
-488.879 -1406.08 174.618
298.247 174.618 -67.8017

-5459.74 -501.144 288.622
-501.144 -978.526 157.131
288.622 157.131 -731.447

-2579.88 506.648 -206.597
506.648 1035.84 19.2826
-206.597 19.2826 1194.6

-5386.56 488.859 -298.257
488.859 -1406.4 174.615
-298.257 174.615 -68.1404

-5460 501.12 -288.628
501.12 -978.855 157.128
-288.628 157.128 -731.779

-3865.64 640.499 -376.131
640.499 -294.965 99.9469
-376.131 99.9469 712.859

-2682.14 660.105 -328.447
660.105 243.688 39.2151
-328.447 39.2151 196.665

-2306.23 543.779 -212.035
543.779 312.81 46.5244
-212.035 46.5244 1030.55

-2705.38 847.458 -441.598
847.458 -669.853 -93.8009
-441.598 -93.8009 -1726.27

-2852.8 720.285 -381.308
720.285 60.2028 30.7687
-381.308 30.7687 13.9614

-2478.51 605.237 -268.154
605.237 131.401 38.8016
-268.154 38.8016 844.817

-5459.54 533.894 -410.859
533.894 -4243.92 210.698
-410.859 210.698 -3031.73

-7659.26 678.055 -375.105
678.055 -7401.33 -45.0826
-375.105 -45.0826 -7457.88

-7659.26 678.055 -375.105
678.055 -7401.33 -45.0826
-375.105 -45.0826 -7457.88

-2874.89 -41.9954 434.553
-41.9954 -864.173 20.8487
434.553 20.8487 -1867.61

-6713.48 0 381.209
0 -6532.36 0
381.209 0 -6509.19

-6713.48 0 381.209
0 -6532.36 0
381.209 0 -6509.19

-4913.96 7.30769e-12 407.226
7.30769e-12 -3789.59 5.19918e-12
407.226 5.19918e-12 -2592.43

-2504.69 -16.8918 299.418
-16.8918 195.095 160.625
299.418 160.625 738.192

-3007.21 73.5031 380.096
73.5031 -124.599 149.188
380.096 149.188 -134.843

-3173.05 1.54781 201.238
1.54781 691.327 166.003
201.238 166.003 524.3

-2328.18 49.9983 244.374
49.9983 381.95 167.471
244.374 167.471 923.659

-2830.82 140.313 328.189
140.313 65.15 155.913
328.189 155.913 48.4193

-4010.7 104.55 377.555
104.55 -476.177 221.372
377.555 221.372 557.72

-6241.11 2.32002 270.252
2.32002 -1891.08 146.453
270.252 146.453 -1682.5

-5709.41 2.46529 286.525
2.46529 -1554.32 160.467
286.525 160.467 -571.616

-4010.38 -104.533 -377.575
-104.533 -475.827 221.374
-377.575 221.374 558.1

-6241.16 -2.29503 -270.262
-2.29503 -1891.14 146.452
-270.262 146.452 -1682.56

-5709.45 -2.44671 -286.543
-2.44671 -1554.38 160.466
-286.543 160.466 -571.675

-3172.96 -1.52577 -201.257
-1.52577 691.43 166.004
-201.257 166.004 524.406

-2327.93 -49.9808 -244.398
-49.9808 382.203 167.473
-244.398 167.473 923.938

-2830.57 -140.293 -328.209
-140.293 65.3957 155.915
-328.209 155.915 48.68

-4913.36 3.65749e-12 -407.245
3.65749e-12 -3788.97 -4.86044e-12
-407.245 -4.86044e-12 -2591.77

-2503.96 16.8972 -299.435
16.8972 195.861 160.632
-299.435 160.632 738.993

-3006.5 -73.4977 -380.112
-73.4977 -123.834 149.194
-380.112 149.194 -134.066

-2874.49 42.0051 -434.556
42.0051 -863.77 20.8494
-434.556 20.8494 -1867.22

-6713.45 0 -381.204
0 -6532.33 0
-381.204 0 -6509.16

-6713.45 0 -381.204
0 -6532.33 0
-381.204 0 -6509.16

-4913.96 7.3147e-12 407.226
7.3147e-12 -3789.59 9.72058e-12
407.226 9.72058e-12 -2592.43

-6713.48 0 381.209
0 -6532.36 0
381.209 0 -6509.19

-6713.48 0 381.209
0 -6532.36 0
381.209 0 -6509.19

-2874.89 41.9954 434.553
41.9954 -864.173 -20.8487
434.553 -20.8487 -1867.61

-3007.21 -73.5031 380.096
-73.5031 -124.599 -149.188
380.096 -149.188 -134.843

-2504.69 16.8918 299.418
16.8918 195.095 -160.625
299.418 -160.625 738.192

-4010.7 -104.55 377.555
-104.55 -476.177 -221.372
377.555 -221.372 557.72

-2830.82 -140.313 328.189
-140.313 65.15 -155.913
328.189 -155.913 48.4193

-2328.18 -49.9983 244.374
-49.9983 381.95 -167.471
244.374 -167.471 923.659

-3173.05 -1.54781 201.238
-1.54781 691.327 -166.003
201.238 -166.003 524.3

-5709.41 -2.46529 286.525
-2.46529 -1554.32 -160.467
286.525 -160.467 -571.616

-6241.11 -2.32002 270.252
-2.32002 -1891.08 -146.453
270.252 -146.453 -1682.5

-3172.96 1.52577 -201.257
1.52577 691.43 -166.004
-201.257 -166.004 524.406

-5709.45 2.44671 -286.543
2.44671 -1554.38 -160.466
-286.543 -160.466 -571.675

-6241.16 2.29503 -270.262
2.29503 -1891.14 -146.452
-270.262 -146.452 -1682.56

-4010.38 104.533 -377.575
104.533 -475.827 -221.374
-377.575 -221.374 558.1

-2830.57 140.293 -328.209
140.293 65.3957 -155.915
-328.209 -155.915 48.68

-2327.93 49.9808 -244.398
49.9808 382.203 -167.473
-244.398 -167.473 923.938

-2874.49 -42.0051 -434.556
-42.0051 -863.77 -20.8494
-434.556 -20.8494 -1867.22

-3006.5 73.4977 -380.112
73.4977 -123.834 -149.194
-380.112 -149.194 -134.066

-2503.96 -16.8972 -299.435
-16.8972 195.861 -160.632
-299.435 -160.632 738.993

-4913.36 3.65749e-12 -407.245
3.65749e-12 -3788.97 -4.86044e-12
-407.245 -4.86044e-12 -2591.77

-6713.45 0 -381.204
0 -6532.33 0
-381.204 0 -6509.16

-6713.45 0 -381.204
0 -6532.33 0
-381.204 0 -6509.16

-2705.78 847.454 441.595
847.454 -670.252 93.7994
441.595 93.7994 -1726.67

-7659.66 678.044 375.099
678.044 -7401.73 45.0832
375.099 45.0832 -7458.28

-7659.66 678.044 375.099
678.044 -7401.73 45.0832
375.099 45.0832 -7458.28

-5460.35 533.877 410.835
533.877 -4244.77 -210.685
410.835 -210.685 -3032.65

-2479.28 605.226 268.143
605.226 130.58 -38.8008
268.143 -38.8008 843.947

-2853.51 720.271 381.292
720.271 59.4419 -30.7668
381.292 -30.7668 13.1865

-2579.84 506.659 206.586
506.659 1035.87 -19.2808
206.586 -19.2808 1194.63

-2306.54 543.772 212.015
543.772 312.499 -46.5263
212.015 -46.5263 1030.21

-2682.38 660.096 328.426
660.096 243.445 -39.2159
328.426 -39.2159 196.406

-3865.96 640.487 376.11
640.487 -295.312 -99.9475
376.11 -99.9475 712.481

-5459.74 501.144 288.622
501.144 -978.526 -157.131
288.622 -157.131 -731.447

-5386.3 488.879 298.247
488.879 -1406.08 -174.618
298.247 -174.618 -67.8017

-3865.64 -640.499 -376.131
-640.499 -294.965 -99.9469
-376.131 -99.9469 712.859

-5460 -501.12 -288.628
-501.12 -978.855 -157.128
-288.628 -157.128 -731.779

-5386.56 -488.859 -298.257
-488.859 -1406.4 -174.615
-298.257 -174.615 -68.1404

-2579.88 -506.648 -206.597
-506.648 1035.84 -19.2826
-206.597 -19.2826 1194.6

-2306.23 -543.779 -212.035
-543.779 312.81 -46.5244
-212.035 -46.5244 1030.55

-2682.14 -660.105 -328.447
-660.105 243.688 -39.2151
-328.447 -39.2151 196.665

-5459.54 -533.894 -410.859
-533.894 -4243.92 -210.698
-410.859 -210.698 -3031.73

-2478.51 -605.237 -268.154
-605.237 131.401 -38.8016
-268.154 -38.8016 844.817

-2852.8 -720.285 -381.308
-720.285 60.2028 -30.7687
-381.308 -30.7687 13.9614

-2705.38 -847.458 -441.598
-847.458 -669.853 93.8009
-441.598 93.8009 -1726.27

-7659.26 -678.055 -375.105
-678.055 -7401.33 45.0826
-375.105 45.0826 -7457.88

-7659.26 -678.055 -375.105
-678.055 -7401.33 45.0826
-375.105 45.0826 -7457.88

