# vtk DataFile Version 3.0
vtk output at time 0.6
ASCII
DATASET UNSTRUCTURED_GRID
POINTS 125 float
0 0 0 0 0 0.05 0 0 0.1 
0 0 0.15 0 0 0.2 0 0.05 0 
0 0.05 0.05 0 0.05 0.1 0 0.05 0.15 
0 0.05 0.2 0 0.1 0 0 0.1 0.05 
0 0.1 0.1 0 0.1 0.15 0 0.1 0.2 
0 0.15 0 0 0.15 0.05 0 0.15 0.1 
0 0.15 0.15 0 0.15 0.2 0 0.2 0 
0 0.2 0.05 0 0.2 0.1 0 0.2 0.15 
0 0.2 0.2 0.0441974 -0.004665 -0.00738078 0.0487216 -0.00635199 0.0464307 
0.0453431 -0.00577292 0.1 0.0487216 -0.00635199 0.153569 0.0441974 -0.004665 0.207381 
0.0424475 0.0475359 -0.00600515 0.0460814 0.0468469 0.0468366 0.0425588 0.047026 0.1 
0.0460814 0.0468469 0.153163 0.0424475 0.0475359 0.206005 0.0449218 0.1 -0.00693247 
0.0492953 0.1 0.0466411 0.0460283 0.1 0.1 0.0492953 0.1 0.153359 
0.0449218 0.1 0.206932 0.0424475 0.152464 -0.00600515 0.0460814 0.153153 0.0468366 
0.0425588 0.152974 0.1 0.0460814 0.153153 0.153163 0.0424475 0.152464 0.206005 
0.0441974 0.204665 -0.00738078 0.0487216 0.206352 0.0464307 0.0453431 0.205773 0.1 
0.0487216 0.206352 0.153569 0.0441974 0.204665 0.207381 0.085 -0.00798767 -0.012965 
0.085 -0.0103449 0.0441055 0.085 -0.0104586 0.1 0.085 -0.0103449 0.155895 
0.085 -0.00798767 0.212965 0.085 0.0455626 -0.0116039 0.085 0.0446018 0.0442069 
0.0849999 0.0443755 0.1 0.085 0.0446018 0.155793 0.085 0.0455626 0.211604 
0.085 0.1 -0.0123597 0.085 0.1 0.0444135 0.085 0.1 0.1 
0.085 0.1 0.155587 0.085 0.1 0.21236 0.085 0.154437 -0.0116039 
0.085 0.155398 0.0442069 0.0849999 0.155624 0.1 0.085 0.155398 0.155793 
0.085 0.154437 0.211604 0.085 0.207988 -0.012965 0.085 0.210345 0.0441055 
0.085 0.210459 0.1 0.085 0.210345 0.155895 0.085 0.207988 0.212965 
0.125803 -0.00466498 -0.00738078 0.121278 -0.00635197 0.0464307 0.124657 -0.00577289 0.1 
0.121278 -0.00635197 0.153569 0.125803 -0.00466498 0.207381 0.127552 0.0475359 -0.00600514 
0.123919 0.0468469 0.0468366 0.127441 0.047026 0.1 0.123919 0.0468469 0.153163 
0.127552 0.0475359 0.206005 0.125078 0.1 -0.00693246 0.120705 0.1 0.0466411 
0.123972 0.1 0.1 0.120705 0.1 0.153359 0.125078 0.1 0.206932 
0.127552 0.152464 -0.00600514 0.123919 0.153153 0.0468366 0.127441 0.152974 0.1 
0.123919 0.153153 0.153163 0.127552 0.152464 0.206005 0.125803 0.204665 -0.00738078 
0.121278 0.206352 0.0464307 0.124657 0.205773 0.1 0.121278 0.206352 0.153569 
0.125803 0.204665 0.207381 0.17 0 0 0.17 0 0.05 
0.17 0 0.1 0.17 0 0.15 0.17 0 0.2 
0.17 0.05 0 0.17 0.05 0.05 0.17 0.05 0.1 
0.17 0.05 0.15 0.17 0.05 0.2 0.17 0.1 0 
0.17 0.1 0.05 0.17 0.1 0.1 0.17 0.1 0.15 
0.17 0.1 0.2 0.17 0.15 0 0.17 0.15 0.05 
0.17 0.15 0.1 0.17 0.15 0.15 0.17 0.15 0.2 
0.17 0.2 0 0.17 0.2 0.05 0.17 0.2 0.1 
0.17 0.2 0.15 0.17 0.2 0.2 

CELLS 384 1920
4 5 6 26 31 
4 5 6 1 26 
4 0 5 1 26 
4 0 5 26 25 
4 25 5 26 30 
4 30 5 26 31 
4 26 25 55 50 
4 26 25 30 55 
4 31 26 30 55 
4 26 31 56 55 
4 26 56 51 55 
4 26 51 50 55 
4 55 56 76 81 
4 55 56 51 76 
4 50 55 51 76 
4 50 55 76 75 
4 75 55 76 80 
4 80 55 76 81 
4 76 75 105 100 
4 76 75 80 105 
4 81 76 80 105 
4 76 81 106 105 
4 76 106 101 105 
4 76 101 100 105 
4 10 5 35 36 
4 5 10 11 36 
4 6 5 11 36 
4 5 6 31 36 
4 5 31 30 36 
4 5 30 35 36 
4 36 31 55 56 
4 36 31 30 55 
4 35 36 30 55 
4 35 36 55 60 
4 60 36 55 61 
4 61 36 55 56 
4 60 55 85 86 
4 55 60 61 86 
4 56 55 61 86 
4 55 56 81 86 
4 55 81 80 86 
4 55 80 85 86 
4 86 81 105 106 
4 86 81 80 105 
4 85 86 80 105 
4 85 86 105 110 
4 110 86 105 111 
4 111 86 105 106 
4 15 16 36 41 
4 15 16 11 36 
4 10 15 11 36 
4 10 15 36 35 
4 35 15 36 40 
4 40 15 36 41 
4 36 35 65 60 
4 36 35 40 65 
4 41 36 40 65 
4 36 41 66 65 
4 36 66 61 65 
4 36 61 60 65 
4 65 66 86 91 
4 65 66 61 86 
4 60 65 61 86 
4 60 65 86 85 
4 85 65 86 90 
4 90 65 86 91 
4 86 85 115 110 
4 86 85 90 115 
4 91 86 90 115 
4 86 91 116 115 
4 86 116 111 115 
4 86 111 110 115 
4 20 15 45 46 
4 15 20 21 46 
4 16 15 21 46 
4 15 16 41 46 
4 15 41 40 46 
4 15 40 45 46 
4 46 41 65 66 
4 46 41 40 65 
4 45 46 40 65 
4 45 46 65 70 
4 70 46 65 71 
4 71 46 65 66 
4 70 65 95 96 
4 65 70 71 96 
4 66 65 71 96 
4 65 66 91 96 
4 65 91 90 96 
4 65 90 95 96 
4 96 91 115 116 
4 96 91 90 115 
4 95 96 90 115 
4 95 96 115 120 
4 120 96 115 121 
4 121 96 115 116 
4 7 2 26 27 
4 7 2 1 26 
4 6 7 1 26 
4 6 7 26 31 
4 31 7 26 32 
4 32 7 26 27 
4 31 26 56 57 
4 26 31 32 57 
4 27 26 32 57 
4 26 27 52 57 
4 26 52 51 57 
4 26 51 56 57 
4 57 52 76 77 
4 57 52 51 76 
4 56 57 51 76 
4 56 57 76 81 
4 81 57 76 82 
4 82 57 76 77 
4 81 76 106 107 
4 76 81 82 107 
4 77 76 82 107 
4 76 77 102 107 
4 76 102 101 107 
4 76 101 106 107 
4 7 6 36 31 
4 7 6 11 36 
4 12 7 11 36 
4 7 12 37 36 
4 7 37 32 36 
4 7 32 31 36 
4 36 37 57 62 
4 36 37 32 57 
4 31 36 32 57 
4 31 36 57 56 
4 56 36 57 61 
4 61 36 57 62 
4 57 56 86 81 
4 57 56 61 86 
4 62 57 61 86 
4 57 62 87 86 
4 57 87 82 86 
4 57 82 81 86 
4 86 87 107 112 
4 86 87 82 107 
4 81 86 82 107 
4 81 86 107 106 
4 106 86 107 111 
4 111 86 107 112 
4 17 12 36 37 
4 17 12 11 36 
4 16 17 11 36 
4 16 17 36 41 
4 41 17 36 42 
4 42 17 36 37 
4 41 36 66 67 
4 36 41 42 67 
4 37 36 42 67 
4 36 37 62 67 
4 36 62 61 67 
4 36 61 66 67 
4 67 62 86 87 
4 67 62 61 86 
4 66 67 61 86 
4 66 67 86 91 
4 91 67 86 92 
4 92 67 86 87 
4 91 86 116 117 
4 86 91 92 117 
4 87 86 92 117 
4 86 87 112 117 
4 86 112 111 117 
4 86 111 116 117 
4 17 16 46 41 
4 17 16 21 46 
4 22 17 21 46 
4 17 22 47 46 
4 17 47 42 46 
4 17 42 41 46 
4 46 47 67 72 
4 46 47 42 67 
4 41 46 42 67 
4 41 46 67 66 
4 66 46 67 71 
4 71 46 67 72 
4 67 66 96 91 
4 67 66 71 96 
4 72 67 71 96 
4 67 72 97 96 
4 67 97 92 96 
4 67 92 91 96 
4 96 97 117 122 
4 96 97 92 117 
4 91 96 92 117 
4 91 96 117 116 
4 116 96 117 121 
4 121 96 117 122 
4 7 8 28 33 
4 7 8 3 28 
4 2 7 3 28 
4 2 7 28 27 
4 27 7 28 32 
4 32 7 28 33 
4 28 27 57 52 
4 28 27 32 57 
4 33 28 32 57 
4 28 33 58 57 
4 28 58 53 57 
4 28 53 52 57 
4 57 58 78 83 
4 57 58 53 78 
4 52 57 53 78 
4 52 57 78 77 
4 77 57 78 82 
4 82 57 78 83 
4 78 77 107 102 
4 78 77 82 107 
4 83 78 82 107 
4 78 83 108 107 
4 78 108 103 107 
4 78 103 102 107 
4 12 7 37 38 
4 7 12 13 38 
4 8 7 13 38 
4 7 8 33 38 
4 7 33 32 38 
4 7 32 37 38 
4 38 33 57 58 
4 38 33 32 57 
4 37 38 32 57 
4 37 38 57 62 
4 62 38 57 63 
4 63 38 57 58 
4 62 57 87 88 
4 57 62 63 88 
4 58 57 63 88 
4 57 58 83 88 
4 57 83 82 88 
4 57 82 87 88 
4 88 83 107 108 
4 88 83 82 107 
4 87 88 82 107 
4 87 88 107 112 
4 112 88 107 113 
4 113 88 107 108 
4 17 18 38 43 
4 17 18 13 38 
4 12 17 13 38 
4 12 17 38 37 
4 37 17 38 42 
4 42 17 38 43 
4 38 37 67 62 
4 38 37 42 67 
4 43 38 42 67 
4 38 43 68 67 
4 38 68 63 67 
4 38 63 62 67 
4 67 68 88 93 
4 67 68 63 88 
4 62 67 63 88 
4 62 67 88 87 
4 87 67 88 92 
4 92 67 88 93 
4 88 87 117 112 
4 88 87 92 117 
4 93 88 92 117 
4 88 93 118 117 
4 88 118 113 117 
4 88 113 112 117 
4 22 17 47 48 
4 17 22 23 48 
4 18 17 23 48 
4 17 18 43 48 
4 17 43 42 48 
4 17 42 47 48 
4 48 43 67 68 
4 48 43 42 67 
4 47 48 42 67 
4 47 48 67 72 
4 72 48 67 73 
4 73 48 67 68 
4 72 67 97 98 
4 67 72 73 98 
4 68 67 73 98 
4 67 68 93 98 
4 67 93 92 98 
4 67 92 97 98 
4 98 93 117 118 
4 98 93 92 117 
4 97 98 92 117 
4 97 98 117 122 
4 122 98 117 123 
4 123 98 117 118 
4 9 4 28 29 
4 9 4 3 28 
4 8 9 3 28 
4 8 9 28 33 
4 33 9 28 34 
4 34 9 28 29 
4 33 28 58 59 
4 28 33 34 59 
4 29 28 34 59 
4 28 29 54 59 
4 28 54 53 59 
4 28 53 58 59 
4 59 54 78 79 
4 59 54 53 78 
4 58 59 53 78 
4 58 59 78 83 
4 83 59 78 84 
4 84 59 78 79 
4 83 78 108 109 
4 78 83 84 109 
4 79 78 84 109 
4 78 79 104 109 
4 78 104 103 109 
4 78 103 108 109 
4 9 8 38 33 
4 9 8 13 38 
4 14 9 13 38 
4 9 14 39 38 
4 9 39 34 38 
4 9 34 33 38 
4 38 39 59 64 
4 38 39 34 59 
4 33 38 34 59 
4 33 38 59 58 
4 58 38 59 63 
4 63 38 59 64 
4 59 58 88 83 
4 59 58 63 88 
4 64 59 63 88 
4 59 64 89 88 
4 59 89 84 88 
4 59 84 83 88 
4 88 89 109 114 
4 88 89 84 109 
4 83 88 84 109 
4 83 88 109 108 
4 108 88 109 113 
4 113 88 109 114 
4 19 14 38 39 
4 19 14 13 38 
4 18 19 13 38 
4 18 19 38 43 
4 43 19 38 44 
4 44 19 38 39 
4 43 38 68 69 
4 38 43 44 69 
4 39 38 44 69 
4 38 39 64 69 
4 38 64 63 69 
4 38 63 68 69 
4 69 64 88 89 
4 69 64 63 88 
4 68 69 63 88 
4 68 69 88 93 
4 93 69 88 94 
4 94 69 88 89 
4 93 88 118 119 
4 88 93 94 119 
4 89 88 94 119 
4 88 89 114 119 
4 88 114 113 119 
4 88 113 118 119 
4 19 18 48 43 
4 19 18 23 48 
4 24 19 23 48 
4 19 24 49 48 
4 19 49 44 48 
4 19 44 43 48 
4 48 49 69 74 
4 48 49 44 69 
4 43 48 44 69 
4 43 48 69 68 
4 68 48 69 73 
4 73 48 69 74 
4 69 68 98 93 
4 69 68 73 98 
4 74 69 73 98 
4 69 74 99 98 
4 69 99 94 98 
4 69 94 93 98 
4 98 99 119 124 
4 98 99 94 119 
4 93 98 94 119 
4 93 98 119 118 
4 118 98 119 123 
4 123 98 119 124 

CELL_TYPES 384
10
10
10
10
10
10
10
10
10
10
10
10
10
10
10
10
10
10
10
10
10
10
10
10
10
10
10
10
10
10
10
10
10
10
10
10
10
10
10
10
10
10
10
10
10
10
10
10
10
10
10
10
10
10
10
10
10
10
10
10
10
10
10
10
10
10
10
10
10
10
10
10
10
10
10
10
10
10
10
10
10
10
10
10
10
10
10
10
10
10
10
10
10
10
10
10
10
10
10
10
10
10
10
10
10
10
10
10
10
10
10
10
10
10
10
10
10
10
10
10
10
10
10
10
10
10
10
10
10
10
10
10
10
10
10
10
10
10
10
10
10
10
10
10
10
10
10
10
10
10
10
10
10
10
10
10
10
10
10
10
10
10
10
10
10
10
10
10
10
10
10
10
10
10
10
10
10
10
10
10
10
10
10
10
10
10
10
10
10
10
10
10
10
10
10
10
10
10
10
10
10
10
10
10
10
10
10
10
10
10
10
10
10
10
10
10
10
10
10
10
10
10
10
10
10
10
10
10
10
10
10
10
10
10
10
10
10
10
10
10
10
10
10
10
10
10
10
10
10
10
10
10
10
10
10
10
10
10
10
10
10
10
10
10
10
10
10
10
10
10
10
10
10
10
10
10
10
10
10
10
10
10
10
10
10
10
10
10
10
10
10
10
10
10
10
10
10
10
10
10
10
10
10
10
10
10
10
10
10
10
10
10
10
10
10
10
10
10
10
10
10
10
10
10
10
10
10
10
10
10
10
10
10
10
10
10
10
10
10
10
10
10
10
10
10
10
10
10
10
10
10
10
10
10
10
10
10
10
10
10
10
10
10
10
10
10
10
10
10
10
10
10
10
10
10
10
10
10
10
10
10
10
10
10

POINT_DATA 125
VECTORS displacement float
0 0 0
0 0 0
0 0 0
0 0 0
0 0 0
0 0 0
0 0 0
0 0 0
0 0 0
0 0 0
0 0 0
0 0 0
0 0 0
0 0 0
0 0 0
0 0 0
0 0 0
0 0 0
0 0 0
0 0 0
0 0 0
0 0 0
0 0 0
0 0 0
0 0 0
-0.00580263 -0.004665 -0.00738078
-0.0012784 -0.00635199 -0.00356932
-0.00465686 -0.00577292 1.38778e-17
-0.0012784 -0.00635199 0.00356932
-0.00580263 -0.004665 0.00738078
-0.00755248 -0.00246411 -0.00600515
-0.00391862 -0.0031531 -0.00316339
-0.00744116 -0.00297403 0
-0.00391862 -0.0031531 0.00316339
-0.00755248 -0.00246411 0.00600515
-0.00507815 0 -0.00693247
-0.000704668 0 -0.00335893
-0.00397173 0 0
-0.000704668 0 0.00335893
-0.00507815 2.77556e-17 0.00693247
-0.00755248 0.00246411 -0.00600515
-0.00391862 0.0031531 -0.00316339
-0.00744116 0.00297403 1.38778e-17
-0.00391862 0.0031531 0.00316339
-0.00755248 0.00246411 0.00600515
-0.00580263 0.004665 -0.00738078
-0.0012784 0.00635199 -0.00356932
-0.00465686 0.00577292 0
-0.0012784 0.00635199 0.00356932
-0.00580263 0.004665 0.00738078
-0.015 -0.00798767 -0.012965
-0.015 -0.0103449 -0.0058945
-0.015 -0.0104586 0
-0.015 -0.0103449 0.0058945
-0.015 -0.00798767 0.012965
-0.015 -0.00443744 -0.0116039
-0.015 -0.00539825 -0.00579314
-0.0150001 -0.00562448 0
-0.015 -0.00539825 0.00579314
-0.015 -0.00443744 0.0116039
-0.015 0 -0.0123597
-0.015 -1.38778e-17 -0.00558654
-0.015 0 0
-0.015 1.38778e-17 0.00558654
-0.015 1.38778e-17 0.0123597
-0.015 0.00443744 -0.0116039
-0.015 0.00539825 -0.00579314
-0.0150001 0.00562448 0
-0.015 0.00539825 0.00579314
-0.015 0.00443744 0.0116039
-0.015 0.00798767 -0.012965
-0.015 0.0103449 -0.0058945
-0.015 0.0104586 0
-0.015 0.0103449 0.0058945
-0.015 0.00798767 0.012965
-0.0241974 -0.00466498 -0.00738078
-0.0287216 -0.00635197 -0.00356931
-0.0253432 -0.00577289 -1.38778e-17
-0.0287216 -0.00635197 0.00356931
-0.0241974 -0.00466498 0.00738078
-0.0224476 -0.0024641 -0.00600514
-0.0260814 -0.00315309 -0.00316338
-0.0225589 -0.00297402 0
-0.0260814 -0.00315309 0.00316338
-0.0224476 -0.0024641 0.00600514
-0.0249219 0 -0.00693246
-0.0292953 -1.38778e-17 -0.00335892
-0.0260283 0 0
-0.0292953 1.38778e-17 0.00335892
-0.0249219 0 0.00693246
-0.0224476 0.0024641 -0.00600514
-0.0260814 0.00315309 -0.00316338
-0.0225589 0.00297402 -1.38778e-17
-0.0260814 0.00315309 0.00316338
-0.0224476 0.0024641 0.00600514
-0.0241974 0.00466498 -0.00738078
-0.0287216 0.00635197 -0.00356931
-0.0253432 0.00577289 0
-0.0287216 0.00635197 0.00356931
-0.0241974 0.00466498 0.00738078
-0.03 0 0
-0.03 0 0
-0.03 0 0
-0.03 0 0
-0.03 0 0
-0.03 0 0
-0.03 0 0
-0.03 0 0
-0.03 0 0
-0.03 0 0
-0.03 0 0
-0.03 0 0
-0.03 0 0
-0.03 0 0
-0.03 0 0
-0.03 0 0
-0.03 0 0
-0.03 0 0
-0.03 0 0
-0.03 0 0
-0.03 0 0
-0.03 0 0
-0.03 0 0
-0.03 0 0
-0.03 0 0

CELL_DATA 384
TENSORS stress float
-6133.3 -2086.76 -920.763
-2086.76 -1067.71 424.305
-920.763 424.305 -4129.48

-16095.5 -715.218 -401.896
-715.218 -15826.4 258.522
-401.896 258.522 -16141.2

-16095.5 -715.218 -401.896
-715.218 -15826.4 258.522
-401.896 258.522 -16141.2

-12746.5 -564.079 -310.059
-564.079 -11263 -290.249
-310.059 -290.249 -8722.94

-5557.94 -1408.88 -102.959
-1408.88 730.105 -35.5195
-102.959 -35.5195 2775.28

-6434.26 -1682.13 -432.637
-1682.13 445.519 58.2183
-432.637 58.2183 148.603

-5718.16 -1043.48 116.11
-1043.48 2997.29 -0.429674
116.11 -0.429674 3484.2

-5210.72 -1301.57 27.3415
-1301.57 1173.91 -90.064
27.3415 -90.064 3246.44

-6100.57 -1584.66 -325.36
-1584.66 902.339 -0.570246
-325.36 -0.570246 607.016

-8401.44 -1179.52 -630.865
-1179.52 -1574.96 -206.569
-630.865 -206.569 1517.73

-9637.71 -664.886 -400.688
-664.886 -1611.41 -411.264
-400.688 -411.264 -667.218

-10025.6 -536.858 -418.915
-536.858 -4021.96 -558.741
-418.915 -558.741 275.742

-8401.17 1179.56 630.894
1179.56 -1574.48 -206.569
630.894 -206.569 1518.27

-9637.86 664.854 400.685
664.854 -1611.75 -411.259
400.685 -411.259 -667.561

-10025.7 536.832 418.917
536.832 -4022.28 -558.734
418.917 -558.734 275.383

-5718.17 1043.46 -116.102
1043.46 2997.28 -0.430963
-116.102 -0.430963 3484.19

-5210.47 1301.59 -27.3282
1301.59 1174.24 -90.0619
-27.3282 -90.0619 3246.82

-6100.34 1584.68 325.38
1584.68 902.664 -0.566898
325.38 -0.566898 607.354

-12746 564.138 310.087
564.138 -11262.3 -290.267
310.087 -290.267 -8722.1

-5557.38 1408.93 102.97
1408.93 730.899 -35.5204
102.97 -35.5204 2776.15

-6433.71 1682.2 432.663
1682.2 446.325 58.219
432.663 58.219 149.42

-6132.96 2086.79 920.783
2086.79 -1067.29 424.31
920.783 424.31 -4129.1

-16095.1 715.259 401.92
715.259 -15826 258.524
401.92 258.524 -16140.8

-16095.1 715.259 401.92
715.259 -15826 258.524
401.92 258.524 -16140.8

-11519.8 0 -381.177
0 -9957.08 0
-381.177 0 -7164.71

-13071.1 0 -597.2
0 -12920.1 0
-597.2 0 -12778

-13071.1 0 -597.2
0 -12920.1 0
-597.2 0 -12778

-6677.55 180.113 -860.069
180.113 -1813.16 -16.9869
-860.069 -16.9869 -4469.8

-6866.86 428.379 -426.154
428.379 -230.561 -343.911
-426.154 -343.911 -266.102

-5701.47 178.698 -175.233
178.698 796.93 -372.017
-175.233 -372.017 2419.02

-8761.55 443.088 -651.44
443.088 -2212.01 -680.252
-651.44 -680.252 1038.98

-6495.76 580.074 -328.751
580.074 273.04 -387.282
-328.751 -387.282 192.604

-5326.86 329.636 -54.3045
329.636 1279.24 -417.324
-54.3045 -417.324 2887.46

-6973.92 -2.5793 110.457
-2.5793 2152.05 -477.085
110.457 -477.085 1419.34

-10383.4 13.1424 -381.423
13.1424 -4102.23 -476.24
-381.423 -476.24 -1006.35

-10683.5 13.4679 -327.481
13.4679 -3670.44 -477.446
-327.481 -477.446 -3079.62

-6973.81 2.59913 -110.447
2.59913 2152.23 -477.088
-110.447 -477.088 1419.53

-10383.4 -13.1318 381.432
-13.1318 -4102.29 -476.239
381.432 -476.239 -1006.42

-10683.5 -13.452 327.485
-13.452 -3670.5 -477.443
327.485 -477.443 -3079.69

-8761.26 -443.093 651.469
-443.093 -2211.49 -680.262
651.469 -680.262 1039.56

-6495.51 -580.07 328.771
-580.07 273.398 -387.288
328.771 -387.288 192.974

-5326.61 -329.626 54.3213
-329.626 1279.58 -417.331
54.3213 -417.331 2887.84

-6677.19 -180.107 860.091
-180.107 -1812.7 -16.9877
860.091 -16.9877 -4469.39

-6866.29 -428.39 426.181
-428.39 -229.722 -343.924
426.181 -343.924 -265.256

-5700.9 -178.696 175.249
-178.696 797.736 -372.03
175.249 -372.03 2419.88

-11519.4 -5.46534e-16 381.2
-5.46534e-16 -9956.55 -3.92738e-12
381.2 -3.92738e-12 -7164.1

-13071 1.97392e-12 597.201
1.97392e-12 -12920.1 4.69592e-13
597.201 4.69592e-13 -12778

-13071 1.97392e-12 597.201
1.97392e-12 -12920.1 4.69592e-13
597.201 4.69592e-13 -12778

-6677.55 -180.113 -860.069
-180.113 -1813.16 16.9869
-860.069 16.9869 -4469.8

-13071.1 0 -597.2
0 -12920.1 0
-597.2 0 -12778

-13071.1 0 -597.2
0 -12920.1 0
-597.2 0 -12778

-11519.8 0 -381.177
0 -9957.08 0
-381.177 0 -7164.71

-5701.47 -178.698 -175.233
-178.698 796.93 372.017
-175.233 372.017 2419.02

-6866.86 -428.379 -426.154
-428.379 -230.561 343.911
-426.154 343.911 -266.102

-6973.92 2.5793 110.457
2.5793 2152.05 477.085
110.457 477.085 1419.34

-5326.86 -329.636 -54.3045
-329.636 1279.24 417.324
-54.3045 417.324 2887.46

-6495.76 -580.074 -328.751
-580.074 273.04 387.282
-328.751 387.282 192.604

-8761.55 -443.088 -651.44
-443.088 -2212.01 680.252
-651.44 680.252 1038.98

-10683.5 -13.4679 -327.481
-13.4679 -3670.44 477.446
-327.481 477.446 -3079.62

-10383.4 -13.1424 -381.423
-13.1424 -4102.23 476.24
-381.423 476.24 -1006.35

-8761.26 443.093 651.469
443.093 -2211.49 680.262
651.469 680.262 1039.56

-10683.5 13.452 327.485
13.452 -3670.5 477.443
327.485 477.443 -3079.69

-10383.4 13.1318 381.432
13.1318 -4102.29 476.239
381.432 476.239 -1006.42

-6973.81 -2.59913 -110.447
-2.59913 2152.23 477.088
-110.447 477.088 1419.53

-5326.61 329.626 54.3213
329.626 1279.58 417.331
54.3213 417.331 2887.84

-6495.51 580.07 328.771
580.07 273.398 387.288
328.771 387.288 192.974

-11519.4 -5.46534e-16 381.2
-5.46534e-16 -9956.55 -3.92738e-12
381.2 -3.92738e-12 -7164.1

-5700.9 178.696 175.249
178.696 797.736 372.03
175.249 372.03 2419.88

-6866.29 428.39 426.181
428.39 -229.722 343.924
426.181 343.924 -265.256

-6677.19 180.107 860.091
180.107 -1812.7 16.9877
860.091 16.9877 -4469.39

-13071 1.97392e-12 597.201
1.97392e-12 -12920.1 4.69592e-13
597.201 4.69592e-13 -12778

-13071 1.97392e-12 597.201
1.97392e-12 -12920.1 4.69592e-13
597.201 4.69592e-13 -12778

-12746.5 564.079 -310.059
564.079 -11263 290.249
-310.059 290.249 -8722.94

-16095.5 715.218 -401.896
715.218 -15826.4 -258.522
-401.896 -258.522 -16141.2

-16095.5 715.218 -401.896
715.218 -15826.4 -258.522
-401.896 -258.522 -16141.2

-6133.3 2086.76 -920.763
2086.76 -1067.71 -424.305
-920.763 -424.305 -4129.48

-6434.26 1682.13 -432.637
1682.13 445.519 -58.2183
-432.637 -58.2183 148.603

-5557.94 1408.88 -102.959
1408.88 730.105 35.5195
-102.959 35.5195 2775.28

-8401.44 1179.52 -630.865
1179.52 -1574.96 206.569
-630.865 206.569 1517.73

-6100.57 1584.66 -325.36
1584.66 902.339 0.570246
-325.36 0.570246 607.016

-5210.72 1301.57 27.3415
1301.57 1173.91 90.064
27.3415 90.064 3246.44

-5718.16 1043.48 116.11
1043.48 2997.29 0.429674
116.11 0.429674 3484.2

-10025.6 536.858 -418.915
536.858 -4021.96 558.741
-418.915 558.741 275.742

-9637.71 664.886 -400.688
664.886 -1611.41 411.264
-400.688 411.264 -667.218

-5718.17 -1043.46 -116.102
-1043.46 2997.28 0.430963
-116.102 0.430963 3484.19

-10025.7 -536.832 418.917
-536.832 -4022.28 558.734
418.917 558.734 275.383

-9637.86 -664.854 400.685
-664.854 -1611.75 411.259
400.685 411.259 -667.561

-8401.17 -1179.56 630.894
-1179.56 -1574.48 206.569
630.894 206.569 1518.27

-6100.34 -1584.68 325.38
-1584.68 902.664 0.566898
325.38 0.566898 607.354

-5210.47 -1301.59 -27.3282
-1301.59 1174.24 90.0619
-27.3282 90.0619 3246.82

-6132.96 -2086.79 920.783
-2086.79 -1067.29 -424.31
920.783 -424.31 -4129.1

-6433.71 -1682.2 432.663
-1682.2 446.325 -58.219
432.663 -58.219 149.42

-5557.38 -1408.93 102.97
-1408.93 730.899 35.5204
102.97 35.5204 2776.15

-12746 -564.138 310.087
-564.138 -11262.3 290.267
310.087 290.267 -8722.1

-16095.1 -715.259 401.92
-715.259 -15826 -258.524
401.92 -258.524 -16140.8

-16095.1 -715.259 401.92
-715.259 -15826 -258.524
401.92 -258.524 -16140.8

-8292.51 -1352.06 -1165.45
-1352.06 -6054.27 421.472
-1165.45 421.472 -3508.7

-16095.5 -715.218 -401.896
-715.218 -15826.4 258.522
-401.896 258.522 -16141.2

-16095.5 -715.218 -401.896
-715.218 -15826.4 258.522
-401.896 258.522 -16141.2

-6133.3 -2086.76 -920.763
-2086.76 -1067.71 424.305
-920.763 424.305 -4129.48

-4768.14 -2072.76 -1465.36
-2072.76 2831.72 539.03
-1465.36 539.03 2556.52

-4622.81 -2110.77 -1453.02
-2110.77 2590.87 538.552
-1453.02 538.552 3262.73

-8810.66 -1134.69 -638.657
-1134.69 -2342.95 255.758
-638.657 255.758 659.405

-6799.16 -1686.42 -1258.23
-1686.42 -253.188 496.918
-1258.23 496.918 -469.662

-6654.98 -1716.73 -1253.97
-1716.73 -450.346 496.904
-1253.97 496.904 191.421

-7792.85 -1229.78 -1077.14
-1229.78 1385.4 480.502
-1077.14 480.502 -429.22

-10145.9 -616.315 -395.925
-616.315 -2924.87 82.2734
-395.925 82.2734 -1754.2

-10004.8 -638.343 -400.516
-638.343 -2466.91 74.5081
-400.516 74.5081 -1559.24

-7792.63 1229.79 1077.15
1229.79 1385.81 480.507
1077.15 480.507 -428.833

-10146.1 616.283 395.899
616.283 -2925.2 82.2708
395.899 82.2708 -1754.55

-10004.9 638.312 400.489
638.312 -2467.25 74.5055
400.489 74.5055 -1559.58

-8810.39 1134.73 638.656
1134.73 -2342.47 255.76
638.656 255.76 659.949

-6798.63 1686.49 1258.27
1686.49 -252.414 496.927
1258.27 496.927 -468.894

-6654.46 1716.8 1254.01
1716.8 -449.584 496.914
1254.01 496.914 192.213

-6132.96 2086.79 920.783
2086.79 -1067.29 424.31
920.783 424.31 -4129.1

-4767.54 2072.83 1465.41
2072.83 2832.59 539.04
1465.41 539.04 2557.39

-4622.21 2110.84 1453.07
2110.84 2591.73 538.563
1453.07 538.563 3263.63

-8292.06 1352.11 1165.48
1352.11 -6053.72 421.479
1165.48 421.479 -3508.09

-16095.1 715.259 401.92
715.259 -15826 258.524
401.92 258.524 -16140.8

-16095.1 715.259 401.92
715.259 -15826 258.524
401.92 258.524 -16140.8

-6677.55 180.113 -860.069
180.113 -1813.16 -16.9869
-860.069 -16.9869 -4469.8

-13071.1 0 -597.2
0 -12920.1 0
-597.2 0 -12778

-13071.1 0 -597.2
0 -12920.1 0
-597.2 0 -12778

-7168.9 0 -1194.43
0 -5202.69 0
-1194.43 0 -2250.07

-4973.99 431.361 -1334.72
431.361 2311.18 -36.5607
-1334.72 -36.5607 2771.6

-5248.88 326.01 -1396.23
326.01 2081.07 -39.7638
-1396.23 -39.7638 2117.62

-9768.95 0.00987186 -773.983
0.00987186 -1459.32 -0.00122373
-773.983 -0.00122373 -3918.54

-6966.66 460.194 -1146.87
460.194 -693.181 -45.708
-1146.87 -45.708 -253.737

-7243.32 368.38 -1193.47
368.38 -947.655 -48.6912
-1193.47 -48.6912 -889.611

-9169.12 404.654 -610.473
404.654 -2984.5 -218.831
-610.473 -218.831 175.422

-11042.5 0.383251 -304.828
0.383251 -4543.51 -12.9868
-304.828 -12.9868 -3978.97

-10786.5 0.00721039 -313.097
0.00721039 -3655.88 -0.000585003
-313.097 -0.000585003 -3622.14

-9168.84 -404.659 610.473
-404.659 -2983.98 -218.832
610.473 -218.832 176.001

-11042.5 -0.368189 304.813
-0.368189 -4543.57 -12.9854
304.813 -12.9854 -3979.03

-10786.5 0.00721035 313.079
0.00721035 -3655.94 0.000584974
313.079 0.000584974 -3622.2

-9768.56 0.00987234 774.021
0.00987234 -1458.55 0.00122372
774.021 0.00122372 -3917.83

-6966.12 -460.194 1146.91
-460.194 -692.398 -45.7055
1146.91 -45.7055 -252.943

-7242.78 -368.382 1193.52
-368.382 -946.851 -48.6891
1193.52 -48.6891 -888.814

-7168.63 5.75609e-13 1194.44
5.75609e-13 -5202.38 4.87401e-12
1194.44 4.87401e-12 -2249.74

-4973.38 -431.363 1334.77
-431.363 2312.07 -36.559
1334.77 -36.559 2772.49

-5248.26 -326.014 1396.27
-326.014 2081.97 -39.7624
1396.27 -39.7624 2118.52

-6677.19 -180.107 860.091
-180.107 -1812.7 -16.9877
860.091 -16.9877 -4469.39

-13071 1.97392e-12 597.201
1.97392e-12 -12920.1 4.69592e-13
597.201 4.69592e-13 -12778

-13071 1.97392e-12 597.201
1.97392e-12 -12920.1 4.69592e-13
597.201 4.69592e-13 -12778

-7168.9 0 -1194.43
0 -5202.69 0
-1194.43 0 -2250.07

-13071.1 0 -597.2
0 -12920.1 0
-597.2 0 -12778

-13071.1 0 -597.2
0 -12920.1 0
-597.2 0 -12778

-6677.55 -180.113 -860.069
-180.113 -1813.16 16.9869
-860.069 16.9869 -4469.8

-5248.88 -326.01 -1396.23
-326.01 2081.07 39.7638
-1396.23 39.7638 2117.62

-4973.99 -431.361 -1334.72
-431.361 2311.18 36.5607
-1334.72 36.5607 2771.6

-9169.12 -404.654 -610.473
-404.654 -2984.5 218.831
-610.473 218.831 175.422

-7243.32 -368.38 -1193.47
-368.38 -947.655 48.6912
-1193.47 48.6912 -889.611

-6966.66 -460.194 -1146.87
-460.194 -693.181 45.708
-1146.87 45.708 -253.737

-9768.95 -0.00987186 -773.983
-0.00987186 -1459.32 0.00122373
-773.983 0.00122373 -3918.54

-10786.5 -0.00721039 -313.097
-0.00721039 -3655.88 0.000585003
-313.097 0.000585003 -3622.14

-11042.5 -0.383251 -304.828
-0.383251 -4543.51 12.9868
-304.828 12.9868 -3978.97

-9768.56 -0.00987234 774.021
-0.00987234 -1458.55 -0.00122372
774.021 -0.00122372 -3917.83

-10786.5 -0.00721035 313.079
-0.00721035 -3655.94 -0.000584974
313.079 -0.000584974 -3622.2

-11042.5 0.368189 304.813
0.368189 -4543.57 12.9854
304.813 12.9854 -3979.03

-9168.84 404.659 610.473
404.659 -2983.98 218.832
610.473 218.832 176.001

-7242.78 368.382 1193.52
368.382 -946.851 48.6891
1193.52 48.6891 -888.814

-6966.12 460.194 1146.91
460.194 -692.398 45.7055
1146.91 45.7055 -252.943

-6677.19 180.107 860.091
180.107 -1812.7 16.9877
860.091 16.9877 -4469.39

-5248.26 326.014 1396.27
326.014 2081.97 39.7624
1396.27 39.7624 2118.52

-4973.38 431.363 1334.77
431.363 2312.07 36.559
1334.77 36.559 2772.49

-7168.63 5.75609e-13 1194.44
5.75609e-13 -5202.38 4.87401e-12
1194.44 4.87401e-12 -2249.74

-13071 1.97392e-12 597.201
1.97392e-12 -12920.1 4.69592e-13
597.201 4.69592e-13 -12778

-13071 1.97392e-12 597.201
1.97392e-12 -12920.1 4.69592e-13
597.201 4.69592e-13 -12778

-6133.3 2086.76 -920.763
2086.76 -1067.71 -424.305
-920.763 -424.305 -4129.48

-16095.5 715.218 -401.896
715.218 -15826.4 -258.522
-401.896 -258.522 -16141.2

-16095.5 715.218 -401.896
715.218 -15826.4 -258.522
-401.896 -258.522 -16141.2

-8292.51 1352.06 -1165.45
1352.06 -6054.27 -421.472
-1165.45 -421.472 -3508.7

-4622.81 2110.77 -1453.02
2110.77 2590.87 -538.552
-1453.02 -538.552 3262.73

-4768.14 2072.76 -1465.36
2072.76 2831.72 -539.03
-1465.36 -539.03 2556.52

-7792.85 1229.78 -1077.14
1229.78 1385.4 -480.502
-1077.14 -480.502 -429.22

-6654.98 1716.73 -1253.97
1716.73 -450.346 -496.904
-1253.97 -496.904 191.421

-6799.16 1686.42 -1258.23
1686.42 -253.188 -496.918
-1258.23 -496.918 -469.662

-8810.66 1134.69 -638.657
1134.69 -2342.95 -255.758
-638.657 -255.758 659.405

-10004.8 638.343 -400.516
638.343 -2466.91 -74.5081
-400.516 -74.5081 -1559.24

-10145.9 616.315 -395.925
616.315 -2924.87 -82.2734
-395.925 -82.2734 -1754.2

-8810.39 -1134.73 638.656
-1134.73 -2342.47 -255.76
638.656 -255.76 659.949

-10004.9 -638.312 400.489
-638.312 -2467.25 -74.5055
400.489 -74.5055 -1559.58

-10146.1 -616.283 395.899
-616.283 -2925.2 -82.2708
395.899 -82.2708 -1754.55

-7792.63 -1229.79 1077.15
-1229.79 1385.81 -480.507
1077.15 -480.507 -428.833

-6654.46 -1716.8 1254.01
-1716.8 -449.584 -496.914
1254.01 -496.914 192.213

-6798.63 -1686.49 1258.27
-1686.49 -252.414 -496.927
1258.27 -496.927 -468.894

-8292.06 -1352.11 1165.48
-1352.11 -6053.72 -421.479
1165.48 -421.479 -3508.09

-4622.21 -2110.84 1453.07
-2110.84 2591.73 -538.563
1453.07 -538.563 3263.63

-4767.54 -2072.83 1465.41
-2072.83 2832.59 -539.04
1465.41 -539.04 2557.39

-6132.96 -2086.79 920.783
-2086.79 -1067.29 -424.31
920.783 -424.31 -4129.1

-16095.1 -715.259 401.92
-715.259 -15826 -258.524
401.92 -258.524 -16140.8

-16095.1 -715.259 401.92
-715.259 -15826 -258.524
401.92 -258.524 -16140.8

-6133.3 -2086.76 920.763
-2086.76 -1067.71 -424.305
920.763 -424.305 -4129.48

-16095.5 -715.218 401.896
-715.218 -15826.4 -258.522
401.896 -258.522 -16141.2

-16095.5 -715.218 401.896
-715.218 -15826.4 -258.522
401.896 -258.522 -16141.2

-8292.51 -1352.06 1165.45
-1352.06 -6054.27 -421.472
1165.45 -421.472 -3508.7

-4622.81 -2110.77 1453.02
-2110.77 2590.87 -538.552
1453.02 -538.552 3262.73

-4768.14 -2072.76 1465.36
-2072.76 2831.72 -539.03
1465.36 -539.03 2556.52

-7792.85 -1229.78 1077.14
-1229.78 1385.4 -480.502
1077.14 -480.502 -429.22

-6654.98 -1716.73 1253.97
-1716.73 -450.346 -496.904
1253.97 -496.904 191.421

-6799.16 -1686.42 1258.23
-1686.42 -253.188 -496.918
1258.23 -496.918 -469.662

-8810.66 -1134.69 638.657
-1134.69 -2342.95 -255.758
638.657 -255.758 659.405

-10004.8 -638.343 400.516
-638.343 -2466.91 -74.5081
400.516 -74.5081 -1559.24

-10145.9 -616.315 395.925
-616.315 -2924.87 -82.2734
395.925 -82.2734 -1754.2

-8810.39 1134.73 -638.656
1134.73 -2342.47 -255.76
-638.656 -255.76 659.949

-10004.9 638.312 -400.489
638.312 -2467.25 -74.5055
-400.489 -74.5055 -1559.58

-10146.1 616.283 -395.899
616.283 -2925.2 -82.2708
-395.899 -82.2708 -1754.55

-7792.63 1229.79 -1077.15
1229.79 1385.81 -480.507
-1077.15 -480.507 -428.833

-6654.46 1716.8 -1254.01
1716.8 -449.584 -496.914
-1254.01 -496.914 192.213

-6798.63 1686.49 -1258.27
1686.49 -252.414 -496.927
-1258.27 -496.927 -468.894

-8292.06 1352.11 -1165.48
1352.11 -6053.72 -421.479
-1165.48 -421.479 -3508.09

-4622.21 2110.84 -1453.07
2110.84 2591.73 -538.563
-1453.07 -538.563 3263.63

-4767.54 2072.83 -1465.41
2072.83 2832.59 -539.04
-1465.41 -539.04 2557.39

-6132.96 2086.79 -920.783
2086.79 -1067.29 -424.31
-920.783 -424.31 -4129.1

-16095.1 715.259 -401.92
715.259 -15826 -258.524
-401.92 -258.524 -16140.8

-16095.1 715.259 -401.92
715.259 -15826 -258.524
-401.92 -258.524 -16140.8

-7168.9 0 1194.43
0 -5202.69 0
1194.43 0 -2250.07

-13071.1 0 597.2
0 -12920.1 0
597.2 0 -12778

-13071.1 0 597.2
0 -12920.1 0
597.2 0 -12778

-6677.55 180.113 860.069
180.113 -1813.16 16.9869
860.069 16.9869 -4469.8

-5248.88 326.01 1396.23
326.01 2081.07 39.7638
1396.23 39.7638 2117.62

-4973.99 431.361 1334.72
431.361 2311.18 36.5607
1334.72 36.5607 2771.6

-9169.12 404.654 610.473
404.654 -2984.5 218.831
610.473 218.831 175.422

-7243.32 368.38 1193.47
368.38 -947.655 48.6912
1193.47 48.6912 -889.611

-6966.66 460.194 1146.87
460.194 -693.181 45.708
1146.87 45.708 -253.737

-9768.95 0.00987186 773.983
0.00987186 -1459.32 0.00122373
773.983 0.00122373 -3918.54

-10786.5 0.00721039 313.097
0.00721039 -3655.88 0.000585003
313.097 0.000585003 -3622.14

-11042.5 0.383251 304.828
0.383251 -4543.51 12.9868
304.828 12.9868 -3978.97

-9768.56 0.00987234 -774.021
0.00987234 -1458.55 -0.00122372
-774.021 -0.00122372 -3917.83

-10786.5 0.00721035 -313.079
0.00721035 -3655.94 -0.000584974
-313.079 -0.000584974 -3622.2

-11042.5 -0.368189 -304.813
-0.368189 -4543.57 12.9854
-304.813 12.9854 -3979.03

-9168.84 -404.659 -610.473
-404.659 -2983.98 218.832
-610.473 218.832 176.001

-7242.78 -368.382 -1193.52
-368.382 -946.851 48.6891
-1193.52 48.6891 -888.814

-6966.12 -460.194 -1146.91
-460.194 -692.398 45.7055
-1146.91 45.7055 -252.943

-6677.19 -180.107 -860.091
-180.107 -1812.7 16.9877
-860.091 16.9877 -4469.39

-5248.26 -326.014 -1396.27
-326.014 2081.97 39.7624
-1396.27 39.7624 2118.52

-4973.38 -431.363 -1334.77
-431.363 2312.07 36.559
-1334.77 36.559 2772.49

-7168.63 -1.15122e-12 -1194.44
-1.15122e-12 -5202.38 9.74803e-12
-1194.44 9.74803e-12 -2249.74

-13071 -3.94785e-12 -597.201
-3.94785e-12 -12920.1 9.39183e-13
-597.201 9.39183e-13 -12778

-13071 -3.94785e-12 -597.201
-3.94785e-12 -12920.1 9.39183e-13
-597.201 9.39183e-13 -12778

-6677.55 -180.113 860.069
-180.113 -1813.16 -16.9869
860.069 -16.9869 -4469.8

-13071.1 0 597.2
0 -12920.1 0
597.2 0 -12778

-13071.1 0 597.2
0 -12920.1 0
597.2 0 -12778

-7168.9 0 1194.43
0 -5202.69 0
1194.43 0 -2250.07

-4973.99 -431.361 1334.72
-431.361 2311.18 -36.5607
1334.72 -36.5607 2771.6

-5248.88 -326.01 1396.23
-326.01 2081.07 -39.7638
1396.23 -39.7638 2117.62

-9768.95 -0.00987186 773.983
-0.00987186 -1459.32 -0.00122373
773.983 -0.00122373 -3918.54

-6966.66 -460.194 1146.87
-460.194 -693.181 -45.708
1146.87 -45.708 -253.737

-7243.32 -368.38 1193.47
-368.38 -947.655 -48.6912
1193.47 -48.6912 -889.611

-9169.12 -404.654 610.473
-404.654 -2984.5 -218.831
610.473 -218.831 175.422

-11042.5 -0.383251 304.828
-0.383251 -4543.51 -12.9868
304.828 -12.9868 -3978.97

-10786.5 -0.00721039 313.097
-0.00721039 -3655.88 -0.000585003
313.097 -0.000585003 -3622.14

-9168.84 404.659 -610.473
404.659 -2983.98 -218.832
-610.473 -218.832 176.001

-11042.5 0.368189 -304.813
0.368189 -4543.57 -12.9854
-304.813 -12.9854 -3979.03

-10786.5 -0.00721035 -313.079
-0.00721035 -3655.94 0.000584974
-313.079 0.000584974 -3622.2

-9768.56 -0.00987234 -774.021
-0.00987234 -1458.55 0.00122372
-774.021 0.00122372 -3917.83

-6966.12 460.194 -1146.91
460.194 -692.398 -45.7055
-1146.91 -45.7055 -252.943

-7242.78 368.382 -1193.52
368.382 -946.851 -48.6891
-1193.52 -48.6891 -888.814

-7168.63 0 -1194.44
0 -5202.38 0
-1194.44 0 -2249.74

-4973.38 431.363 -1334.77
431.363 2312.07 -36.559
-1334.77 -36.559 2772.49

-5248.26 326.014 -1396.27
326.014 2081.97 -39.7624
-1396.27 -39.7624 2118.52

-6677.19 180.107 -860.091
180.107 -1812.7 -16.9877
-860.091 -16.9877 -4469.39

-13071 -3.94785e-12 -597.201
-3.94785e-12 -12920.1 9.39183e-13
-597.201 9.39183e-13 -12778

-13071 -3.94785e-12 -597.201
-3.94785e-12 -12920.1 9.39183e-13
-597.201 9.39183e-13 -12778

-8292.51 1352.06 1165.45
1352.06 -6054.27 421.472
1165.45 421.472 -3508.7

-16095.5 715.218 401.896
715.218 -15826.4 258.522
401.896 258.522 -16141.2

-16095.5 715.218 401.896
715.218 -15826.4 258.522
401.896 258.522 -16141.2

-6133.3 2086.76 920.763
2086.76 -1067.71 424.305
920.763 424.305 -4129.48

-4768.14 2072.76 1465.36
2072.76 2831.72 539.03
1465.36 539.03 2556.52

-4622.81 2110.77 1453.02
2110.77 2590.87 538.552
1453.02 538.552 3262.73

-8810.66 1134.69 638.657
1134.69 -2342.95 255.758
638.657 255.758 659.405

-6799.16 1686.42 1258.23
1686.42 -253.188 496.918
1258.23 496.918 -469.662

-6654.98 1716.73 1253.97
1716.73 -450.346 496.904
1253.97 496.904 191.421

-7792.85 1229.78 1077.14
1229.78 1385.4 480.502
1077.14 480.502 -429.22

-10145.9 616.315 395.925
616.315 -2924.87 82.2734
395.925 82.2734 -1754.2

-10004.8 638.343 400.516
638.343 -2466.91 74.5081
400.516 74.5081 -1559.24

-7792.63 -1229.79 -1077.15
-1229.79 1385.81 480.507
-1077.15 480.507 -428.833

-10146.1 -616.283 -395.899
-616.283 -2925.2 82.2708
-395.899 82.2708 -1754.55

-10004.9 -638.312 -400.489
-638.312 -2467.25 74.5055
-400.489 74.5055 -1559.58

-8810.39 -1134.73 -638.656
-1134.73 -2342.47 255.76
-638.656 255.76 659.949

-6798.63 -1686.49 -1258.27
-1686.49 -252.414 496.927
-1258.27 496.927 -468.894

-6654.46 -1716.8 -1254.01
-1716.8 -449.584 496.914
-1254.01 496.914 192.213

-6132.96 -2086.79 -920.783
-2086.79 -1067.29 424.31
-920.783 424.31 -4129.1

-4767.54 -2072.83 -1465.41
-2072.83 2832.59 539.04
-1465.41 539.04 2557.39

-4622.21 -2110.84 -1453.07
-2110.84 2591.73 538.563
-1453.07 538.563 3263.63

-8292.06 -1352.11 -1165.48
-1352.11 -6053.72 421.479
-1165.48 421.479 -3508.09

-16095.1 -715.259 -401.92
-715.259 -15826 258.524
-401.92 258.524 -16140.8

-16095.1 -715.259 -401.92
-715.259 -15826 258.524
-401.92 258.524 -16140.8

-12746.5 -564.079 310.059
-564.079 -11263 290.249
310.059 290.249 -8722.94

-16095.5 -715.218 401.896
-715.218 -15826.4 -258.522
401.896 -258.522 -16141.2

-16095.5 -715.218 401.896
-715.218 -15826.4 -258.522
401.896 -258.522 -16141.2

-6133.3 -2086.76 920.763
-2086.76 -1067.71 -424.305
920.763 -424.305 -4129.48

-6434.26 -1682.13 432.637
-1682.13 445.519 -58.2183
432.637 -58.2183 148.603

-5557.94 -1408.88 102.959
-1408.88 730.105 35.5195
102.959 35.5195 2775.28

-8401.44 -1179.52 630.865
-1179.52 -1574.96 206.569
630.865 206.569 1517.73

-6100.57 -1584.66 325.36
-1584.66 902.339 0.570246
325.36 0.570246 607.016

-5210.72 -1301.57 -27.3415
-1301.57 1173.91 90.064
-27.3415 90.064 3246.44

-5718.16 -1043.48 -116.11
-1043.48 2997.29 0.429674
-116.11 0.429674 3484.2

-10025.6 -536.858 418.915
-536.858 -4021.96 558.741
418.915 558.741 275.742

-9637.71 -664.886 400.688
-664.886 -1611.41 411.264
400.688 411.264 -667.218

-5718.17 1043.46 116.102
1043.46 2997.28 0.430963
116.102 0.430963 3484.19

-10025.7 536.832 -418.917
536.832 -4022.28 558.734
-418.917 558.734 275.383

-9637.86 664.854 -400.685
664.854 -1611.75 411.259
-400.685 411.259 -667.561

-8401.17 1179.56 -630.894
1179.56 -1574.48 206.569
-630.894 206.569 1518.27

-6100.34 1584.68 -325.38
1584.68 902.664 0.566898
-325.38 0.566898 607.354

-5210.47 1301.59 27.3282
1301.59 1174.24 90.0619
27.3282 90.0619 3246.82

-6132.96 2086.79 -920.783
2086.79 -1067.29 -424.31
-920.783 -424.31 -4129.1

-6433.71 1682.2 -432.663
1682.2 446.325 -58.219
-432.663 -58.219 149.42

-5557.38 1408.93 -102.97
1408.93 730.899 35.5204
-102.97 35.5204 2776.15

-12746 564.138 -310.087
564.138 -11262.3 290.267
-310.087 290.267 -8722.1

-16095.1 715.259 -401.92
715.259 -15826 -258.524
-401.92 -258.524 -16140.8

-16095.1 715.259 -401.92
715.259 -15826 -258.524
-401.92 -258.524 -16140.8

-6677.55 180.113 860.069
180.113 -1813.16 16.9869
860.069 16.9869 -4469.8

-13071.1 0 597.2
0 -12920.1 0
597.2 0 -12778

-13071.1 0 597.2
0 -12920.1 0
597.2 0 -12778

-11519.8 6.91597e-12 381.177
6.91597e-12 -9957.08 1.43808e-11
381.177 1.43808e-11 -7164.71

-5701.47 178.698 175.233
178.698 796.93 372.017
175.233 372.017 2419.02

-6866.86 428.379 426.154
428.379 -230.561 343.911
426.154 343.911 -266.102

-6973.92 -2.5793 -110.457
-2.5793 2152.05 477.085
-110.457 477.085 1419.34

-5326.86 329.636 54.3045
329.636 1279.24 417.324
54.3045 417.324 2887.46

-6495.76 580.074 328.751
580.074 273.04 387.282
328.751 387.282 192.604

-8761.55 443.088 651.44
443.088 -2212.01 680.252
651.44 680.252 1038.98

-10683.5 13.4679 327.481
13.4679 -3670.44 477.446
327.481 477.446 -3079.62

-10383.4 13.1424 381.423
13.1424 -4102.23 476.24
381.423 476.24 -1006.35

-8761.26 -443.093 -651.469
-443.093 -2211.49 680.262
-651.469 680.262 1039.56

-10683.5 -13.452 -327.485
-13.452 -3670.5 477.443
-327.485 477.443 -3079.69

-10383.4 -13.1318 -381.432
-13.1318 -4102.29 476.239
-381.432 476.239 -1006.42

-6973.81 2.59913 110.447
2.59913 2152.23 477.088
110.447 477.088 1419.53

-5326.61 -329.626 -54.3213
-329.626 1279.58 417.331
-54.3213 417.331 2887.84

-6495.51 -580.07 -328.771
-580.07 273.398 387.288
-328.771 387.288 192.974

-11519.4 1.09307e-15 -381.2
1.09307e-15 -9956.55 -7.85476e-12
-381.2 -7.85476e-12 -7164.1

-5700.9 -178.696 -175.249
-178.696 797.736 372.03
-175.249 372.03 2419.88

-6866.29 -428.39 -426.181
-428.39 -229.722 343.924
-426.181 343.924 -265.256

-6677.19 -180.107 -860.091
-180.107 -1812.7 16.9877
-860.091 16.9877 -4469.39

-13071 -3.94785e-12 -597.201
-3.94785e-12 -12920.1 9.39183e-13
-597.201 9.39183e-13 -12778

-13071 -3.94785e-12 -597.201
-3.94785e-12 -12920.1 9.39183e-13
-597.201 9.39183e-13 -12778

-11519.8 6.91597e-12 381.177
6.91597e-12 -9957.08 1.43808e-11
381.177 1.43808e-11 -7164.71

-13071.1 0 597.2
0 -12920.1 0
597.2 0 -12778

-13071.1 0 597.2
0 -12920.1 0
597.2 0 -12778

-6677.55 -180.113 860.069
-180.113 -1813.16 -16.9869
860.069 -16.9869 -4469.8

-6866.86 -428.379 426.154
-428.379 -230.561 -343.911
426.154 -343.911 -266.102

-5701.47 -178.698 175.233
-178.698 796.93 -372.017
175.233 -372.017 2419.02

-8761.55 -443.088 651.44
-443.088 -2212.01 -680.252
651.44 -680.252 1038.98

-6495.76 -580.074 328.751
-580.074 273.04 -387.282
328.751 -387.282 192.604

-5326.86 -329.636 54.3045
-329.636 1279.24 -417.324
54.3045 -417.324 2887.46

-6973.92 2.5793 -110.457
2.5793 2152.05 -477.085
-110.457 -477.085 1419.34

-10383.4 -13.1424 381.423
-13.1424 -4102.23 -476.24
381.423 -476.24 -1006.35

-10683.5 -13.4679 327.481
-13.4679 -3670.44 -477.446
327.481 -477.446 -3079.62

-6973.81 -2.59913 110.447
-2.59913 2152.23 -477.088
110.447 -477.088 1419.53

-10383.4 13.1318 -381.432
13.1318 -4102.29 -476.239
-381.432 -476.239 -1006.42

-10683.5 13.452 -327.485
13.452 -3670.5 -477.443
-327.485 -477.443 -3079.69

-8761.26 443.093 -651.469
443.093 -2211.49 -680.262
-651.469 -680.262 1039.56

-6495.51 580.07 -328.771
580.07 273.398 -387.288
-328.771 -387.288 192.974

-5326.61 329.626 -54.3213
329.626 1279.58 -417.331
-54.3213 -417.331 2887.84

-6677.19 180.107 -860.091
180.107 -1812.7 -16.9877
-860.091 -16.9877 -4469.39

-6866.29 428.39 -426.181
428.39 -229.722 -343.924
-426.181 -343.924 -265.256

-5700.9 178.696 -175.249
178.696 797.736 -372.03
-175.249 -372.03 2419.88

-11519.4 5.46534e-16 -381.2
5.46534e-16 -9956.55 -3.92738e-12
-381.2 -3.92738e-12 -7164.1

-13071 -1.97392e-12 -597.201
-1.97392e-12 -12920.1 4.69592e-13
-597.201 4.69592e-13 -12778

-13071 -1.97392e-12 -597.201
-1.97392e-12 -12920.1 4.69592e-13
-597.201 4.69592e-13 -12778

-6133.3 2086.76 920.763
2086.76 -1067.71 424.305
920.763 424.305 -4129.48

-16095.5 715.218 401.896
715.218 -15826.4 258.522
401.896 258.522 -16141.2

-16095.5 715.218 401.896
715.218 -15826.4 258.522
401.896 258.522 -16141.2

-12746.5 564.079 310.059
564.079 -11263 -290.249
310.059 -290.249 -8722.94

-5557.94 1408.88 102.959
1408.88 730.105 -35.5195
102.959 -35.5195 2775.28

-6434.26 1682.13 432.637
1682.13 445.519 58.2183
432.637 58.2183 148.603

-5718.16 1043.48 -116.11
1043.48 2997.29 -0.429674
-116.11 -0.429674 3484.2

-5210.72 1301.57 -27.3415
1301.57 1173.91 -90.064
-27.3415 -90.064 3246.44

-6100.57 1584.66 325.36
1584.66 902.339 -0.570246
325.36 -0.570246 607.016

-8401.44 1179.52 630.865
1179.52 -1574.96 -206.569
630.865 -206.569 1517.73

-9637.71 664.886 400.688
664.886 -1611.41 -411.264
400.688 -411.264 -667.218

-10025.6 536.858 418.915
536.858 -4021.96 -558.741
418.915 -558.741 275.742

-8401.17 -1179.56 -630.894
-1179.56 -1574.48 -206.569
-630.894 -206.569 1518.27

-9637.86 -664.854 -400.685
-664.854 -1611.75 -411.259
-400.685 -411.259 -667.561

-10025.7 -536.832 -418.917
-536.832 -4022.28 -558.734
-418.917 -558.734 275.383

-5718.17 -1043.46 116.102
-1043.46 2997.28 -0.430963
116.102 -0.430963 3484.19

-5210.47 -1301.59 27.3282
-1301.59 1174.24 -90.0619
27.3282 -90.0619 3246.82

-6100.34 -1584.68 -325.38
-1584.68 902.664 -0.566898
-325.38 -0.566898 607.354

-12746 -564.138 -310.087
-564.138 -11262.3 -290.267
-310.087 -290.267 -8722.1

-5557.38 -1408.93 -102.97
-1408.93 730.899 -35.5204
-102.97 -35.5204 2776.15

-6433.71 -1682.2 -432.663
-1682.2 446.325 58.219
-432.663 58.219 149.42

-6132.96 -2086.79 -920.783
-2086.79 -1067.29 424.31
-920.783 424.31 -4129.1

-16095.1 -715.259 -401.92
-715.259 -15826 258.524
-401.92 258.524 -16140.8

-16095.1 -715.259 -401.92
-715.259 -15826 258.524
-401.92 258.524 -16140.8

