# vtk DataFile Version 3.0
vtk output at time 0.9
ASCII
DATASET UNSTRUCTURED_GRID
POINTS 125 float
0 0 0 0 0 0.05 0 0 0.1 
0 0 0.15 0 0 0.2 0 0.05 0 
0 0.05 0.05 0 0.05 0.1 0 0.05 0.15 
0 0.05 0.2 0 0.1 0 0 0.1 0.05 
0 0.1 0.1 0 0.1 0.15 0 0.1 0.2 
0 0.15 0 0 0.15 0.05 0 0.15 0.1 
0 0.15 0.15 0 0.15 0.2 0 0.2 0 
0 0.2 0.05 0 0.2 0.1 0 0.2 0.15 
0 0.2 0.2 0.0412415 -0.00652908 -0.0100371 0.0481284 -0.0087441 0.0450393 
0.0430037 -0.00802378 0.1 0.0481284 -0.0087441 0.154961 0.0412415 -0.00652908 0.210037 
0.0386498 0.046587 -0.00826045 0.0442704 0.0456798 0.0455767 0.0388392 0.0458812 0.1 
0.0442704 0.0456798 0.154423 0.0386498 0.046587 0.20826 0.0424562 0.1 -0.00944837 
0.0491823 0.1 0.0453491 0.0442592 0.1 0.1 0.0491823 0.1 0.154651 
0.0424562 0.1 0.209448 0.0386498 0.153413 -0.00826045 0.0442704 0.15432 0.0455767 
0.0388392 0.154119 0.1 0.0442704 0.15432 0.154423 0.0386498 0.153413 0.20826 
0.0412415 0.206529 -0.0100371 0.0481284 0.208744 0.0450393 0.0430037 0.208024 0.1 
0.0481284 0.208744 0.154961 0.0412415 0.206529 0.210037 0.0775 -0.0110458 -0.0175139 
0.0775 -0.0139098 0.0419641 0.0775 -0.0143136 0.1 0.0775 -0.0139098 0.158036 
0.0775 -0.0110458 0.217514 0.0774999 0.0438439 -0.0159645 0.0774999 0.0426863 0.0420248 
0.0774999 0.0422122 0.1 0.0774999 0.0426863 0.157975 0.0774999 0.0438439 0.215964 
0.0775 0.1 -0.0166368 0.0775 0.1 0.0424755 0.0774999 0.1 0.1 
0.0775 0.1 0.157524 0.0775 0.1 0.216637 0.0774999 0.156156 -0.0159645 
0.0774999 0.157314 0.0420248 0.0774999 0.157788 0.1 0.0774999 0.157314 0.157975 
0.0774999 0.156156 0.215964 0.0775 0.211046 -0.0175139 0.0775 0.21391 0.0419641 
0.0775 0.214314 0.1 0.0775 0.21391 0.158036 0.0775 0.211046 0.217514 
0.113758 -0.00652905 -0.0100371 0.106872 -0.00874407 0.0450393 0.111996 -0.00802375 0.1 
0.106872 -0.00874407 0.154961 0.113758 -0.00652905 0.210037 0.11635 0.046587 -0.00826044 
0.11073 0.0456798 0.0455768 0.116161 0.0458812 0.1 0.11073 0.0456798 0.154423 
0.11635 0.046587 0.20826 0.112544 0.1 -0.00944836 0.105818 0.1 0.0453491 
0.110741 0.1 0.1 0.105818 0.1 0.154651 0.112544 0.1 0.209448 
0.11635 0.153413 -0.00826044 0.11073 0.15432 0.0455768 0.116161 0.154119 0.1 
0.11073 0.15432 0.154423 0.11635 0.153413 0.20826 0.113758 0.206529 -0.0100371 
0.106872 0.208744 0.0450393 0.111996 0.208024 0.1 0.106872 0.208744 0.154961 
0.113758 0.206529 0.210037 0.155 0 0 0.155 0 0.05 
0.155 0 0.1 0.155 0 0.15 0.155 0 0.2 
0.155 0.05 0 0.155 0.05 0.05 0.155 0.05 0.1 
0.155 0.05 0.15 0.155 0.05 0.2 0.155 0.1 0 
0.155 0.1 0.05 0.155 0.1 0.1 0.155 0.1 0.15 
0.155 0.1 0.2 0.155 0.15 0 0.155 0.15 0.05 
0.155 0.15 0.1 0.155 0.15 0.15 0.155 0.15 0.2 
0.155 0.2 0 0.155 0.2 0.05 0.155 0.2 0.1 
0.155 0.2 0.15 0.155 0.2 0.2 

CELLS 384 1920
4 5 6 26 31 
4 5 6 1 26 
4 0 5 1 26 
4 0 5 26 25 
4 25 5 26 30 
4 30 5 26 31 
4 26 25 55 50 
4 26 25 30 55 
4 31 26 30 55 
4 26 31 56 55 
4 26 56 51 55 
4 26 51 50 55 
4 55 56 76 81 
4 55 56 51 76 
4 50 55 51 76 
4 50 55 76 75 
4 75 55 76 80 
4 80 55 76 81 
4 76 75 105 100 
4 76 75 80 105 
4 81 76 80 105 
4 76 81 106 105 
4 76 106 101 105 
4 76 101 100 105 
4 10 5 35 36 
4 5 10 11 36 
4 6 5 11 36 
4 5 6 31 36 
4 5 31 30 36 
4 5 30 35 36 
4 36 31 55 56 
4 36 31 30 55 
4 35 36 30 55 
4 35 36 55 60 
4 60 36 55 61 
4 61 36 55 56 
4 60 55 85 86 
4 55 60 61 86 
4 56 55 61 86 
4 55 56 81 86 
4 55 81 80 86 
4 55 80 85 86 
4 86 81 105 106 
4 86 81 80 105 
4 85 86 80 105 
4 85 86 105 110 
4 110 86 105 111 
4 111 86 105 106 
4 15 16 36 41 
4 15 16 11 36 
4 10 15 11 36 
4 10 15 36 35 
4 35 15 36 40 
4 40 15 36 41 
4 36 35 65 60 
4 36 35 40 65 
4 41 36 40 65 
4 36 41 66 65 
4 36 66 61 65 
4 36 61 60 65 
4 65 66 86 91 
4 65 66 61 86 
4 60 65 61 86 
4 60 65 86 85 
4 85 65 86 90 
4 90 65 86 91 
4 86 85 115 110 
4 86 85 90 115 
4 91 86 90 115 
4 86 91 116 115 
4 86 116 111 115 
4 86 111 110 115 
4 20 15 45 46 
4 15 20 21 46 
4 16 15 21 46 
4 15 16 41 46 
4 15 41 40 46 
4 15 40 45 46 
4 46 41 65 66 
4 46 41 40 65 
4 45 46 40 65 
4 45 46 65 70 
4 70 46 65 71 
4 71 46 65 66 
4 70 65 95 96 
4 65 70 71 96 
4 66 65 71 96 
4 65 66 91 96 
4 65 91 90 96 
4 65 90 95 96 
4 96 91 115 116 
4 96 91 90 115 
4 95 96 90 115 
4 95 96 115 120 
4 120 96 115 121 
4 121 96 115 116 
4 7 2 26 27 
4 7 2 1 26 
4 6 7 1 26 
4 6 7 26 31 
4 31 7 26 32 
4 32 7 26 27 
4 31 26 56 57 
4 26 31 32 57 
4 27 26 32 57 
4 26 27 52 57 
4 26 52 51 57 
4 26 51 56 57 
4 57 52 76 77 
4 57 52 51 76 
4 56 57 51 76 
4 56 57 76 81 
4 81 57 76 82 
4 82 57 76 77 
4 81 76 106 107 
4 76 81 82 107 
4 77 76 82 107 
4 76 77 102 107 
4 76 102 101 107 
4 76 101 106 107 
4 7 6 36 31 
4 7 6 11 36 
4 12 7 11 36 
4 7 12 37 36 
4 7 37 32 36 
4 7 32 31 36 
4 36 37 57 62 
4 36 37 32 57 
4 31 36 32 57 
4 31 36 57 56 
4 56 36 57 61 
4 61 36 57 62 
4 57 56 86 81 
4 57 56 61 86 
4 62 57 61 86 
4 57 62 87 86 
4 57 87 82 86 
4 57 82 81 86 
4 86 87 107 112 
4 86 87 82 107 
4 81 86 82 107 
4 81 86 107 106 
4 106 86 107 111 
4 111 86 107 112 
4 17 12 36 37 
4 17 12 11 36 
4 16 17 11 36 
4 16 17 36 41 
4 41 17 36 42 
4 42 17 36 37 
4 41 36 66 67 
4 36 41 42 67 
4 37 36 42 67 
4 36 37 62 67 
4 36 62 61 67 
4 36 61 66 67 
4 67 62 86 87 
4 67 62 61 86 
4 66 67 61 86 
4 66 67 86 91 
4 91 67 86 92 
4 92 67 86 87 
4 91 86 116 117 
4 86 91 92 117 
4 87 86 92 117 
4 86 87 112 117 
4 86 112 111 117 
4 86 111 116 117 
4 17 16 46 41 
4 17 16 21 46 
4 22 17 21 46 
4 17 22 47 46 
4 17 47 42 46 
4 17 42 41 46 
4 46 47 67 72 
4 46 47 42 67 
4 41 46 42 67 
4 41 46 67 66 
4 66 46 67 71 
4 71 46 67 72 
4 67 66 96 91 
4 67 66 71 96 
4 72 67 71 96 
4 67 72 97 96 
4 67 97 92 96 
4 67 92 91 96 
4 96 97 117 122 
4 96 97 92 117 
4 91 96 92 117 
4 91 96 117 116 
4 116 96 117 121 
4 121 96 117 122 
4 7 8 28 33 
4 7 8 3 28 
4 2 7 3 28 
4 2 7 28 27 
4 27 7 28 32 
4 32 7 28 33 
4 28 27 57 52 
4 28 27 32 57 
4 33 28 32 57 
4 28 33 58 57 
4 28 58 53 57 
4 28 53 52 57 
4 57 58 78 83 
4 57 58 53 78 
4 52 57 53 78 
4 52 57 78 77 
4 77 57 78 82 
4 82 57 78 83 
4 78 77 107 102 
4 78 77 82 107 
4 83 78 82 107 
4 78 83 108 107 
4 78 108 103 107 
4 78 103 102 107 
4 12 7 37 38 
4 7 12 13 38 
4 8 7 13 38 
4 7 8 33 38 
4 7 33 32 38 
4 7 32 37 38 
4 38 33 57 58 
4 38 33 32 57 
4 37 38 32 57 
4 37 38 57 62 
4 62 38 57 63 
4 63 38 57 58 
4 62 57 87 88 
4 57 62 63 88 
4 58 57 63 88 
4 57 58 83 88 
4 57 83 82 88 
4 57 82 87 88 
4 88 83 107 108 
4 88 83 82 107 
4 87 88 82 107 
4 87 88 107 112 
4 112 88 107 113 
4 113 88 107 108 
4 17 18 38 43 
4 17 18 13 38 
4 12 17 13 38 
4 12 17 38 37 
4 37 17 38 42 
4 42 17 38 43 
4 38 37 67 62 
4 38 37 42 67 
4 43 38 42 67 
4 38 43 68 67 
4 38 68 63 67 
4 38 63 62 67 
4 67 68 88 93 
4 67 68 63 88 
4 62 67 63 88 
4 62 67 88 87 
4 87 67 88 92 
4 92 67 88 93 
4 88 87 117 112 
4 88 87 92 117 
4 93 88 92 117 
4 88 93 118 117 
4 88 118 113 117 
4 88 113 112 117 
4 22 17 47 48 
4 17 22 23 48 
4 18 17 23 48 
4 17 18 43 48 
4 17 43 42 48 
4 17 42 47 48 
4 48 43 67 68 
4 48 43 42 67 
4 47 48 42 67 
4 47 48 67 72 
4 72 48 67 73 
4 73 48 67 68 
4 72 67 97 98 
4 67 72 73 98 
4 68 67 73 98 
4 67 68 93 98 
4 67 93 92 98 
4 67 92 97 98 
4 98 93 117 118 
4 98 93 92 117 
4 97 98 92 117 
4 97 98 117 122 
4 122 98 117 123 
4 123 98 117 118 
4 9 4 28 29 
4 9 4 3 28 
4 8 9 3 28 
4 8 9 28 33 
4 33 9 28 34 
4 34 9 28 29 
4 33 28 58 59 
4 28 33 34 59 
4 29 28 34 59 
4 28 29 54 59 
4 28 54 53 59 
4 28 53 58 59 
4 59 54 78 79 
4 59 54 53 78 
4 58 59 53 78 
4 58 59 78 83 
4 83 59 78 84 
4 84 59 78 79 
4 83 78 108 109 
4 78 83 84 109 
4 79 78 84 109 
4 78 79 104 109 
4 78 104 103 109 
4 78 103 108 109 
4 9 8 38 33 
4 9 8 13 38 
4 14 9 13 38 
4 9 14 39 38 
4 9 39 34 38 
4 9 34 33 38 
4 38 39 59 64 
4 38 39 34 59 
4 33 38 34 59 
4 33 38 59 58 
4 58 38 59 63 
4 63 38 59 64 
4 59 58 88 83 
4 59 58 63 88 
4 64 59 63 88 
4 59 64 89 88 
4 59 89 84 88 
4 59 84 83 88 
4 88 89 109 114 
4 88 89 84 109 
4 83 88 84 109 
4 83 88 109 108 
4 108 88 109 113 
4 113 88 109 114 
4 19 14 38 39 
4 19 14 13 38 
4 18 19 13 38 
4 18 19 38 43 
4 43 19 38 44 
4 44 19 38 39 
4 43 38 68 69 
4 38 43 44 69 
4 39 38 44 69 
4 38 39 64 69 
4 38 64 63 69 
4 38 63 68 69 
4 69 64 88 89 
4 69 64 63 88 
4 68 69 63 88 
4 68 69 88 93 
4 93 69 88 94 
4 94 69 88 89 
4 93 88 118 119 
4 88 93 94 119 
4 89 88 94 119 
4 88 89 114 119 
4 88 114 113 119 
4 88 113 118 119 
4 19 18 48 43 
4 19 18 23 48 
4 24 19 23 48 
4 19 24 49 48 
4 19 49 44 48 
4 19 44 43 48 
4 48 49 69 74 
4 48 49 44 69 
4 43 48 44 69 
4 43 48 69 68 
4 68 48 69 73 
4 73 48 69 74 
4 69 68 98 93 
4 69 68 73 98 
4 74 69 73 98 
4 69 74 99 98 
4 69 99 94 98 
4 69 94 93 98 
4 98 99 119 124 
4 98 99 94 119 
4 93 98 94 119 
4 93 98 119 118 
4 118 98 119 123 
4 123 98 119 124 

CELL_TYPES 384
10
10
10
10
10
10
10
10
10
10
10
10
10
10
10
10
10
10
10
10
10
10
10
10
10
10
10
10
10
10
10
10
10
10
10
10
10
10
10
10
10
10
10
10
10
10
10
10
10
10
10
10
10
10
10
10
10
10
10
10
10
10
10
10
10
10
10
10
10
10
10
10
10
10
10
10
10
10
10
10
10
10
10
10
10
10
10
10
10
10
10
10
10
10
10
10
10
10
10
10
10
10
10
10
10
10
10
10
10
10
10
10
10
10
10
10
10
10
10
10
10
10
10
10
10
10
10
10
10
10
10
10
10
10
10
10
10
10
10
10
10
10
10
10
10
10
10
10
10
10
10
10
10
10
10
10
10
10
10
10
10
10
10
10
10
10
10
10
10
10
10
10
10
10
10
10
10
10
10
10
10
10
10
10
10
10
10
10
10
10
10
10
10
10
10
10
10
10
10
10
10
10
10
10
10
10
10
10
10
10
10
10
10
10
10
10
10
10
10
10
10
10
10
10
10
10
10
10
10
10
10
10
10
10
10
10
10
10
10
10
10
10
10
10
10
10
10
10
10
10
10
10
10
10
10
10
10
10
10
10
10
10
10
10
10
10
10
10
10
10
10
10
10
10
10
10
10
10
10
10
10
10
10
10
10
10
10
10
10
10
10
10
10
10
10
10
10
10
10
10
10
10
10
10
10
10
10
10
10
10
10
10
10
10
10
10
10
10
10
10
10
10
10
10
10
10
10
10
10
10
10
10
10
10
10
10
10
10
10
10
10
10
10
10
10
10
10
10
10
10
10
10
10
10
10
10
10
10
10
10
10
10
10
10
10
10
10
10
10
10
10
10
10
10
10
10
10
10
10
10
10
10
10
10

POINT_DATA 125
VECTORS displacement float
0 0 0
0 0 0
0 0 0
0 0 0
0 0 0
0 0 0
0 0 0
0 0 0
0 0 0
0 0 0
0 0 0
0 0 0
0 0 0
0 0 0
0 0 0
0 0 0
0 0 0
0 0 0
0 0 0
0 0 0
0 0 0
0 0 0
0 0 0
0 0 0
0 0 0
-0.00875852 -0.00652908 -0.0100371
-0.00187162 -0.0087441 -0.00496071
-0.00699627 -0.00802378 1.38778e-17
-0.00187162 -0.0087441 0.00496071
-0.00875852 -0.00652908 0.0100371
-0.0113502 -0.00341304 -0.00826045
-0.00572963 -0.00432022 -0.00442326
-0.0111608 -0.00411881 0
-0.00572963 -0.00432022 0.00442326
-0.0113502 -0.00341304 0.00826045
-0.0075438 0 -0.00944837
-0.000817706 1.38778e-17 -0.00465088
-0.00574077 1.38778e-17 0
-0.000817706 0 0.00465088
-0.0075438 0 0.00944837
-0.0113502 0.00341304 -0.00826045
-0.00572963 0.00432022 -0.00442326
-0.0111608 0.00411881 0
-0.00572963 0.00432022 0.00442326
-0.0113502 0.00341304 0.00826045
-0.00875852 0.00652908 -0.0100371
-0.00187162 0.0087441 -0.00496071
-0.00699627 0.00802378 -2.77556e-17
-0.00187162 0.0087441 0.00496071
-0.00875852 0.00652908 0.0100371
-0.0225 -0.0110458 -0.0175139
-0.0225 -0.0139098 -0.00803589
-0.0225 -0.0143136 0
-0.0225 -0.0139098 0.00803589
-0.0225 -0.0110458 0.0175139
-0.0225001 -0.00615613 -0.0159645
-0.0225001 -0.00731371 -0.0079752
-0.0225001 -0.00778778 0
-0.0225001 -0.00731371 0.0079752
-0.0225001 -0.00615613 0.0159645
-0.0225 0 -0.0166368
-0.0225 1.38778e-17 -0.00752447
-0.0225001 0 1.38778e-17
-0.0225 0 0.00752447
-0.0225 0 0.0166368
-0.0225001 0.00615613 -0.0159645
-0.0225001 0.00731371 -0.0079752
-0.0225001 0.00778778 0
-0.0225001 0.00731371 0.0079752
-0.0225001 0.00615613 0.0159645
-0.0225 0.0110458 -0.0175139
-0.0225 0.0139098 -0.00803589
-0.0225 0.0143136 0
-0.0225 0.0139098 0.00803589
-0.0225 0.0110458 0.0175139
-0.0362415 -0.00652905 -0.0100371
-0.0431284 -0.00874407 -0.0049607
-0.0380038 -0.00802375 0
-0.0431284 -0.00874407 0.0049607
-0.0362415 -0.00652905 0.0100371
-0.0336498 -0.00341303 -0.00826044
-0.0392704 -0.00432021 -0.00442324
-0.0338393 -0.0041188 0
-0.0392704 -0.00432021 0.00442324
-0.0336498 -0.00341303 0.00826044
-0.0374562 0 -0.00944836
-0.0441823 0 -0.00465087
-0.0392593 0 1.38778e-17
-0.0441823 1.38778e-17 0.00465087
-0.0374562 -1.38778e-17 0.00944836
-0.0336498 0.00341303 -0.00826044
-0.0392704 0.00432021 -0.00442324
-0.0338393 0.0041188 0
-0.0392704 0.00432021 0.00442324
-0.0336498 0.00341303 0.00826044
-0.0362415 0.00652905 -0.0100371
-0.0431284 0.00874407 -0.0049607
-0.0380038 0.00802375 0
-0.0431284 0.00874407 0.0049607
-0.0362415 0.00652905 0.0100371
-0.045 0 0
-0.045 0 0
-0.045 0 0
-0.045 0 0
-0.045 0 0
-0.045 0 0
-0.045 0 0
-0.045 0 0
-0.045 0 0
-0.045 0 0
-0.045 0 0
-0.045 0 0
-0.045 0 0
-0.045 0 0
-0.045 0 0
-0.045 0 0
-0.045 0 0
-0.045 0 0
-0.045 0 0
-0.045 0 0
-0.045 0 0
-0.045 0 0
-0.045 0 0
-0.045 0 0
-0.045 0 0

CELL_DATA 384
TENSORS stress float
-7537.15 -2781.36 -1088.58
-2781.36 -789.435 722.55
-1088.58 722.55 -5323.87

-17959.4 -610.309 -346.241
-610.309 -17808.7 462.129
-346.241 462.129 -18361.1

-17959.4 -610.309 -346.241
-610.309 -17808.7 462.129
-346.241 462.129 -18361.1

-16015.2 -79.1294 -26.6439
-79.1294 -15764.6 -276.039
-26.6439 -276.039 -12810.9

-6683 -1806.35 407.65
-1806.35 1486.3 -53.4713
407.65 -53.4713 4471.88

-7889.1 -2092.52 -123.941
-2092.52 756.142 124.167
-123.941 124.167 207.944

-6979.57 -1202.64 751.154
-1202.64 4220.99 -119.254
751.154 -119.254 4864.6

-6306.24 -1713.11 579.045
-1713.11 2049.34 -155.357
579.045 -155.357 5075.37

-7539.86 -2019.94 5.7093
-2019.94 1343.5 16.4761
5.7093 16.4761 804.699

-9945.32 -1016.11 -569.886
-1016.11 -3834.95 -194.039
-569.886 -194.039 1031.55

-9644.47 -511.44 -341.49
-511.44 -1378.23 -655.697
-341.49 -655.697 674.259

-10278 -271.353 -339.216
-271.353 -5969.04 -934.491
-339.216 -934.491 1173.89

-9945.04 1016.18 569.926
1016.18 -3834.21 -194.039
569.926 -194.039 1032.4

-9644.58 511.402 341.485
511.402 -1378.63 -655.692
341.485 -655.692 673.853

-10278.1 271.326 339.218
271.326 -5969.42 -934.481
339.218 -934.481 1173.46

-6979.56 1202.62 -751.145
1202.62 4221.02 -119.251
-751.145 -119.251 4864.64

-6306 1713.14 -579.04
1713.14 2049.75 -155.352
-579.04 -155.352 5075.84

-7539.61 2019.99 -5.69289
2019.99 1343.94 16.4838
-5.69289 16.4838 805.16

-16014.7 79.2095 26.6573
79.2095 -15763.9 -276.055
26.6573 -276.055 -12810

-6682.48 1806.44 -407.658
1806.44 1487.2 -53.469
-407.658 -53.469 4472.88

-7888.58 2092.63 123.959
2092.63 757.094 124.173
123.959 124.173 208.917

-7536.84 2781.42 1088.61
2781.42 -789.007 722.557
1088.61 722.557 -5323.49

-17959.1 610.357 346.269
610.357 -17808.4 462.131
346.269 462.131 -18360.8

-17959.1 610.357 346.269
610.357 -17808.4 462.131
346.269 462.131 -18360.8

-14563.9 5.9603e-14 -116.501
5.9603e-14 -13666.1 7.27597e-12
-116.501 7.27597e-12 -10113.1

-13215.2 3.86923e-12 -810.439
3.86923e-12 -13122.7 -1.29598e-12
-810.439 -1.29598e-12 -12851.2

-13215.2 3.86923e-12 -810.439
3.86923e-12 -13122.7 -1.29598e-12
-810.439 -1.29598e-12 -12851.2

-8375.53 489.289 -962.637
489.289 -2072.96 2.96178
-962.637 2.96178 -5773

-8507.29 746.701 -118.54
746.701 -396.727 -376.012
-118.54 -376.012 -419.863

-6911.99 450.565 312.125
450.565 1468.51 -416.359
312.125 -416.359 3982.29

-10409.4 544.032 -618.441
544.032 -4868.3 -942.813
-618.441 -942.813 244.488

-8090.25 930.808 -10.5414
930.808 281.946 -451.018
-10.5414 -451.018 177.218

-6483.36 633.768 465.362
633.768 2106.02 -497.343
465.362 -497.343 4586.54

-8490.2 -17.6375 645.077
-17.6375 2600.42 -493.217
645.077 -493.217 1366.69

-10238 14.4816 -301.118
14.4816 -5432.91 -558.12
-301.118 -558.12 -235.887

-10138.3 15.8204 -258.938
15.8204 -3249.98 -614.152
-258.938 -614.152 -1954.42

-8490.06 17.66 -645.078
17.66 2600.75 -493.223
-645.078 -493.223 1367.01

-10238 -14.4742 301.128
-14.4742 -5432.97 -558.118
301.128 -558.118 -235.952

-10138.3 -15.8044 258.939
-15.8044 -3250.05 -614.15
258.939 -614.15 -1954.48

-10409.1 -544.07 618.481
-544.07 -4867.52 -942.83
618.481 -942.83 245.396

-8089.98 -930.819 10.5561
-930.819 282.438 -451.026
10.5561 -451.026 177.729

-6483.09 -633.766 -465.355
-633.766 2106.47 -497.35
-465.355 -497.35 4587.05

-8375.19 -489.29 962.67
-489.29 -2072.48 2.96269
962.67 2.96269 -5772.58

-8506.75 -746.735 118.557
-746.735 -395.728 -376.027
118.557 -376.027 -418.847

-6911.45 -450.576 -312.128
-450.576 1469.46 -416.374
-312.128 -416.374 3983.32

-14563.5 0 116.514
0 -13665.5 0
116.514 0 -10112.4

-13215.2 0 810.44
0 -13122.6 0
810.44 0 -12851.2

-13215.2 0 810.44
0 -13122.6 0
810.44 0 -12851.2

-8375.53 -489.289 -962.637
-489.289 -2072.96 -2.96178
-962.637 -2.96178 -5773

-13215.2 3.86923e-12 -810.439
3.86923e-12 -13122.7 -1.29598e-12
-810.439 -1.29598e-12 -12851.2

-13215.2 3.86923e-12 -810.439
3.86923e-12 -13122.7 -1.29598e-12
-810.439 -1.29598e-12 -12851.2

-14563.9 5.9603e-14 -116.501
5.9603e-14 -13666.1 7.27597e-12
-116.501 7.27597e-12 -10113.1

-6911.99 -450.565 312.125
-450.565 1468.51 416.359
312.125 416.359 3982.29

-8507.29 -746.701 -118.54
-746.701 -396.727 376.012
-118.54 376.012 -419.863

-8490.2 17.6375 645.077
17.6375 2600.42 493.217
645.077 493.217 1366.69

-6483.36 -633.768 465.362
-633.768 2106.02 497.343
465.362 497.343 4586.54

-8090.25 -930.808 -10.5414
-930.808 281.946 451.018
-10.5414 451.018 177.218

-10409.4 -544.032 -618.441
-544.032 -4868.3 942.813
-618.441 942.813 244.488

-10138.3 -15.8204 -258.938
-15.8204 -3249.98 614.152
-258.938 614.152 -1954.42

-10238 -14.4816 -301.118
-14.4816 -5432.91 558.12
-301.118 558.12 -235.887

-10409.1 544.07 618.481
544.07 -4867.52 942.83
618.481 942.83 245.396

-10138.3 15.8044 258.939
15.8044 -3250.05 614.15
258.939 614.15 -1954.48

-10238 14.4742 301.128
14.4742 -5432.97 558.118
301.128 558.118 -235.952

-8490.06 -17.66 -645.078
-17.66 2600.75 493.223
-645.078 493.223 1367.01

-6483.09 633.766 -465.355
633.766 2106.47 497.35
-465.355 497.35 4587.05

-8089.98 930.819 10.5561
930.819 282.438 451.026
10.5561 451.026 177.729

-14563.5 0 116.514
0 -13665.5 0
116.514 0 -10112.4

-6911.45 450.576 -312.128
450.576 1469.46 416.374
-312.128 416.374 3983.32

-8506.75 746.735 118.557
746.735 -395.728 376.027
118.557 376.027 -418.847

-8375.19 489.29 962.67
489.29 -2072.48 -2.96269
962.67 -2.96269 -5772.58

-13215.2 0 810.44
0 -13122.6 0
810.44 0 -12851.2

-13215.2 0 810.44
0 -13122.6 0
810.44 0 -12851.2

-16015.2 79.1294 -26.6439
79.1294 -15764.6 276.039
-26.6439 276.039 -12810.9

-17959.4 610.309 -346.241
610.309 -17808.7 -462.129
-346.241 -462.129 -18361.1

-17959.4 610.309 -346.241
610.309 -17808.7 -462.129
-346.241 -462.129 -18361.1

-7537.15 2781.36 -1088.58
2781.36 -789.435 -722.55
-1088.58 -722.55 -5323.87

-7889.1 2092.52 -123.941
2092.52 756.142 -124.167
-123.941 -124.167 207.944

-6683 1806.35 407.65
1806.35 1486.3 53.4713
407.65 53.4713 4471.88

-9945.32 1016.11 -569.886
1016.11 -3834.95 194.039
-569.886 194.039 1031.55

-7539.86 2019.94 5.7093
2019.94 1343.5 -16.4761
5.7093 -16.4761 804.699

-6306.24 1713.11 579.045
1713.11 2049.34 155.357
579.045 155.357 5075.37

-6979.57 1202.64 751.154
1202.64 4220.99 119.254
751.154 119.254 4864.6

-10278 271.353 -339.216
271.353 -5969.04 934.491
-339.216 934.491 1173.89

-9644.47 511.44 -341.49
511.44 -1378.23 655.697
-341.49 655.697 674.259

-6979.56 -1202.62 -751.145
-1202.62 4221.02 119.251
-751.145 119.251 4864.64

-10278.1 -271.326 339.218
-271.326 -5969.42 934.481
339.218 934.481 1173.46

-9644.58 -511.402 341.485
-511.402 -1378.63 655.692
341.485 655.692 673.853

-9945.04 -1016.18 569.926
-1016.18 -3834.21 194.039
569.926 194.039 1032.4

-7539.61 -2019.99 -5.69289
-2019.99 1343.94 -16.4838
-5.69289 -16.4838 805.16

-6306 -1713.14 -579.04
-1713.14 2049.75 155.352
-579.04 155.352 5075.84

-7536.84 -2781.42 1088.61
-2781.42 -789.007 -722.557
1088.61 -722.557 -5323.49

-7888.58 -2092.63 123.959
-2092.63 757.094 -124.173
123.959 -124.173 208.917

-6682.48 -1806.44 -407.658
-1806.44 1487.2 53.469
-407.658 53.469 4472.88

-16014.7 -79.2095 26.6573
-79.2095 -15763.9 276.055
26.6573 276.055 -12810

-17959.1 -610.357 346.269
-610.357 -17808.4 -462.131
346.269 -462.131 -18360.8

-17959.1 -610.357 346.269
-610.357 -17808.4 -462.131
346.269 -462.131 -18360.8

-10325.9 -1334.54 -1576.98
-1334.54 -8062.2 684.845
-1576.98 684.845 -4574.95

-17959.4 -610.309 -346.241
-610.309 -17808.7 462.129
-346.241 462.129 -18361.1

-17959.4 -610.309 -346.241
-610.309 -17808.7 462.129
-346.241 462.129 -18361.1

-7537.15 -2781.36 -1088.58
-2781.36 -789.435 722.55
-1088.58 722.55 -5323.87

-5712.41 -2759.65 -2215.15
-2759.65 4378.66 942.34
-2215.15 942.34 3973.82

-5408.55 -2871.41 -2218.35
-2871.41 4279.97 938.436
-2218.35 938.436 5268.61

-10268.4 -946.563 -586.994
-946.563 -4701.63 314.566
-586.994 314.566 39.4393

-8354.66 -2029.69 -1712.48
-2029.69 -621.721 857.885
-1712.48 857.885 -909.92

-8053.96 -2112.39 -1742.68
-2112.39 -632.598 856.019
-1742.68 856.019 290.542

-9349.86 -1204.49 -1264.85
-1204.49 927.398 759.969
-1264.85 759.969 -1672.71

-10009.8 -458.555 -334.194
-458.555 -2867.86 -47.3063
-334.194 -47.3063 -663.743

-9913.93 -480.291 -340.604
-480.291 -2404.49 -57.1364
-340.604 -57.1364 -404.534

-9349.65 1204.51 1264.89
1204.51 927.981 759.974
1264.89 759.974 -1672.17

-10009.9 458.518 334.164
458.518 -2868.26 -47.3096
334.164 -47.3096 -664.156

-9914.04 480.256 340.571
480.256 -2404.88 -57.1398
340.571 -57.1398 -404.946

-10268.1 946.64 587.001
946.64 -4700.89 314.566
587.001 314.566 40.2843

-8354.11 2029.81 1712.57
2029.81 -620.69 857.896
1712.57 857.896 -908.899

-8053.42 2112.51 1742.77
2112.51 -631.61 856.032
1742.77 856.032 291.58

-7536.84 2781.42 1088.61
2781.42 -789.007 722.557
1088.61 722.557 -5323.49

-5711.8 2759.79 2215.24
2759.79 4379.77 942.352
2215.24 942.352 3974.92

-5407.95 2871.54 2218.45
2871.54 4281.03 938.449
2218.45 938.449 5269.73

-10325.5 1334.62 1577.03
1334.62 -8061.62 684.854
1577.03 684.854 -4574.28

-17959.1 610.357 346.269
610.357 -17808.4 462.131
346.269 462.131 -18360.8

-17959.1 610.357 346.269
610.357 -17808.4 462.131
346.269 462.131 -18360.8

-8375.53 489.289 -962.637
489.289 -2072.96 2.96178
-962.637 2.96178 -5773

-13215.2 3.86923e-12 -810.439
3.86923e-12 -13122.7 -1.29598e-12
-810.439 -1.29598e-12 -12851.2

-13215.2 3.86923e-12 -810.439
3.86923e-12 -13122.7 -1.29598e-12
-810.439 -1.29598e-12 -12851.2

-8856.98 4.47797e-12 -1705.56
4.47797e-12 -6766.89 -9.68418e-13
-1705.56 -9.68418e-13 -2494.94

-6030.98 954.656 -1968.05
954.656 3598.46 -136.898
-1968.05 -136.898 4322.03

-6427.21 740.079 -2065.98
740.079 3051.92 -137.204
-2065.98 -137.204 3274.68

-11440.4 0.00967819 -591.962
0.00967819 -3593.49 -0.00297879
-591.962 -0.00297879 -7353.44

-8594.3 833.681 -1526.57
833.681 -1199.95 -156.396
-1526.57 -156.396 -520.65

-8995.74 661.107 -1577.7
661.107 -1795.89 -156.332
-1577.7 -156.332 -1540.74

-10731.6 476.276 -556.293
476.276 -5734.87 -439.75
-556.293 -439.75 -748.766

-10395.9 0.639884 -232.615
0.639884 -4316.51 -24.0258
-232.615 -24.0258 -3056.09

-10199.8 0.0077545 -232.026
0.0077545 -2731.84 -0.00100476
-232.026 -0.00100476 -3027.67

-10731.3 -476.313 556.303
-476.313 -5734.08 -439.752
556.303 -439.752 -747.863

-10395.9 -0.625283 232.598
-0.625283 -4316.57 -24.0235
232.598 -24.0235 -3056.16

-10199.9 0.00775445 232.007
0.00775445 -2731.91 0.00100469
232.007 0.00100469 -3027.74

-11440 0.00967913 592.053
0.00967913 -3592.34 0.00297876
592.053 0.00297876 -7352.41

-8593.74 -833.712 1526.66
-833.712 -1198.9 -156.39
1526.66 -156.39 -519.588

-8995.17 -661.138 1577.8
-661.138 -1794.82 -156.327
1577.8 -156.327 -1539.67

-8856.71 0 1705.58
0 -6766.56 0
1705.58 0 -2494.56

-6030.35 -954.683 1968.14
-954.683 3599.59 -136.893
1968.14 -136.893 4323.17

-6426.58 -740.107 2066.08
-740.107 3053.07 -137.201
2066.08 -137.201 3275.82

-8375.19 -489.29 962.67
-489.29 -2072.48 2.96269
962.67 2.96269 -5772.58

-13215.2 0 810.44
0 -13122.6 0
810.44 0 -12851.2

-13215.2 0 810.44
0 -13122.6 0
810.44 0 -12851.2

-8856.98 4.47797e-12 -1705.56
4.47797e-12 -6766.89 -9.68418e-13
-1705.56 -9.68418e-13 -2494.94

-13215.2 3.86923e-12 -810.439
3.86923e-12 -13122.7 -1.29598e-12
-810.439 -1.29598e-12 -12851.2

-13215.2 3.86923e-12 -810.439
3.86923e-12 -13122.7 -1.29598e-12
-810.439 -1.29598e-12 -12851.2

-8375.53 -489.289 -962.637
-489.289 -2072.96 -2.96178
-962.637 -2.96178 -5773

-6427.21 -740.079 -2065.98
-740.079 3051.92 137.204
-2065.98 137.204 3274.68

-6030.98 -954.656 -1968.05
-954.656 3598.46 136.898
-1968.05 136.898 4322.03

-10731.6 -476.276 -556.293
-476.276 -5734.87 439.75
-556.293 439.75 -748.766

-8995.74 -661.107 -1577.7
-661.107 -1795.89 156.332
-1577.7 156.332 -1540.74

-8594.3 -833.681 -1526.57
-833.681 -1199.95 156.396
-1526.57 156.396 -520.65

-11440.4 -0.00967819 -591.962
-0.00967819 -3593.49 0.00297879
-591.962 0.00297879 -7353.44

-10199.8 -0.0077545 -232.026
-0.0077545 -2731.84 0.00100476
-232.026 0.00100476 -3027.67

-10395.9 -0.639884 -232.615
-0.639884 -4316.51 24.0258
-232.615 24.0258 -3056.09

-11440 -0.00967913 592.053
-0.00967913 -3592.34 -0.00297876
592.053 -0.00297876 -7352.41

-10199.9 -0.00775445 232.007
-0.00775445 -2731.91 -0.00100469
232.007 -0.00100469 -3027.74

-10395.9 0.625283 232.598
0.625283 -4316.57 24.0235
232.598 24.0235 -3056.16

-10731.3 476.313 556.303
476.313 -5734.08 439.752
556.303 439.752 -747.863

-8995.17 661.138 1577.8
661.138 -1794.82 156.327
1577.8 156.327 -1539.67

-8593.74 833.712 1526.66
833.712 -1198.9 156.39
1526.66 156.39 -519.588

-8375.19 489.29 962.67
489.29 -2072.48 -2.96269
962.67 -2.96269 -5772.58

-6426.58 740.107 2066.08
740.107 3053.07 137.201
2066.08 137.201 3275.82

-6030.35 954.683 1968.14
954.683 3599.59 136.893
1968.14 136.893 4323.17

-8856.71 0 1705.58
0 -6766.56 0
1705.58 0 -2494.56

-13215.2 0 810.44
0 -13122.6 0
810.44 0 -12851.2

-13215.2 0 810.44
0 -13122.6 0
810.44 0 -12851.2

-7537.15 2781.36 -1088.58
2781.36 -789.435 -722.55
-1088.58 -722.55 -5323.87

-17959.4 610.309 -346.241
610.309 -17808.7 -462.129
-346.241 -462.129 -18361.1

-17959.4 610.309 -346.241
610.309 -17808.7 -462.129
-346.241 -462.129 -18361.1

-10325.9 1334.54 -1576.98
1334.54 -8062.2 -684.845
-1576.98 -684.845 -4574.95

-5408.55 2871.41 -2218.35
2871.41 4279.97 -938.436
-2218.35 -938.436 5268.61

-5712.41 2759.65 -2215.15
2759.65 4378.66 -942.34
-2215.15 -942.34 3973.82

-9349.86 1204.49 -1264.85
1204.49 927.398 -759.969
-1264.85 -759.969 -1672.71

-8053.96 2112.39 -1742.68
2112.39 -632.598 -856.019
-1742.68 -856.019 290.542

-8354.66 2029.69 -1712.48
2029.69 -621.721 -857.885
-1712.48 -857.885 -909.92

-10268.4 946.563 -586.994
946.563 -4701.63 -314.566
-586.994 -314.566 39.4393

-9913.93 480.291 -340.604
480.291 -2404.49 57.1364
-340.604 57.1364 -404.534

-10009.8 458.555 -334.194
458.555 -2867.86 47.3063
-334.194 47.3063 -663.743

-10268.1 -946.64 587.001
-946.64 -4700.89 -314.566
587.001 -314.566 40.2843

-9914.04 -480.256 340.571
-480.256 -2404.88 57.1398
340.571 57.1398 -404.946

-10009.9 -458.518 334.164
-458.518 -2868.26 47.3096
334.164 47.3096 -664.156

-9349.65 -1204.51 1264.89
-1204.51 927.981 -759.974
1264.89 -759.974 -1672.17

-8053.42 -2112.51 1742.77
-2112.51 -631.61 -856.032
1742.77 -856.032 291.58

-8354.11 -2029.81 1712.57
-2029.81 -620.69 -857.896
1712.57 -857.896 -908.899

-10325.5 -1334.62 1577.03
-1334.62 -8061.62 -684.854
1577.03 -684.854 -4574.28

-5407.95 -2871.54 2218.45
-2871.54 4281.03 -938.449
2218.45 -938.449 5269.73

-5711.8 -2759.79 2215.24
-2759.79 4379.77 -942.352
2215.24 -942.352 3974.92

-7536.84 -2781.42 1088.61
-2781.42 -789.007 -722.557
1088.61 -722.557 -5323.49

-17959.1 -610.357 346.269
-610.357 -17808.4 -462.131
346.269 -462.131 -18360.8

-17959.1 -610.357 346.269
-610.357 -17808.4 -462.131
346.269 -462.131 -18360.8

-7537.15 -2781.36 1088.58
-2781.36 -789.435 -722.55
1088.58 -722.55 -5323.87

-17959.4 -610.309 346.241
-610.309 -17808.7 -462.129
346.241 -462.129 -18361.1

-17959.4 -610.309 346.241
-610.309 -17808.7 -462.129
346.241 -462.129 -18361.1

-10325.9 -1334.54 1576.98
-1334.54 -8062.2 -684.845
1576.98 -684.845 -4574.95

-5408.55 -2871.41 2218.35
-2871.41 4279.97 -938.436
2218.35 -938.436 5268.61

-5712.41 -2759.65 2215.15
-2759.65 4378.66 -942.34
2215.15 -942.34 3973.82

-9349.86 -1204.49 1264.85
-1204.49 927.398 -759.969
1264.85 -759.969 -1672.71

-8053.96 -2112.39 1742.68
-2112.39 -632.598 -856.019
1742.68 -856.019 290.542

-8354.66 -2029.69 1712.48
-2029.69 -621.721 -857.885
1712.48 -857.885 -909.92

-10268.4 -946.563 586.994
-946.563 -4701.63 -314.566
586.994 -314.566 39.4393

-9913.93 -480.291 340.604
-480.291 -2404.49 57.1364
340.604 57.1364 -404.534

-10009.8 -458.555 334.194
-458.555 -2867.86 47.3063
334.194 47.3063 -663.743

-10268.1 946.64 -587.001
946.64 -4700.89 -314.566
-587.001 -314.566 40.2843

-9914.04 480.256 -340.571
480.256 -2404.88 57.1398
-340.571 57.1398 -404.946

-10009.9 458.518 -334.164
458.518 -2868.26 47.3096
-334.164 47.3096 -664.156

-9349.65 1204.51 -1264.89
1204.51 927.981 -759.974
-1264.89 -759.974 -1672.17

-8053.42 2112.51 -1742.77
2112.51 -631.61 -856.032
-1742.77 -856.032 291.58

-8354.11 2029.81 -1712.57
2029.81 -620.69 -857.896
-1712.57 -857.896 -908.899

-10325.5 1334.62 -1577.03
1334.62 -8061.62 -684.854
-1577.03 -684.854 -4574.28

-5407.95 2871.54 -2218.45
2871.54 4281.03 -938.449
-2218.45 -938.449 5269.73

-5711.8 2759.79 -2215.24
2759.79 4379.77 -942.352
-2215.24 -942.352 3974.92

-7536.84 2781.42 -1088.61
2781.42 -789.007 -722.557
-1088.61 -722.557 -5323.49

-17959.1 610.357 -346.269
610.357 -17808.4 -462.131
-346.269 -462.131 -18360.8

-17959.1 610.357 -346.269
610.357 -17808.4 -462.131
-346.269 -462.131 -18360.8

-8856.98 4.47797e-12 1705.56
4.47797e-12 -6766.89 9.68418e-13
1705.56 9.68418e-13 -2494.94

-13215.2 0 810.439
0 -13122.7 0
810.439 0 -12851.2

-13215.2 0 810.439
0 -13122.7 0
810.439 0 -12851.2

-8375.53 489.289 962.637
489.289 -2072.96 -2.96178
962.637 -2.96178 -5773

-6427.21 740.079 2065.98
740.079 3051.92 137.204
2065.98 137.204 3274.68

-6030.98 954.656 1968.05
954.656 3598.46 136.898
1968.05 136.898 4322.03

-10731.6 476.276 556.293
476.276 -5734.87 439.75
556.293 439.75 -748.766

-8995.74 661.107 1577.7
661.107 -1795.89 156.332
1577.7 156.332 -1540.74

-8594.3 833.681 1526.57
833.681 -1199.95 156.396
1526.57 156.396 -520.65

-11440.4 0.00967819 591.962
0.00967819 -3593.49 0.00297879
591.962 0.00297879 -7353.44

-10199.8 0.0077545 232.026
0.0077545 -2731.84 0.00100476
232.026 0.00100476 -3027.67

-10395.9 0.639884 232.615
0.639884 -4316.51 24.0258
232.615 24.0258 -3056.09

-11440 0.00967913 -592.053
0.00967913 -3592.34 -0.00297876
-592.053 -0.00297876 -7352.41

-10199.9 0.00775445 -232.007
0.00775445 -2731.91 -0.00100469
-232.007 -0.00100469 -3027.74

-10395.9 -0.625283 -232.598
-0.625283 -4316.57 24.0235
-232.598 24.0235 -3056.16

-10731.3 -476.313 -556.303
-476.313 -5734.08 439.752
-556.303 439.752 -747.863

-8995.17 -661.138 -1577.8
-661.138 -1794.82 156.327
-1577.8 156.327 -1539.67

-8593.74 -833.712 -1526.66
-833.712 -1198.9 156.39
-1526.66 156.39 -519.588

-8375.19 -489.29 -962.67
-489.29 -2072.48 -2.96269
-962.67 -2.96269 -5772.58

-6426.58 -740.107 -2066.08
-740.107 3053.07 137.201
-2066.08 137.201 3275.82

-6030.35 -954.683 -1968.14
-954.683 3599.59 136.893
-1968.14 136.893 4323.17

-8856.71 -1.69389e-12 -1705.58
-1.69389e-12 -6766.56 1.00977e-11
-1705.58 1.00977e-11 -2494.56

-13215.2 -3.86925e-12 -810.44
-3.86925e-12 -13122.6 1.29598e-12
-810.44 1.29598e-12 -12851.2

-13215.2 -3.86925e-12 -810.44
-3.86925e-12 -13122.6 1.29598e-12
-810.44 1.29598e-12 -12851.2

-8375.53 -489.289 962.637
-489.289 -2072.96 2.96178
962.637 2.96178 -5773

-13215.2 0 810.439
0 -13122.7 0
810.439 0 -12851.2

-13215.2 0 810.439
0 -13122.7 0
810.439 0 -12851.2

-8856.98 4.47797e-12 1705.56
4.47797e-12 -6766.89 9.68418e-13
1705.56 9.68418e-13 -2494.94

-6030.98 -954.656 1968.05
-954.656 3598.46 -136.898
1968.05 -136.898 4322.03

-6427.21 -740.079 2065.98
-740.079 3051.92 -137.204
2065.98 -137.204 3274.68

-11440.4 -0.00967819 591.962
-0.00967819 -3593.49 -0.00297879
591.962 -0.00297879 -7353.44

-8594.3 -833.681 1526.57
-833.681 -1199.95 -156.396
1526.57 -156.396 -520.65

-8995.74 -661.107 1577.7
-661.107 -1795.89 -156.332
1577.7 -156.332 -1540.74

-10731.6 -476.276 556.293
-476.276 -5734.87 -439.75
556.293 -439.75 -748.766

-10395.9 -0.639884 232.615
-0.639884 -4316.51 -24.0258
232.615 -24.0258 -3056.09

-10199.8 -0.0077545 232.026
-0.0077545 -2731.84 -0.00100476
232.026 -0.00100476 -3027.67

-10731.3 476.313 -556.303
476.313 -5734.08 -439.752
-556.303 -439.752 -747.863

-10395.9 0.625283 -232.598
0.625283 -4316.57 -24.0235
-232.598 -24.0235 -3056.16

-10199.9 -0.00775445 -232.007
-0.00775445 -2731.91 0.00100469
-232.007 0.00100469 -3027.74

-11440 -0.00967913 -592.053
-0.00967913 -3592.34 0.00297876
-592.053 0.00297876 -7352.41

-8593.74 833.712 -1526.66
833.712 -1198.9 -156.39
-1526.66 -156.39 -519.588

-8995.17 661.138 -1577.8
661.138 -1794.82 -156.327
-1577.8 -156.327 -1539.67

-8856.71 0 -1705.58
0 -6766.56 0
-1705.58 0 -2494.56

-6030.35 954.683 -1968.14
954.683 3599.59 -136.893
-1968.14 -136.893 4323.17

-6426.58 740.107 -2066.08
740.107 3053.07 -137.201
-2066.08 -137.201 3275.82

-8375.19 489.29 -962.67
489.29 -2072.48 2.96269
-962.67 2.96269 -5772.58

-13215.2 -3.86925e-12 -810.44
-3.86925e-12 -13122.6 1.29598e-12
-810.44 1.29598e-12 -12851.2

-13215.2 -3.86925e-12 -810.44
-3.86925e-12 -13122.6 1.29598e-12
-810.44 1.29598e-12 -12851.2

-10325.9 1334.54 1576.98
1334.54 -8062.2 684.845
1576.98 684.845 -4574.95

-17959.4 610.309 346.241
610.309 -17808.7 462.129
346.241 462.129 -18361.1

-17959.4 610.309 346.241
610.309 -17808.7 462.129
346.241 462.129 -18361.1

-7537.15 2781.36 1088.58
2781.36 -789.435 722.55
1088.58 722.55 -5323.87

-5712.41 2759.65 2215.15
2759.65 4378.66 942.34
2215.15 942.34 3973.82

-5408.55 2871.41 2218.35
2871.41 4279.97 938.436
2218.35 938.436 5268.61

-10268.4 946.563 586.994
946.563 -4701.63 314.566
586.994 314.566 39.4393

-8354.66 2029.69 1712.48
2029.69 -621.721 857.885
1712.48 857.885 -909.92

-8053.96 2112.39 1742.68
2112.39 -632.598 856.019
1742.68 856.019 290.542

-9349.86 1204.49 1264.85
1204.49 927.398 759.969
1264.85 759.969 -1672.71

-10009.8 458.555 334.194
458.555 -2867.86 -47.3063
334.194 -47.3063 -663.743

-9913.93 480.291 340.604
480.291 -2404.49 -57.1364
340.604 -57.1364 -404.534

-9349.65 -1204.51 -1264.89
-1204.51 927.981 759.974
-1264.89 759.974 -1672.17

-10009.9 -458.518 -334.164
-458.518 -2868.26 -47.3096
-334.164 -47.3096 -664.156

-9914.04 -480.256 -340.571
-480.256 -2404.88 -57.1398
-340.571 -57.1398 -404.946

-10268.1 -946.64 -587.001
-946.64 -4700.89 314.566
-587.001 314.566 40.2843

-8354.11 -2029.81 -1712.57
-2029.81 -620.69 857.896
-1712.57 857.896 -908.899

-8053.42 -2112.51 -1742.77
-2112.51 -631.61 856.032
-1742.77 856.032 291.58

-7536.84 -2781.42 -1088.61
-2781.42 -789.007 722.557
-1088.61 722.557 -5323.49

-5711.8 -2759.79 -2215.24
-2759.79 4379.77 942.352
-2215.24 942.352 3974.92

-5407.95 -2871.54 -2218.45
-2871.54 4281.03 938.449
-2218.45 938.449 5269.73

-10325.5 -1334.62 -1577.03
-1334.62 -8061.62 684.854
-1577.03 684.854 -4574.28

-17959.1 -610.357 -346.269
-610.357 -17808.4 462.131
-346.269 462.131 -18360.8

-17959.1 -610.357 -346.269
-610.357 -17808.4 462.131
-346.269 462.131 -18360.8

-16015.2 -79.1294 26.6439
-79.1294 -15764.6 276.039
26.6439 276.039 -12810.9

-17959.4 -610.309 346.241
-610.309 -17808.7 -462.129
346.241 -462.129 -18361.1

-17959.4 -610.309 346.241
-610.309 -17808.7 -462.129
346.241 -462.129 -18361.1

-7537.15 -2781.36 1088.58
-2781.36 -789.435 -722.55
1088.58 -722.55 -5323.87

-7889.1 -2092.52 123.941
-2092.52 756.142 -124.167
123.941 -124.167 207.944

-6683 -1806.35 -407.65
-1806.35 1486.3 53.4713
-407.65 53.4713 4471.88

-9945.32 -1016.11 569.886
-1016.11 -3834.95 194.039
569.886 194.039 1031.55

-7539.86 -2019.94 -5.7093
-2019.94 1343.5 -16.4761
-5.7093 -16.4761 804.699

-6306.24 -1713.11 -579.045
-1713.11 2049.34 155.357
-579.045 155.357 5075.37

-6979.57 -1202.64 -751.154
-1202.64 4220.99 119.254
-751.154 119.254 4864.6

-10278 -271.353 339.216
-271.353 -5969.04 934.491
339.216 934.491 1173.89

-9644.47 -511.44 341.49
-511.44 -1378.23 655.697
341.49 655.697 674.259

-6979.56 1202.62 751.145
1202.62 4221.02 119.251
751.145 119.251 4864.64

-10278.1 271.326 -339.218
271.326 -5969.42 934.481
-339.218 934.481 1173.46

-9644.58 511.402 -341.485
511.402 -1378.63 655.692
-341.485 655.692 673.853

-9945.04 1016.18 -569.926
1016.18 -3834.21 194.039
-569.926 194.039 1032.4

-7539.61 2019.99 5.69289
2019.99 1343.94 -16.4838
5.69289 -16.4838 805.16

-6306 1713.14 579.04
1713.14 2049.75 155.352
579.04 155.352 5075.84

-7536.84 2781.42 -1088.61
2781.42 -789.007 -722.557
-1088.61 -722.557 -5323.49

-7888.58 2092.63 -123.959
2092.63 757.094 -124.173
-123.959 -124.173 208.917

-6682.48 1806.44 407.658
1806.44 1487.2 53.469
407.658 53.469 4472.88

-16014.7 79.2095 -26.6573
79.2095 -15763.9 276.055
-26.6573 276.055 -12810

-17959.1 610.357 -346.269
610.357 -17808.4 -462.131
-346.269 -462.131 -18360.8

-17959.1 610.357 -346.269
610.357 -17808.4 -462.131
-346.269 -462.131 -18360.8

-8375.53 489.289 962.637
489.289 -2072.96 -2.96178
962.637 -2.96178 -5773

-13215.2 0 810.439
0 -13122.7 0
810.439 0 -12851.2

-13215.2 0 810.439
0 -13122.7 0
810.439 0 -12851.2

-14563.9 0 116.501
0 -13666.1 0
116.501 0 -10113.1

-6911.99 450.565 -312.125
450.565 1468.51 416.359
-312.125 416.359 3982.29

-8507.29 746.701 118.54
746.701 -396.727 376.012
118.54 376.012 -419.863

-8490.2 -17.6375 -645.077
-17.6375 2600.42 493.217
-645.077 493.217 1366.69

-6483.36 633.768 -465.362
633.768 2106.02 497.343
-465.362 497.343 4586.54

-8090.25 930.808 10.5414
930.808 281.946 451.018
10.5414 451.018 177.218

-10409.4 544.032 618.441
544.032 -4868.3 942.813
618.441 942.813 244.488

-10138.3 15.8204 258.938
15.8204 -3249.98 614.152
258.938 614.152 -1954.42

-10238 14.4816 301.118
14.4816 -5432.91 558.12
301.118 558.12 -235.887

-10409.1 -544.07 -618.481
-544.07 -4867.52 942.83
-618.481 942.83 245.396

-10138.3 -15.8044 -258.939
-15.8044 -3250.05 614.15
-258.939 614.15 -1954.48

-10238 -14.4742 -301.128
-14.4742 -5432.97 558.118
-301.128 558.118 -235.952

-8490.06 17.66 645.078
17.66 2600.75 493.223
645.078 493.223 1367.01

-6483.09 -633.766 465.355
-633.766 2106.47 497.35
465.355 497.35 4587.05

-8089.98 -930.819 -10.5561
-930.819 282.438 451.026
-10.5561 451.026 177.729

-14563.5 5.75027e-13 -116.514
5.75027e-13 -13665.5 -1.16001e-11
-116.514 -1.16001e-11 -10112.4

-6911.45 -450.576 312.128
-450.576 1469.46 416.374
312.128 416.374 3983.32

-8506.75 -746.735 -118.557
-746.735 -395.728 376.027
-118.557 376.027 -418.847

-8375.19 -489.29 -962.67
-489.29 -2072.48 -2.96269
-962.67 -2.96269 -5772.58

-13215.2 -3.86925e-12 -810.44
-3.86925e-12 -13122.6 1.29598e-12
-810.44 1.29598e-12 -12851.2

-13215.2 -3.86925e-12 -810.44
-3.86925e-12 -13122.6 1.29598e-12
-810.44 1.29598e-12 -12851.2

-14563.9 0 116.501
0 -13666.1 0
116.501 0 -10113.1

-13215.2 0 810.439
0 -13122.7 0
810.439 0 -12851.2

-13215.2 0 810.439
0 -13122.7 0
810.439 0 -12851.2

-8375.53 -489.289 962.637
-489.289 -2072.96 2.96178
962.637 2.96178 -5773

-8507.29 -746.701 118.54
-746.701 -396.727 -376.012
118.54 -376.012 -419.863

-6911.99 -450.565 -312.125
-450.565 1468.51 -416.359
-312.125 -416.359 3982.29

-10409.4 -544.032 618.441
-544.032 -4868.3 -942.813
618.441 -942.813 244.488

-8090.25 -930.808 10.5414
-930.808 281.946 -451.018
10.5414 -451.018 177.218

-6483.36 -633.768 -465.362
-633.768 2106.02 -497.343
-465.362 -497.343 4586.54

-8490.2 17.6375 -645.077
17.6375 2600.42 -493.217
-645.077 -493.217 1366.69

-10238 -14.4816 301.118
-14.4816 -5432.91 -558.12
301.118 -558.12 -235.887

-10138.3 -15.8204 258.938
-15.8204 -3249.98 -614.152
258.938 -614.152 -1954.42

-8490.06 -17.66 645.078
-17.66 2600.75 -493.223
645.078 -493.223 1367.01

-10238 14.4742 -301.128
14.4742 -5432.97 -558.118
-301.128 -558.118 -235.952

-10138.3 15.8044 -258.939
15.8044 -3250.05 -614.15
-258.939 -614.15 -1954.48

-10409.1 544.07 -618.481
544.07 -4867.52 -942.83
-618.481 -942.83 245.396

-8089.98 930.819 -10.5561
930.819 282.438 -451.026
-10.5561 -451.026 177.729

-6483.09 633.766 465.355
633.766 2106.47 -497.35
465.355 -497.35 4587.05

-8375.19 489.29 -962.67
489.29 -2072.48 2.96269
-962.67 2.96269 -5772.58

-8506.75 746.735 -118.557
746.735 -395.728 -376.027
-118.557 -376.027 -418.847

-6911.45 450.576 312.128
450.576 1469.46 -416.374
312.128 -416.374 3983.32

-14563.5 6.04841e-13 -116.514
6.04841e-13 -13665.5 -7.96198e-12
-116.514 -7.96198e-12 -10112.4

-13215.2 -1.93463e-12 -810.44
-1.93463e-12 -13122.6 6.47989e-13
-810.44 6.47989e-13 -12851.2

-13215.2 -1.93463e-12 -810.44
-1.93463e-12 -13122.6 6.47989e-13
-810.44 6.47989e-13 -12851.2

-7537.15 2781.36 1088.58
2781.36 -789.435 722.55
1088.58 722.55 -5323.87

-17959.4 610.309 346.241
610.309 -17808.7 462.129
346.241 462.129 -18361.1

-17959.4 610.309 346.241
610.309 -17808.7 462.129
346.241 462.129 -18361.1

-16015.2 79.1294 26.6439
79.1294 -15764.6 -276.039
26.6439 -276.039 -12810.9

-6683 1806.35 -407.65
1806.35 1486.3 -53.4713
-407.65 -53.4713 4471.88

-7889.1 2092.52 123.941
2092.52 756.142 124.167
123.941 124.167 207.944

-6979.57 1202.64 -751.154
1202.64 4220.99 -119.254
-751.154 -119.254 4864.6

-6306.24 1713.11 -579.045
1713.11 2049.34 -155.357
-579.045 -155.357 5075.37

-7539.86 2019.94 -5.7093
2019.94 1343.5 16.4761
-5.7093 16.4761 804.699

-9945.32 1016.11 569.886
1016.11 -3834.95 -194.039
569.886 -194.039 1031.55

-9644.47 511.44 341.49
511.44 -1378.23 -655.697
341.49 -655.697 674.259

-10278 271.353 339.216
271.353 -5969.04 -934.491
339.216 -934.491 1173.89

-9945.04 -1016.18 -569.926
-1016.18 -3834.21 -194.039
-569.926 -194.039 1032.4

-9644.58 -511.402 -341.485
-511.402 -1378.63 -655.692
-341.485 -655.692 673.853

-10278.1 -271.326 -339.218
-271.326 -5969.42 -934.481
-339.218 -934.481 1173.46

-6979.56 -1202.62 751.145
-1202.62 4221.02 -119.251
751.145 -119.251 4864.64

-6306 -1713.14 579.04
-1713.14 2049.75 -155.352
579.04 -155.352 5075.84

-7539.61 -2019.99 5.69289
-2019.99 1343.94 16.4838
5.69289 16.4838 805.16

-16014.7 -79.2095 -26.6573
-79.2095 -15763.9 -276.055
-26.6573 -276.055 -12810

-6682.48 -1806.44 407.658
-1806.44 1487.2 -53.469
407.658 -53.469 4472.88

-7888.58 -2092.63 -123.959
-2092.63 757.094 124.173
-123.959 124.173 208.917

-7536.84 -2781.42 -1088.61
-2781.42 -789.007 722.557
-1088.61 722.557 -5323.49

-17959.1 -610.357 -346.269
-610.357 -17808.4 462.131
-346.269 462.131 -18360.8

-17959.1 -610.357 -346.269
-610.357 -17808.4 462.131
-346.269 462.131 -18360.8

