# vtk DataFile Version 3.0
vtk output at time 1
ASCII
DATASET UNSTRUCTURED_GRID
POINTS 125 float
0 0 0 0 0 0.05 0 0 0.1 
0 0 0.15 0 0 0.2 0 0.05 0 
0 0.05 0.05 0 0.05 0.1 0 0.05 0.15 
0 0.05 0.2 0 0.1 0 0 0.1 0.05 
0 0.1 0.1 0 0.1 0.15 0 0.1 0.2 
0 0.15 0 0 0.15 0.05 0 0.15 0.1 
0 0.15 0.15 0 0.15 0.2 0 0.2 0 
0 0.2 0.05 0 0.2 0.1 0 0.2 0.15 
0 0.2 0.2 0.0402687 -0.00707828 -0.0107899 0.0479549 -0.00942819 0.044635 
0.042244 -0.00869224 0.1 0.0479549 -0.00942819 0.155365 0.0402687 -0.00707828 0.21079 
0.0373828 0.0463174 -0.00892383 0.0437068 0.0453501 0.0451992 0.0376 0.0455479 0.1 
0.0437068 0.0453501 0.154801 0.0373828 0.0463174 0.208924 0.0416413 0.1 -0.0101758 
0.0491734 0.1 0.0449713 0.0437074 0.1 0.1 0.0491734 0.1 0.155029 
0.0416413 0.1 0.210176 0.0373828 0.153683 -0.00892383 0.0437068 0.15465 0.0451992 
0.0376 0.154452 0.1 0.0437068 0.15465 0.154801 0.0373828 0.153683 0.208924 
0.0402687 0.207078 -0.0107899 0.0479549 0.209428 0.044635 0.042244 0.208692 0.1 
0.0479549 0.209428 0.155365 0.0402687 0.207078 0.21079 0.075 -0.0119498 -0.0187779 
0.075 -0.014861 0.0413657 0.075 -0.0154376 0.1 0.075 -0.014861 0.158634 
0.075 -0.0119498 0.218778 0.0749999 0.0433482 -0.0172552 0.0749999 0.0421795 0.0413794 
0.0749999 0.0415832 0.1 0.0749999 0.0421795 0.158621 0.0749999 0.0433482 0.217255 
0.075 0.1 -0.0178056 0.075 0.1 0.041951 0.0749999 0.1 0.1 
0.075 0.1 0.158049 0.075 0.1 0.217806 0.0749999 0.156652 -0.0172552 
0.0749999 0.15782 0.0413794 0.0749999 0.158417 0.1 0.0749999 0.15782 0.158621 
0.0749999 0.156652 0.217255 0.075 0.21195 -0.0187779 0.075 0.214861 0.0413657 
0.075 0.215438 0.1 0.075 0.214861 0.158634 0.075 0.21195 0.218778 
0.109731 -0.00707825 -0.0107899 0.102045 -0.00942816 0.044635 0.107756 -0.0086922 0.1 
0.102045 -0.00942816 0.155365 0.109731 -0.00707825 0.21079 0.112617 0.0463174 -0.00892381 
0.106293 0.0453501 0.0451992 0.1124 0.0455479 0.1 0.106293 0.0453501 0.154801 
0.112617 0.0463174 0.208924 0.108359 0.1 -0.0101758 0.100827 0.1 0.0449713 
0.106293 0.1 0.1 0.100827 0.1 0.155029 0.108359 0.1 0.210176 
0.112617 0.153683 -0.00892381 0.106293 0.15465 0.0451992 0.1124 0.154452 0.1 
0.106293 0.15465 0.154801 0.112617 0.153683 0.208924 0.109731 0.207078 -0.0107899 
0.102045 0.209428 0.044635 0.107756 0.208692 0.1 0.102045 0.209428 0.155365 
0.109731 0.207078 0.21079 0.15 0 0 0.15 0 0.05 
0.15 0 0.1 0.15 0 0.15 0.15 0 0.2 
0.15 0.05 0 0.15 0.05 0.05 0.15 0.05 0.1 
0.15 0.05 0.15 0.15 0.05 0.2 0.15 0.1 0 
0.15 0.1 0.05 0.15 0.1 0.1 0.15 0.1 0.15 
0.15 0.1 0.2 0.15 0.15 0 0.15 0.15 0.05 
0.15 0.15 0.1 0.15 0.15 0.15 0.15 0.15 0.2 
0.15 0.2 0 0.15 0.2 0.05 0.15 0.2 0.1 
0.15 0.2 0.15 0.15 0.2 0.2 

CELLS 384 1920
4 5 6 26 31 
4 5 6 1 26 
4 0 5 1 26 
4 0 5 26 25 
4 25 5 26 30 
4 30 5 26 31 
4 26 25 55 50 
4 26 25 30 55 
4 31 26 30 55 
4 26 31 56 55 
4 26 56 51 55 
4 26 51 50 55 
4 55 56 76 81 
4 55 56 51 76 
4 50 55 51 76 
4 50 55 76 75 
4 75 55 76 80 
4 80 55 76 81 
4 76 75 105 100 
4 76 75 80 105 
4 81 76 80 105 
4 76 81 106 105 
4 76 106 101 105 
4 76 101 100 105 
4 10 5 35 36 
4 5 10 11 36 
4 6 5 11 36 
4 5 6 31 36 
4 5 31 30 36 
4 5 30 35 36 
4 36 31 55 56 
4 36 31 30 55 
4 35 36 30 55 
4 35 36 55 60 
4 60 36 55 61 
4 61 36 55 56 
4 60 55 85 86 
4 55 60 61 86 
4 56 55 61 86 
4 55 56 81 86 
4 55 81 80 86 
4 55 80 85 86 
4 86 81 105 106 
4 86 81 80 105 
4 85 86 80 105 
4 85 86 105 110 
4 110 86 105 111 
4 111 86 105 106 
4 15 16 36 41 
4 15 16 11 36 
4 10 15 11 36 
4 10 15 36 35 
4 35 15 36 40 
4 40 15 36 41 
4 36 35 65 60 
4 36 35 40 65 
4 41 36 40 65 
4 36 41 66 65 
4 36 66 61 65 
4 36 61 60 65 
4 65 66 86 91 
4 65 66 61 86 
4 60 65 61 86 
4 60 65 86 85 
4 85 65 86 90 
4 90 65 86 91 
4 86 85 115 110 
4 86 85 90 115 
4 91 86 90 115 
4 86 91 116 115 
4 86 116 111 115 
4 86 111 110 115 
4 20 15 45 46 
4 15 20 21 46 
4 16 15 21 46 
4 15 16 41 46 
4 15 41 40 46 
4 15 40 45 46 
4 46 41 65 66 
4 46 41 40 65 
4 45 46 40 65 
4 45 46 65 70 
4 70 46 65 71 
4 71 46 65 66 
4 70 65 95 96 
4 65 70 71 96 
4 66 65 71 96 
4 65 66 91 96 
4 65 91 90 96 
4 65 90 95 96 
4 96 91 115 116 
4 96 91 90 115 
4 95 96 90 115 
4 95 96 115 120 
4 120 96 115 121 
4 121 96 115 116 
4 7 2 26 27 
4 7 2 1 26 
4 6 7 1 26 
4 6 7 26 31 
4 31 7 26 32 
4 32 7 26 27 
4 31 26 56 57 
4 26 31 32 57 
4 27 26 32 57 
4 26 27 52 57 
4 26 52 51 57 
4 26 51 56 57 
4 57 52 76 77 
4 57 52 51 76 
4 56 57 51 76 
4 56 57 76 81 
4 81 57 76 82 
4 82 57 76 77 
4 81 76 106 107 
4 76 81 82 107 
4 77 76 82 107 
4 76 77 102 107 
4 76 102 101 107 
4 76 101 106 107 
4 7 6 36 31 
4 7 6 11 36 
4 12 7 11 36 
4 7 12 37 36 
4 7 37 32 36 
4 7 32 31 36 
4 36 37 57 62 
4 36 37 32 57 
4 31 36 32 57 
4 31 36 57 56 
4 56 36 57 61 
4 61 36 57 62 
4 57 56 86 81 
4 57 56 61 86 
4 62 57 61 86 
4 57 62 87 86 
4 57 87 82 86 
4 57 82 81 86 
4 86 87 107 112 
4 86 87 82 107 
4 81 86 82 107 
4 81 86 107 106 
4 106 86 107 111 
4 111 86 107 112 
4 17 12 36 37 
4 17 12 11 36 
4 16 17 11 36 
4 16 17 36 41 
4 41 17 36 42 
4 42 17 36 37 
4 41 36 66 67 
4 36 41 42 67 
4 37 36 42 67 
4 36 37 62 67 
4 36 62 61 67 
4 36 61 66 67 
4 67 62 86 87 
4 67 62 61 86 
4 66 67 61 86 
4 66 67 86 91 
4 91 67 86 92 
4 92 67 86 87 
4 91 86 116 117 
4 86 91 92 117 
4 87 86 92 117 
4 86 87 112 117 
4 86 112 111 117 
4 86 111 116 117 
4 17 16 46 41 
4 17 16 21 46 
4 22 17 21 46 
4 17 22 47 46 
4 17 47 42 46 
4 17 42 41 46 
4 46 47 67 72 
4 46 47 42 67 
4 41 46 42 67 
4 41 46 67 66 
4 66 46 67 71 
4 71 46 67 72 
4 67 66 96 91 
4 67 66 71 96 
4 72 67 71 96 
4 67 72 97 96 
4 67 97 92 96 
4 67 92 91 96 
4 96 97 117 122 
4 96 97 92 117 
4 91 96 92 117 
4 91 96 117 116 
4 116 96 117 121 
4 121 96 117 122 
4 7 8 28 33 
4 7 8 3 28 
4 2 7 3 28 
4 2 7 28 27 
4 27 7 28 32 
4 32 7 28 33 
4 28 27 57 52 
4 28 27 32 57 
4 33 28 32 57 
4 28 33 58 57 
4 28 58 53 57 
4 28 53 52 57 
4 57 58 78 83 
4 57 58 53 78 
4 52 57 53 78 
4 52 57 78 77 
4 77 57 78 82 
4 82 57 78 83 
4 78 77 107 102 
4 78 77 82 107 
4 83 78 82 107 
4 78 83 108 107 
4 78 108 103 107 
4 78 103 102 107 
4 12 7 37 38 
4 7 12 13 38 
4 8 7 13 38 
4 7 8 33 38 
4 7 33 32 38 
4 7 32 37 38 
4 38 33 57 58 
4 38 33 32 57 
4 37 38 32 57 
4 37 38 57 62 
4 62 38 57 63 
4 63 38 57 58 
4 62 57 87 88 
4 57 62 63 88 
4 58 57 63 88 
4 57 58 83 88 
4 57 83 82 88 
4 57 82 87 88 
4 88 83 107 108 
4 88 83 82 107 
4 87 88 82 107 
4 87 88 107 112 
4 112 88 107 113 
4 113 88 107 108 
4 17 18 38 43 
4 17 18 13 38 
4 12 17 13 38 
4 12 17 38 37 
4 37 17 38 42 
4 42 17 38 43 
4 38 37 67 62 
4 38 37 42 67 
4 43 38 42 67 
4 38 43 68 67 
4 38 68 63 67 
4 38 63 62 67 
4 67 68 88 93 
4 67 68 63 88 
4 62 67 63 88 
4 62 67 88 87 
4 87 67 88 92 
4 92 67 88 93 
4 88 87 117 112 
4 88 87 92 117 
4 93 88 92 117 
4 88 93 118 117 
4 88 118 113 117 
4 88 113 112 117 
4 22 17 47 48 
4 17 22 23 48 
4 18 17 23 48 
4 17 18 43 48 
4 17 43 42 48 
4 17 42 47 48 
4 48 43 67 68 
4 48 43 42 67 
4 47 48 42 67 
4 47 48 67 72 
4 72 48 67 73 
4 73 48 67 68 
4 72 67 97 98 
4 67 72 73 98 
4 68 67 73 98 
4 67 68 93 98 
4 67 93 92 98 
4 67 92 97 98 
4 98 93 117 118 
4 98 93 92 117 
4 97 98 92 117 
4 97 98 117 122 
4 122 98 117 123 
4 123 98 117 118 
4 9 4 28 29 
4 9 4 3 28 
4 8 9 3 28 
4 8 9 28 33 
4 33 9 28 34 
4 34 9 28 29 
4 33 28 58 59 
4 28 33 34 59 
4 29 28 34 59 
4 28 29 54 59 
4 28 54 53 59 
4 28 53 58 59 
4 59 54 78 79 
4 59 54 53 78 
4 58 59 53 78 
4 58 59 78 83 
4 83 59 78 84 
4 84 59 78 79 
4 83 78 108 109 
4 78 83 84 109 
4 79 78 84 109 
4 78 79 104 109 
4 78 104 103 109 
4 78 103 108 109 
4 9 8 38 33 
4 9 8 13 38 
4 14 9 13 38 
4 9 14 39 38 
4 9 39 34 38 
4 9 34 33 38 
4 38 39 59 64 
4 38 39 34 59 
4 33 38 34 59 
4 33 38 59 58 
4 58 38 59 63 
4 63 38 59 64 
4 59 58 88 83 
4 59 58 63 88 
4 64 59 63 88 
4 59 64 89 88 
4 59 89 84 88 
4 59 84 83 88 
4 88 89 109 114 
4 88 89 84 109 
4 83 88 84 109 
4 83 88 109 108 
4 108 88 109 113 
4 113 88 109 114 
4 19 14 38 39 
4 19 14 13 38 
4 18 19 13 38 
4 18 19 38 43 
4 43 19 38 44 
4 44 19 38 39 
4 43 38 68 69 
4 38 43 44 69 
4 39 38 44 69 
4 38 39 64 69 
4 38 64 63 69 
4 38 63 68 69 
4 69 64 88 89 
4 69 64 63 88 
4 68 69 63 88 
4 68 69 88 93 
4 93 69 88 94 
4 94 69 88 89 
4 93 88 118 119 
4 88 93 94 119 
4 89 88 94 119 
4 88 89 114 119 
4 88 114 113 119 
4 88 113 118 119 
4 19 18 48 43 
4 19 18 23 48 
4 24 19 23 48 
4 19 24 49 48 
4 19 49 44 48 
4 19 44 43 48 
4 48 49 69 74 
4 48 49 44 69 
4 43 48 44 69 
4 43 48 69 68 
4 68 48 69 73 
4 73 48 69 74 
4 69 68 98 93 
4 69 68 73 98 
4 74 69 73 98 
4 69 74 99 98 
4 69 99 94 98 
4 69 94 93 98 
4 98 99 119 124 
4 98 99 94 119 
4 93 98 94 119 
4 93 98 119 118 
4 118 98 119 123 
4 123 98 119 124 

CELL_TYPES 384
10
10
10
10
10
10
10
10
10
10
10
10
10
10
10
10
10
10
10
10
10
10
10
10
10
10
10
10
10
10
10
10
10
10
10
10
10
10
10
10
10
10
10
10
10
10
10
10
10
10
10
10
10
10
10
10
10
10
10
10
10
10
10
10
10
10
10
10
10
10
10
10
10
10
10
10
10
10
10
10
10
10
10
10
10
10
10
10
10
10
10
10
10
10
10
10
10
10
10
10
10
10
10
10
10
10
10
10
10
10
10
10
10
10
10
10
10
10
10
10
10
10
10
10
10
10
10
10
10
10
10
10
10
10
10
10
10
10
10
10
10
10
10
10
10
10
10
10
10
10
10
10
10
10
10
10
10
10
10
10
10
10
10
10
10
10
10
10
10
10
10
10
10
10
10
10
10
10
10
10
10
10
10
10
10
10
10
10
10
10
10
10
10
10
10
10
10
10
10
10
10
10
10
10
10
10
10
10
10
10
10
10
10
10
10
10
10
10
10
10
10
10
10
10
10
10
10
10
10
10
10
10
10
10
10
10
10
10
10
10
10
10
10
10
10
10
10
10
10
10
10
10
10
10
10
10
10
10
10
10
10
10
10
10
10
10
10
10
10
10
10
10
10
10
10
10
10
10
10
10
10
10
10
10
10
10
10
10
10
10
10
10
10
10
10
10
10
10
10
10
10
10
10
10
10
10
10
10
10
10
10
10
10
10
10
10
10
10
10
10
10
10
10
10
10
10
10
10
10
10
10
10
10
10
10
10
10
10
10
10
10
10
10
10
10
10
10
10
10
10
10
10
10
10
10
10
10
10
10
10
10
10
10
10
10
10
10
10
10
10
10
10
10
10
10
10
10
10
10
10
10
10
10
10

POINT_DATA 125
VECTORS displacement float
0 0 0
0 0 0
0 0 0
0 0 0
0 0 0
0 0 0
0 0 0
0 0 0
0 0 0
0 0 0
0 0 0
0 0 0
0 0 0
0 0 0
0 0 0
0 0 0
0 0 0
0 0 0
0 0 0
0 0 0
0 0 0
0 0 0
0 0 0
0 0 0
0 0 0
-0.0097313 -0.00707828 -0.0107899
-0.00204511 -0.00942819 -0.00536498
-0.00775597 -0.00869224 -1.38778e-17
-0.00204511 -0.00942819 0.00536498
-0.0097313 -0.00707828 0.0107899
-0.0126172 -0.00368258 -0.00892383
-0.00629319 -0.00464991 -0.00480078
-0.0124 -0.00445207 0
-0.00629319 -0.00464991 0.00480078
-0.0126172 -0.00368258 0.00892383
-0.00835869 1.38778e-17 -0.0101758
-0.000826609 1.38778e-17 -0.00502874
-0.0062926 1.38778e-17 0
-0.000826609 1.38778e-17 0.00502874
-0.00835869 0 0.0101758
-0.0126172 0.00368258 -0.00892383
-0.00629319 0.00464991 -0.00480078
-0.0124 0.00445207 1.38778e-17
-0.00629319 0.00464991 0.00480078
-0.0126172 0.00368258 0.00892383
-0.0097313 0.00707828 -0.0107899
-0.00204511 0.00942819 -0.00536498
-0.00775597 0.00869224 0
-0.00204511 0.00942819 0.00536498
-0.0097313 0.00707828 0.0107899
-0.025 -0.0119498 -0.0187779
-0.025 -0.014861 -0.00863435
-0.0250001 -0.0154376 -1.38778e-17
-0.025 -0.014861 0.00863435
-0.025 -0.0119498 0.0187779
-0.0250001 -0.00665179 -0.0172552
-0.0250001 -0.00782047 -0.00862062
-0.0250001 -0.00841682 0
-0.0250001 -0.00782047 0.00862062
-0.0250001 -0.00665179 0.0172552
-0.025 0 -0.0178056
-0.025 1.38778e-17 -0.00804899
-0.0250001 0 0
-0.025 -1.38778e-17 0.00804899
-0.025 1.38778e-17 0.0178056
-0.0250001 0.00665179 -0.0172552
-0.0250001 0.00782047 -0.00862062
-0.0250001 0.00841682 0
-0.0250001 0.00782047 0.00862062
-0.0250001 0.00665179 0.0172552
-0.025 0.0119498 -0.0187779
-0.025 0.014861 -0.00863435
-0.0250001 0.0154376 -1.38778e-17
-0.025 0.014861 0.00863435
-0.025 0.0119498 0.0187779
-0.0402687 -0.00707825 -0.0107899
-0.0479549 -0.00942816 -0.00536497
-0.0422441 -0.0086922 1.38778e-17
-0.0479549 -0.00942816 0.00536497
-0.0402687 -0.00707825 0.0107899
-0.0373829 -0.00368256 -0.00892381
-0.0437069 -0.0046499 -0.00480077
-0.0376001 -0.00445206 0
-0.0437069 -0.0046499 0.00480077
-0.0373829 -0.00368256 0.00892381
-0.0416413 0 -0.0101758
-0.0491734 -1.38778e-17 -0.00502873
-0.0437074 -1.38778e-17 0
-0.0491734 -1.38778e-17 0.00502873
-0.0416413 -1.38778e-17 0.0101758
-0.0373829 0.00368256 -0.00892381
-0.0437069 0.0046499 -0.00480077
-0.0376001 0.00445206 -1.38778e-17
-0.0437069 0.0046499 0.00480077
-0.0373829 0.00368256 0.00892381
-0.0402687 0.00707825 -0.0107899
-0.0479549 0.00942816 -0.00536497
-0.0422441 0.0086922 0
-0.0479549 0.00942816 0.00536497
-0.0402687 0.00707825 0.0107899
-0.05 0 0
-0.05 0 0
-0.05 0 0
-0.05 0 0
-0.05 0 0
-0.05 0 0
-0.05 0 0
-0.05 0 0
-0.05 0 0
-0.05 0 0
-0.05 0 0
-0.05 0 0
-0.05 0 0
-0.05 0 0
-0.05 0 0
-0.05 0 0
-0.05 0 0
-0.05 0 0
-0.05 0 0
-0.05 0 0
-0.05 0 0
-0.05 0 0
-0.05 0 0
-0.05 0 0
-0.05 0 0

CELL_DATA 384
TENSORS stress float
-7822.52 -2991.14 -1127.17
-2991.14 -579.703 823.43
-1127.17 823.43 -5603.38

-17908.4 -655.355 -372.92
-655.355 -17755.1 540.537
-372.92 540.537 -18397.4

-17908.4 -655.355 -372.92
-655.355 -17755.1 540.537
-372.92 540.537 -18397.4

-16798 130.174 45.5301
130.174 -17157.9 -278.162
45.5301 -278.162 -14126.5

-6884.04 -1920.57 633.473
-1920.57 1801.4 -76.1061
633.473 -76.1061 5098.31

-8205.95 -2181.39 19.408
-2181.39 832.284 126.358
19.408 126.358 206.941

-7251.03 -1226.9 1005.93
-1226.9 4554.79 -212.514
1005.93 -212.514 5219.21

-6513.09 -1838.09 815.877
-1838.09 2386.31 -193.613
815.877 -193.613 5724.67

-7867.38 -2123.75 154.766
-2123.75 1446.04 3.32499
154.766 3.32499 833.573

-10191.7 -850.208 -518.556
-850.208 -5010.15 -164.869
-518.556 -164.869 522.686

-9293.16 -445.897 -316.487
-445.897 -1195.48 -760.47
-316.487 -760.47 1444.59

-9958.52 -175.796 -304.457
-175.796 -6630.08 -1081.96
-304.457 -1081.96 1675.67

-10191.4 850.307 518.602
850.307 -5009.27 -164.868
518.602 -164.868 523.719

-9293.26 445.855 316.48
445.855 -1195.92 -760.464
316.48 -760.464 1444.14

-9958.62 175.769 304.46
175.769 -6630.49 -1081.95
304.46 -1081.95 1675.19

-7251.02 1226.88 -1005.92
1226.88 4554.84 -212.506
-1005.92 -212.506 5219.27

-6512.83 1838.13 -815.878
1838.13 2386.76 -193.606
-815.878 -193.606 5725.2

-7867.12 2123.81 -154.753
2123.81 1446.53 3.33565
-154.753 3.33565 834.099

-16797.6 -130.087 -45.5244
-130.087 -17157.2 -278.176
-45.5244 -278.176 -14125.6

-6883.53 1920.66 -633.491
1920.66 1802.36 -76.1015
-633.491 -76.1015 5099.39

-8205.43 2181.51 -19.3971
2181.51 833.313 126.367
-19.3971 126.367 208.001

-7822.22 2991.19 1127.2
2991.19 -579.272 823.436
1127.2 823.436 -5602.99

-17908.2 655.403 372.948
655.403 -17754.8 540.54
372.948 540.54 -18397.1

-17908.2 655.403 372.948
655.403 -17754.8 540.54
372.948 540.54 -18397.1

-15309.9 7.31342e-13 -26.6732
7.31342e-13 -14754.6 -1.34798e-12
-26.6732 -1.34798e-12 -10990.2

-12594.8 4.14832e-12 -939.487
4.14832e-12 -12511.1 -1.43007e-12
-939.487 -1.43007e-12 -12187.2

-12594.8 4.14832e-12 -939.487
4.14832e-12 -12511.1 -1.43007e-12
-939.487 -1.43007e-12 -12187.2

-8760.32 605.862 -976.492
605.862 -2063.19 10.4823
-976.492 10.4823 -6087.07

-8882.29 845.844 21.7205
845.844 -497.833 -360.209
21.7205 -360.209 -500.34

-7135.33 558.477 532.653
558.477 1743.64 -405.946
532.653 -405.946 4594.26

-10682.2 492.783 -576.451
492.783 -6175.77 -998.738
-576.451 -998.738 -388.865

-8466.75 1035.47 131.081
1035.47 221.777 -444.596
131.081 -444.596 126.506

-6704.16 747.821 694.226
747.821 2415.09 -498.359
694.226 -498.359 5224.2

-8825.22 -20.6584 826.499
-20.6584 2476.13 -422.362
826.499 -422.362 1096.64

-9746.65 12.3255 -271.459
12.3255 -5701.32 -510.141
-271.459 -510.141 396.981

-9537.52 14.0045 -241.178
14.0045 -2676.63 -590.094
-241.178 -590.094 -934.23

-8825.08 20.6833 -826.508
20.6833 2476.53 -422.369
-826.508 -422.369 1097.03

-9746.66 -12.3189 271.47
-12.3189 -5701.38 -510.139
271.47 -510.139 396.92

-9537.53 -13.9863 241.179
-13.9863 -2676.69 -590.09
241.179 -590.09 -934.29

-10681.8 -492.841 576.495
-492.841 -6174.83 -998.756
576.495 -998.756 -387.766

-8466.46 -1035.49 -131.07
-1035.49 222.331 -444.604
-131.07 -444.604 127.087

-6703.88 -747.821 -694.226
-747.821 2415.6 -498.366
-694.226 -498.366 5224.77

-8759.98 -605.865 976.527
-605.865 -2062.7 10.4841
976.527 10.4841 -6086.65

-8881.75 -845.889 -21.7112
-845.889 -496.752 -360.224
-21.7112 -360.224 -499.234

-7134.79 -558.494 -532.668
-558.494 1744.66 -405.96
-532.668 -405.96 4595.37

-15309.5 4.64101e-14 26.6802
4.64101e-14 -14754 -3.57196e-12
26.6802 -3.57196e-12 -10989.5

-12594.7 2.07417e-12 939.488
2.07417e-12 -12511.1 7.15031e-13
939.488 7.15031e-13 -12187.2

-12594.7 2.07417e-12 939.488
2.07417e-12 -12511.1 7.15031e-13
939.488 7.15031e-13 -12187.2

-8760.32 -605.862 -976.492
-605.862 -2063.19 -10.4823
-976.492 -10.4823 -6087.07

-12594.8 4.14832e-12 -939.487
4.14832e-12 -12511.1 -1.43007e-12
-939.487 -1.43007e-12 -12187.2

-12594.8 4.14832e-12 -939.487
4.14832e-12 -12511.1 -1.43007e-12
-939.487 -1.43007e-12 -12187.2

-15309.9 7.31342e-13 -26.6732
7.31342e-13 -14754.6 -1.34798e-12
-26.6732 -1.34798e-12 -10990.2

-7135.33 -558.477 532.653
-558.477 1743.64 405.946
532.653 405.946 4594.26

-8882.29 -845.844 21.7205
-845.844 -497.833 360.209
21.7205 360.209 -500.34

-8825.22 20.6584 826.499
20.6584 2476.13 422.362
826.499 422.362 1096.64

-6704.16 -747.821 694.226
-747.821 2415.09 498.359
694.226 498.359 5224.2

-8466.75 -1035.47 131.081
-1035.47 221.777 444.596
131.081 444.596 126.506

-10682.2 -492.783 -576.451
-492.783 -6175.77 998.738
-576.451 998.738 -388.865

-9537.52 -14.0045 -241.178
-14.0045 -2676.63 590.094
-241.178 590.094 -934.23

-9746.65 -12.3255 -271.459
-12.3255 -5701.32 510.141
-271.459 510.141 396.981

-10681.8 492.841 576.495
492.841 -6174.83 998.756
576.495 998.756 -387.766

-9537.53 13.9863 241.179
13.9863 -2676.69 590.09
241.179 590.09 -934.29

-9746.66 12.3189 271.47
12.3189 -5701.38 510.139
271.47 510.139 396.92

-8825.08 -20.6833 -826.508
-20.6833 2476.53 422.369
-826.508 422.369 1097.03

-6703.88 747.821 -694.226
747.821 2415.6 498.366
-694.226 498.366 5224.77

-8466.46 1035.49 -131.07
1035.49 222.331 444.604
-131.07 444.604 127.087

-15309.5 4.64101e-14 26.6802
4.64101e-14 -14754 -3.57196e-12
26.6802 -3.57196e-12 -10989.5

-7134.79 558.494 -532.668
558.494 1744.66 405.96
-532.668 405.96 4595.37

-8881.75 845.889 -21.7112
845.889 -496.752 360.224
-21.7112 360.224 -499.234

-8759.98 605.865 976.527
605.865 -2062.7 -10.4841
976.527 -10.4841 -6086.65

-12594.7 2.07417e-12 939.488
2.07417e-12 -12511.1 7.15031e-13
939.488 7.15031e-13 -12187.2

-12594.7 2.07417e-12 939.488
2.07417e-12 -12511.1 7.15031e-13
939.488 7.15031e-13 -12187.2

-16798 -130.174 45.5301
-130.174 -17157.9 278.162
45.5301 278.162 -14126.5

-17908.4 655.355 -372.92
655.355 -17755.1 -540.537
-372.92 -540.537 -18397.4

-17908.4 655.355 -372.92
655.355 -17755.1 -540.537
-372.92 -540.537 -18397.4

-7822.52 2991.14 -1127.17
2991.14 -579.703 -823.43
-1127.17 -823.43 -5603.38

-8205.95 2181.39 19.408
2181.39 832.284 -126.358
19.408 -126.358 206.941

-6884.04 1920.57 633.473
1920.57 1801.4 76.1061
633.473 76.1061 5098.31

-10191.7 850.208 -518.556
850.208 -5010.15 164.869
-518.556 164.869 522.686

-7867.38 2123.75 154.766
2123.75 1446.04 -3.32499
154.766 -3.32499 833.573

-6513.09 1838.09 815.877
1838.09 2386.31 193.613
815.877 193.613 5724.67

-7251.03 1226.9 1005.93
1226.9 4554.79 212.514
1005.93 212.514 5219.21

-9958.52 175.796 -304.457
175.796 -6630.08 1081.96
-304.457 1081.96 1675.67

-9293.16 445.897 -316.487
445.897 -1195.48 760.47
-316.487 760.47 1444.59

-7251.02 -1226.88 -1005.92
-1226.88 4554.84 212.506
-1005.92 212.506 5219.27

-9958.62 -175.769 304.46
-175.769 -6630.49 1081.95
304.46 1081.95 1675.19

-9293.26 -445.855 316.48
-445.855 -1195.92 760.464
316.48 760.464 1444.14

-10191.4 -850.307 518.602
-850.307 -5009.27 164.868
518.602 164.868 523.719

-7867.12 -2123.81 -154.753
-2123.81 1446.53 -3.33565
-154.753 -3.33565 834.099

-6512.83 -1838.13 -815.878
-1838.13 2386.76 193.606
-815.878 193.606 5725.2

-7822.22 -2991.19 1127.2
-2991.19 -579.272 -823.436
1127.2 -823.436 -5602.99

-8205.43 -2181.51 -19.3971
-2181.51 833.313 -126.367
-19.3971 -126.367 208.001

-6883.53 -1920.66 -633.491
-1920.66 1802.36 76.1015
-633.491 76.1015 5099.39

-16797.6 130.087 -45.5244
130.087 -17157.2 278.176
-45.5244 278.176 -14125.6

-17908.2 -655.403 372.948
-655.403 -17754.8 -540.54
372.948 -540.54 -18397.1

-17908.2 -655.403 372.948
-655.403 -17754.8 -540.54
372.948 -540.54 -18397.1

-10789 -1283.55 -1694.37
-1283.55 -8638.21 772.893
-1694.37 772.893 -4843

-17908.4 -655.355 -372.92
-655.355 -17755.1 540.537
-372.92 540.537 -18397.4

-17908.4 -655.355 -372.92
-655.355 -17755.1 540.537
-372.92 540.537 -18397.4

-7822.52 -2991.14 -1127.17
-2991.14 -579.703 823.43
-1127.17 823.43 -5603.38

-5898.79 -2947.87 -2472.63
-2947.87 4838.93 1090.23
-2472.63 1090.23 4424.2

-5526.96 -3109.1 -2480.51
-3109.1 4874.63 1082.83
-2480.51 1082.83 5954.8

-10482.1 -771.282 -532.109
-771.282 -5895.01 286.293
-532.109 286.293 -501.623

-8708.11 -2081.43 -1832.31
-2081.43 -873.383 990.944
-1832.31 990.944 -1151.24

-8340.37 -2199.28 -1879.79
-2199.28 -735.484 986.794
-1879.79 986.794 266.892

-9641.27 -1140.46 -1248.92
-1140.46 502.425 843.383
-1248.92 843.383 -2354

-9587.54 -399.919 -305.836
-399.919 -2564.09 -194.411
-305.836 -194.411 61.1916

-9528.22 -413.046 -311.881
-413.046 -2267.66 -201.62
-311.881 -201.62 308.442

-9641.06 1140.47 1248.98
1140.47 503.101 843.386
1248.98 843.386 -2353.38

-9587.64 399.879 305.802
399.879 -2564.52 -194.414
305.802 -194.414 60.7359

-9528.32 413.008 311.844
413.008 -2268.09 -201.624
311.844 -201.624 307.986

-10481.9 771.381 532.12
771.381 -5894.12 286.291
532.12 286.291 -500.596

-8707.53 2081.58 1832.43
2081.58 -872.207 990.954
1832.43 990.954 -1150.08

-8339.8 2199.43 1879.91
2199.43 -734.37 986.806
1879.91 986.806 268.068

-7822.22 2991.19 1127.2
2991.19 -579.272 823.436
1127.2 823.436 -5602.99

-5898.16 2948.03 2472.74
2948.03 4840.16 1090.24
2472.74 1090.24 4425.43

-5526.34 3109.25 2480.63
3109.25 4875.79 1082.84
2480.63 1082.84 5956.04

-10788.5 1283.64 1694.43
1283.64 -8637.6 772.901
1694.43 772.901 -4842.3

-17908.2 655.403 372.948
655.403 -17754.8 540.54
372.948 540.54 -18397.1

-17908.2 655.403 372.948
655.403 -17754.8 540.54
372.948 540.54 -18397.1

-8760.32 605.862 -976.492
605.862 -2063.19 10.4823
-976.492 10.4823 -6087.07

-12594.8 4.14832e-12 -939.487
4.14832e-12 -12511.1 -1.43007e-12
-939.487 -1.43007e-12 -12187.2

-12594.8 4.14832e-12 -939.487
4.14832e-12 -12511.1 -1.43007e-12
-939.487 -1.43007e-12 -12187.2

-9204.29 4.16603e-12 -1876.33
4.16603e-12 -7134.56 -1.07522e-12
-1876.33 -1.07522e-12 -2417.59

-6250.39 1164.76 -2171.78
1164.76 4004.54 -192.753
-2171.78 -192.753 4815.22

-6690.32 890.991 -2290.76
890.991 3290.58 -190.558
-2290.76 -190.558 3621.38

-11692.8 0.00967997 -406.699
0.00967997 -4773.64 -0.00421103
-406.699 -0.00421103 -8962.77

-8965.49 957.471 -1618.54
957.471 -1448.18 -216.512
-1618.54 -216.512 -691.722

-9412.65 743.582 -1670.64
743.582 -2221.73 -213.953
-1670.64 -213.953 -1858.51

-10972.4 417.616 -512.159
417.616 -7055.93 -553.07
-512.159 -553.07 -1409.69

-9760.03 0.760759 -214.975
0.760759 -3799.47 -31.0816
-214.975 -31.0816 -2102

-9595.75 0.00898945 -207.256
0.00898945 -1863.77 -0.00125438
-207.256 -0.00125438 -2390.78

-10972 -417.673 512.173
-417.673 -7054.98 -553.072
512.173 -553.072 -1408.59

-9760.04 -0.74447 214.955
-0.74447 -3799.53 -31.0787
214.955 -31.0787 -2102.06

-9595.76 0.00898939 207.235
0.00898939 -1863.83 0.00125426
207.235 0.00125426 -2390.85

-11692.4 0.0096813 406.822
0.0096813 -4772.25 0.00421099
406.822 0.00421099 -8961.55

-8964.89 -957.518 1618.65
-957.518 -1446.99 -216.503
1618.65 -216.503 -690.518

-9412.04 -743.628 1670.76
-743.628 -2220.51 -213.946
1670.76 -213.946 -1857.3

-9204.02 2.08309e-12 1876.36
2.08309e-12 -7134.21 5.37606e-13
1876.36 5.37606e-13 -2417.19

-6249.74 -1164.8 2171.89
-1164.8 4005.79 -192.746
2171.89 -192.746 4816.48

-6689.66 -891.032 2290.88
-891.032 3291.86 -190.553
2290.88 -190.553 3622.65

-8759.98 -605.865 976.527
-605.865 -2062.7 10.4841
976.527 10.4841 -6086.65

-12594.7 2.07417e-12 939.488
2.07417e-12 -12511.1 7.15031e-13
939.488 7.15031e-13 -12187.2

-12594.7 2.07417e-12 939.488
2.07417e-12 -12511.1 7.15031e-13
939.488 7.15031e-13 -12187.2

-9204.29 4.16603e-12 -1876.33
4.16603e-12 -7134.56 -1.07522e-12
-1876.33 -1.07522e-12 -2417.59

-12594.8 4.14832e-12 -939.487
4.14832e-12 -12511.1 -1.43007e-12
-939.487 -1.43007e-12 -12187.2

-12594.8 4.14832e-12 -939.487
4.14832e-12 -12511.1 -1.43007e-12
-939.487 -1.43007e-12 -12187.2

-8760.32 -605.862 -976.492
-605.862 -2063.19 -10.4823
-976.492 -10.4823 -6087.07

-6690.32 -890.991 -2290.76
-890.991 3290.58 190.558
-2290.76 190.558 3621.38

-6250.39 -1164.76 -2171.78
-1164.76 4004.54 192.753
-2171.78 192.753 4815.22

-10972.4 -417.616 -512.159
-417.616 -7055.93 553.07
-512.159 553.07 -1409.69

-9412.65 -743.582 -1670.64
-743.582 -2221.73 213.953
-1670.64 213.953 -1858.51

-8965.49 -957.471 -1618.54
-957.471 -1448.18 216.512
-1618.54 216.512 -691.722

-11692.8 -0.00967997 -406.699
-0.00967997 -4773.64 0.00421103
-406.699 0.00421103 -8962.77

-9595.75 -0.00898945 -207.256
-0.00898945 -1863.77 0.00125438
-207.256 0.00125438 -2390.78

-9760.03 -0.760759 -214.975
-0.760759 -3799.47 31.0816
-214.975 31.0816 -2102

-11692.4 -0.0096813 406.822
-0.0096813 -4772.25 -0.00421099
406.822 -0.00421099 -8961.55

-9595.76 -0.00898939 207.235
-0.00898939 -1863.83 -0.00125426
207.235 -0.00125426 -2390.85

-9760.04 0.74447 214.955
0.74447 -3799.53 31.0787
214.955 31.0787 -2102.06

-10972 417.673 512.173
417.673 -7054.98 553.072
512.173 553.072 -1408.59

-9412.04 743.628 1670.76
743.628 -2220.51 213.946
1670.76 213.946 -1857.3

-8964.89 957.518 1618.65
957.518 -1446.99 216.503
1618.65 216.503 -690.518

-8759.98 605.865 976.527
605.865 -2062.7 -10.4841
976.527 -10.4841 -6086.65

-6689.66 891.032 2290.88
891.032 3291.86 190.553
2290.88 190.553 3622.65

-6249.74 1164.8 2171.89
1164.8 4005.79 192.746
2171.89 192.746 4816.48

-9204.02 2.08309e-12 1876.36
2.08309e-12 -7134.21 5.37606e-13
1876.36 5.37606e-13 -2417.19

-12594.7 2.07417e-12 939.488
2.07417e-12 -12511.1 7.15031e-13
939.488 7.15031e-13 -12187.2

-12594.7 2.07417e-12 939.488
2.07417e-12 -12511.1 7.15031e-13
939.488 7.15031e-13 -12187.2

-7822.52 2991.14 -1127.17
2991.14 -579.703 -823.43
-1127.17 -823.43 -5603.38

-17908.4 655.355 -372.92
655.355 -17755.1 -540.537
-372.92 -540.537 -18397.4

-17908.4 655.355 -372.92
655.355 -17755.1 -540.537
-372.92 -540.537 -18397.4

-10789 1283.55 -1694.37
1283.55 -8638.21 -772.893
-1694.37 -772.893 -4843

-5526.96 3109.1 -2480.51
3109.1 4874.63 -1082.83
-2480.51 -1082.83 5954.8

-5898.79 2947.87 -2472.63
2947.87 4838.93 -1090.23
-2472.63 -1090.23 4424.2

-9641.27 1140.46 -1248.92
1140.46 502.425 -843.383
-1248.92 -843.383 -2354

-8340.37 2199.28 -1879.79
2199.28 -735.484 -986.794
-1879.79 -986.794 266.892

-8708.11 2081.43 -1832.31
2081.43 -873.383 -990.944
-1832.31 -990.944 -1151.24

-10482.1 771.282 -532.109
771.282 -5895.01 -286.293
-532.109 -286.293 -501.623

-9528.22 413.046 -311.881
413.046 -2267.66 201.62
-311.881 201.62 308.442

-9587.54 399.919 -305.836
399.919 -2564.09 194.411
-305.836 194.411 61.1916

-10481.9 -771.381 532.12
-771.381 -5894.12 -286.291
532.12 -286.291 -500.596

-9528.32 -413.008 311.844
-413.008 -2268.09 201.624
311.844 201.624 307.986

-9587.64 -399.879 305.802
-399.879 -2564.52 194.414
305.802 194.414 60.7359

-9641.06 -1140.47 1248.98
-1140.47 503.101 -843.386
1248.98 -843.386 -2353.38

-8339.8 -2199.43 1879.91
-2199.43 -734.37 -986.806
1879.91 -986.806 268.068

-8707.53 -2081.58 1832.43
-2081.58 -872.207 -990.954
1832.43 -990.954 -1150.08

-10788.5 -1283.64 1694.43
-1283.64 -8637.6 -772.901
1694.43 -772.901 -4842.3

-5526.34 -3109.25 2480.63
-3109.25 4875.79 -1082.84
2480.63 -1082.84 5956.04

-5898.16 -2948.03 2472.74
-2948.03 4840.16 -1090.24
2472.74 -1090.24 4425.43

-7822.22 -2991.19 1127.2
-2991.19 -579.272 -823.436
1127.2 -823.436 -5602.99

-17908.2 -655.403 372.948
-655.403 -17754.8 -540.54
372.948 -540.54 -18397.1

-17908.2 -655.403 372.948
-655.403 -17754.8 -540.54
372.948 -540.54 -18397.1

-7822.52 -2991.14 1127.17
-2991.14 -579.703 -823.43
1127.17 -823.43 -5603.38

-17908.4 -655.355 372.92
-655.355 -17755.1 -540.537
372.92 -540.537 -18397.4

-17908.4 -655.355 372.92
-655.355 -17755.1 -540.537
372.92 -540.537 -18397.4

-10789 -1283.55 1694.37
-1283.55 -8638.21 -772.893
1694.37 -772.893 -4843

-5526.96 -3109.1 2480.51
-3109.1 4874.63 -1082.83
2480.51 -1082.83 5954.8

-5898.79 -2947.87 2472.63
-2947.87 4838.93 -1090.23
2472.63 -1090.23 4424.2

-9641.27 -1140.46 1248.92
-1140.46 502.425 -843.383
1248.92 -843.383 -2354

-8340.37 -2199.28 1879.79
-2199.28 -735.484 -986.794
1879.79 -986.794 266.892

-8708.11 -2081.43 1832.31
-2081.43 -873.383 -990.944
1832.31 -990.944 -1151.24

-10482.1 -771.282 532.109
-771.282 -5895.01 -286.293
532.109 -286.293 -501.623

-9528.22 -413.046 311.881
-413.046 -2267.66 201.62
311.881 201.62 308.442

-9587.54 -399.919 305.836
-399.919 -2564.09 194.411
305.836 194.411 61.1916

-10481.9 771.381 -532.12
771.381 -5894.12 -286.291
-532.12 -286.291 -500.596

-9528.32 413.008 -311.844
413.008 -2268.09 201.624
-311.844 201.624 307.986

-9587.64 399.879 -305.802
399.879 -2564.52 194.414
-305.802 194.414 60.7359

-9641.06 1140.47 -1248.98
1140.47 503.101 -843.386
-1248.98 -843.386 -2353.38

-8339.8 2199.43 -1879.91
2199.43 -734.37 -986.806
-1879.91 -986.806 268.068

-8707.53 2081.58 -1832.43
2081.58 -872.207 -990.954
-1832.43 -990.954 -1150.08

-10788.5 1283.64 -1694.43
1283.64 -8637.6 -772.901
-1694.43 -772.901 -4842.3

-5526.34 3109.25 -2480.63
3109.25 4875.79 -1082.84
-2480.63 -1082.84 5956.04

-5898.16 2948.03 -2472.74
2948.03 4840.16 -1090.24
-2472.74 -1090.24 4425.43

-7822.22 2991.19 -1127.2
2991.19 -579.272 -823.436
-1127.2 -823.436 -5602.99

-17908.2 655.403 -372.948
655.403 -17754.8 -540.54
-372.948 -540.54 -18397.1

-17908.2 655.403 -372.948
655.403 -17754.8 -540.54
-372.948 -540.54 -18397.1

-9204.29 4.16603e-12 1876.33
4.16603e-12 -7134.56 1.07522e-12
1876.33 1.07522e-12 -2417.59

-12594.8 4.14832e-12 939.487
4.14832e-12 -12511.1 1.43007e-12
939.487 1.43007e-12 -12187.2

-12594.8 4.14832e-12 939.487
4.14832e-12 -12511.1 1.43007e-12
939.487 1.43007e-12 -12187.2

-8760.32 605.862 976.492
605.862 -2063.19 -10.4823
976.492 -10.4823 -6087.07

-6690.32 890.991 2290.76
890.991 3290.58 190.558
2290.76 190.558 3621.38

-6250.39 1164.76 2171.78
1164.76 4004.54 192.753
2171.78 192.753 4815.22

-10972.4 417.616 512.159
417.616 -7055.93 553.07
512.159 553.07 -1409.69

-9412.65 743.582 1670.64
743.582 -2221.73 213.953
1670.64 213.953 -1858.51

-8965.49 957.471 1618.54
957.471 -1448.18 216.512
1618.54 216.512 -691.722

-11692.8 0.00967997 406.699
0.00967997 -4773.64 0.00421103
406.699 0.00421103 -8962.77

-9595.75 0.00898945 207.256
0.00898945 -1863.77 0.00125438
207.256 0.00125438 -2390.78

-9760.03 0.760759 214.975
0.760759 -3799.47 31.0816
214.975 31.0816 -2102

-11692.4 0.0096813 -406.822
0.0096813 -4772.25 -0.00421099
-406.822 -0.00421099 -8961.55

-9595.76 0.00898939 -207.235
0.00898939 -1863.83 -0.00125426
-207.235 -0.00125426 -2390.85

-9760.04 -0.74447 -214.955
-0.74447 -3799.53 31.0787
-214.955 31.0787 -2102.06

-10972 -417.673 -512.173
-417.673 -7054.98 553.072
-512.173 553.072 -1408.59

-9412.04 -743.628 -1670.76
-743.628 -2220.51 213.946
-1670.76 213.946 -1857.3

-8964.89 -957.518 -1618.65
-957.518 -1446.99 216.503
-1618.65 216.503 -690.518

-8759.98 -605.865 -976.527
-605.865 -2062.7 -10.4841
-976.527 -10.4841 -6086.65

-6689.66 -891.032 -2290.88
-891.032 3291.86 190.553
-2290.88 190.553 3622.65

-6249.74 -1164.8 -2171.89
-1164.8 4005.79 192.746
-2171.89 192.746 4816.48

-9204.02 2.08309e-12 -1876.36
2.08309e-12 -7134.21 -5.37606e-13
-1876.36 -5.37606e-13 -2417.19

-12594.7 2.07417e-12 -939.488
2.07417e-12 -12511.1 -7.15031e-13
-939.488 -7.15031e-13 -12187.2

-12594.7 2.07417e-12 -939.488
2.07417e-12 -12511.1 -7.15031e-13
-939.488 -7.15031e-13 -12187.2

-8760.32 -605.862 976.492
-605.862 -2063.19 10.4823
976.492 10.4823 -6087.07

-12594.8 4.14832e-12 939.487
4.14832e-12 -12511.1 1.43007e-12
939.487 1.43007e-12 -12187.2

-12594.8 4.14832e-12 939.487
4.14832e-12 -12511.1 1.43007e-12
939.487 1.43007e-12 -12187.2

-9204.29 4.16603e-12 1876.33
4.16603e-12 -7134.56 1.07522e-12
1876.33 1.07522e-12 -2417.59

-6250.39 -1164.76 2171.78
-1164.76 4004.54 -192.753
2171.78 -192.753 4815.22

-6690.32 -890.991 2290.76
-890.991 3290.58 -190.558
2290.76 -190.558 3621.38

-11692.8 -0.00967997 406.699
-0.00967997 -4773.64 -0.00421103
406.699 -0.00421103 -8962.77

-8965.49 -957.471 1618.54
-957.471 -1448.18 -216.512
1618.54 -216.512 -691.722

-9412.65 -743.582 1670.64
-743.582 -2221.73 -213.953
1670.64 -213.953 -1858.51

-10972.4 -417.616 512.159
-417.616 -7055.93 -553.07
512.159 -553.07 -1409.69

-9760.03 -0.760759 214.975
-0.760759 -3799.47 -31.0816
214.975 -31.0816 -2102

-9595.75 -0.00898945 207.256
-0.00898945 -1863.77 -0.00125438
207.256 -0.00125438 -2390.78

-10972 417.673 -512.173
417.673 -7054.98 -553.072
-512.173 -553.072 -1408.59

-9760.04 0.74447 -214.955
0.74447 -3799.53 -31.0787
-214.955 -31.0787 -2102.06

-9595.76 -0.00898939 -207.235
-0.00898939 -1863.83 0.00125426
-207.235 0.00125426 -2390.85

-11692.4 -0.0096813 -406.822
-0.0096813 -4772.25 0.00421099
-406.822 0.00421099 -8961.55

-8964.89 957.518 -1618.65
957.518 -1446.99 -216.503
-1618.65 -216.503 -690.518

-9412.04 743.628 -1670.76
743.628 -2220.51 -213.946
-1670.76 -213.946 -1857.3

-9204.02 2.08309e-12 -1876.36
2.08309e-12 -7134.21 -5.37606e-13
-1876.36 -5.37606e-13 -2417.19

-6249.74 1164.8 -2171.89
1164.8 4005.79 -192.746
-2171.89 -192.746 4816.48

-6689.66 891.032 -2290.88
891.032 3291.86 -190.553
-2290.88 -190.553 3622.65

-8759.98 605.865 -976.527
605.865 -2062.7 10.4841
-976.527 10.4841 -6086.65

-12594.7 2.07417e-12 -939.488
2.07417e-12 -12511.1 -7.15031e-13
-939.488 -7.15031e-13 -12187.2

-12594.7 2.07417e-12 -939.488
2.07417e-12 -12511.1 -7.15031e-13
-939.488 -7.15031e-13 -12187.2

-10789 1283.55 1694.37
1283.55 -8638.21 772.893
1694.37 772.893 -4843

-17908.4 655.355 372.92
655.355 -17755.1 540.537
372.92 540.537 -18397.4

-17908.4 655.355 372.92
655.355 -17755.1 540.537
372.92 540.537 -18397.4

-7822.52 2991.14 1127.17
2991.14 -579.703 823.43
1127.17 823.43 -5603.38

-5898.79 2947.87 2472.63
2947.87 4838.93 1090.23
2472.63 1090.23 4424.2

-5526.96 3109.1 2480.51
3109.1 4874.63 1082.83
2480.51 1082.83 5954.8

-10482.1 771.282 532.109
771.282 -5895.01 286.293
532.109 286.293 -501.623

-8708.11 2081.43 1832.31
2081.43 -873.383 990.944
1832.31 990.944 -1151.24

-8340.37 2199.28 1879.79
2199.28 -735.484 986.794
1879.79 986.794 266.892

-9641.27 1140.46 1248.92
1140.46 502.425 843.383
1248.92 843.383 -2354

-9587.54 399.919 305.836
399.919 -2564.09 -194.411
305.836 -194.411 61.1916

-9528.22 413.046 311.881
413.046 -2267.66 -201.62
311.881 -201.62 308.442

-9641.06 -1140.47 -1248.98
-1140.47 503.101 843.386
-1248.98 843.386 -2353.38

-9587.64 -399.879 -305.802
-399.879 -2564.52 -194.414
-305.802 -194.414 60.7359

-9528.32 -413.008 -311.844
-413.008 -2268.09 -201.624
-311.844 -201.624 307.986

-10481.9 -771.381 -532.12
-771.381 -5894.12 286.291
-532.12 286.291 -500.596

-8707.53 -2081.58 -1832.43
-2081.58 -872.207 990.954
-1832.43 990.954 -1150.08

-8339.8 -2199.43 -1879.91
-2199.43 -734.37 986.806
-1879.91 986.806 268.068

-7822.22 -2991.19 -1127.2
-2991.19 -579.272 823.436
-1127.2 823.436 -5602.99

-5898.16 -2948.03 -2472.74
-2948.03 4840.16 1090.24
-2472.74 1090.24 4425.43

-5526.34 -3109.25 -2480.63
-3109.25 4875.79 1082.84
-2480.63 1082.84 5956.04

-10788.5 -1283.64 -1694.43
-1283.64 -8637.6 772.901
-1694.43 772.901 -4842.3

-17908.2 -655.403 -372.948
-655.403 -17754.8 540.54
-372.948 540.54 -18397.1

-17908.2 -655.403 -372.948
-655.403 -17754.8 540.54
-372.948 540.54 -18397.1

-16798 130.174 -45.5301
130.174 -17157.9 278.162
-45.5301 278.162 -14126.5

-17908.4 -655.355 372.92
-655.355 -17755.1 -540.537
372.92 -540.537 -18397.4

-17908.4 -655.355 372.92
-655.355 -17755.1 -540.537
372.92 -540.537 -18397.4

-7822.52 -2991.14 1127.17
-2991.14 -579.703 -823.43
1127.17 -823.43 -5603.38

-8205.95 -2181.39 -19.408
-2181.39 832.284 -126.358
-19.408 -126.358 206.941

-6884.04 -1920.57 -633.473
-1920.57 1801.4 76.1061
-633.473 76.1061 5098.31

-10191.7 -850.208 518.556
-850.208 -5010.15 164.869
518.556 164.869 522.686

-7867.38 -2123.75 -154.766
-2123.75 1446.04 -3.32499
-154.766 -3.32499 833.573

-6513.09 -1838.09 -815.877
-1838.09 2386.31 193.613
-815.877 193.613 5724.67

-7251.03 -1226.9 -1005.93
-1226.9 4554.79 212.514
-1005.93 212.514 5219.21

-9958.52 -175.796 304.457
-175.796 -6630.08 1081.96
304.457 1081.96 1675.67

-9293.16 -445.897 316.487
-445.897 -1195.48 760.47
316.487 760.47 1444.59

-7251.02 1226.88 1005.92
1226.88 4554.84 212.506
1005.92 212.506 5219.27

-9958.62 175.769 -304.46
175.769 -6630.49 1081.95
-304.46 1081.95 1675.19

-9293.26 445.855 -316.48
445.855 -1195.92 760.464
-316.48 760.464 1444.14

-10191.4 850.307 -518.602
850.307 -5009.27 164.868
-518.602 164.868 523.719

-7867.12 2123.81 154.753
2123.81 1446.53 -3.33565
154.753 -3.33565 834.099

-6512.83 1838.13 815.878
1838.13 2386.76 193.606
815.878 193.606 5725.2

-7822.22 2991.19 -1127.2
2991.19 -579.272 -823.436
-1127.2 -823.436 -5602.99

-8205.43 2181.51 19.3971
2181.51 833.313 -126.367
19.3971 -126.367 208.001

-6883.53 1920.66 633.491
1920.66 1802.36 76.1015
633.491 76.1015 5099.39

-16797.6 -130.087 45.5244
-130.087 -17157.2 278.176
45.5244 278.176 -14125.6

-17908.2 655.403 -372.948
655.403 -17754.8 -540.54
-372.948 -540.54 -18397.1

-17908.2 655.403 -372.948
655.403 -17754.8 -540.54
-372.948 -540.54 -18397.1

-8760.32 605.862 976.492
605.862 -2063.19 -10.4823
976.492 -10.4823 -6087.07

-12594.8 4.14832e-12 939.487
4.14832e-12 -12511.1 1.43007e-12
939.487 1.43007e-12 -12187.2

-12594.8 4.14832e-12 939.487
4.14832e-12 -12511.1 1.43007e-12
939.487 1.43007e-12 -12187.2

-15309.9 4.63949e-14 26.6732
4.63949e-14 -14754.6 -3.57183e-12
26.6732 -3.57183e-12 -10990.2

-7135.33 558.477 -532.653
558.477 1743.64 405.946
-532.653 405.946 4594.26

-8882.29 845.844 -21.7205
845.844 -497.833 360.209
-21.7205 360.209 -500.34

-8825.22 -20.6584 -826.499
-20.6584 2476.13 422.362
-826.499 422.362 1096.64

-6704.16 747.821 -694.226
747.821 2415.09 498.359
-694.226 498.359 5224.2

-8466.75 1035.47 -131.081
1035.47 221.777 444.596
-131.081 444.596 126.506

-10682.2 492.783 576.451
492.783 -6175.77 998.738
576.451 998.738 -388.865

-9537.52 14.0045 241.178
14.0045 -2676.63 590.094
241.178 590.094 -934.23

-9746.65 12.3255 271.459
12.3255 -5701.32 510.141
271.459 510.141 396.981

-10681.8 -492.841 -576.495
-492.841 -6174.83 998.756
-576.495 998.756 -387.766

-9537.53 -13.9863 -241.179
-13.9863 -2676.69 590.09
-241.179 590.09 -934.29

-9746.66 -12.3189 -271.47
-12.3189 -5701.38 510.139
-271.47 510.139 396.92

-8825.08 20.6833 826.508
20.6833 2476.53 422.369
826.508 422.369 1097.03

-6703.88 -747.821 694.226
-747.821 2415.6 498.366
694.226 498.366 5224.77

-8466.46 -1035.49 131.07
-1035.49 222.331 444.604
131.07 444.604 127.087

-15309.5 3.65778e-13 -26.6802
3.65778e-13 -14754 -6.74014e-13
-26.6802 -6.74014e-13 -10989.5

-7134.79 -558.494 532.668
-558.494 1744.66 405.96
532.668 405.96 4595.37

-8881.75 -845.889 21.7112
-845.889 -496.752 360.224
21.7112 360.224 -499.234

-8759.98 -605.865 -976.527
-605.865 -2062.7 -10.4841
-976.527 -10.4841 -6086.65

-12594.7 2.07417e-12 -939.488
2.07417e-12 -12511.1 -7.15031e-13
-939.488 -7.15031e-13 -12187.2

-12594.7 2.07417e-12 -939.488
2.07417e-12 -12511.1 -7.15031e-13
-939.488 -7.15031e-13 -12187.2

-15309.9 9.27898e-14 26.6732
9.27898e-14 -14754.6 -7.14365e-12
26.6732 -7.14365e-12 -10990.2

-12594.8 4.14832e-12 939.487
4.14832e-12 -12511.1 1.43007e-12
939.487 1.43007e-12 -12187.2

-12594.8 4.14832e-12 939.487
4.14832e-12 -12511.1 1.43007e-12
939.487 1.43007e-12 -12187.2

-8760.32 -605.862 976.492
-605.862 -2063.19 10.4823
976.492 10.4823 -6087.07

-8882.29 -845.844 -21.7205
-845.844 -497.833 -360.209
-21.7205 -360.209 -500.34

-7135.33 -558.477 -532.653
-558.477 1743.64 -405.946
-532.653 -405.946 4594.26

-10682.2 -492.783 576.451
-492.783 -6175.77 -998.738
576.451 -998.738 -388.865

-8466.75 -1035.47 -131.081
-1035.47 221.777 -444.596
-131.081 -444.596 126.506

-6704.16 -747.821 -694.226
-747.821 2415.09 -498.359
-694.226 -498.359 5224.2

-8825.22 20.6584 -826.499
20.6584 2476.13 -422.362
-826.499 -422.362 1096.64

-9746.65 -12.3255 271.459
-12.3255 -5701.32 -510.141
271.459 -510.141 396.981

-9537.52 -14.0045 241.178
-14.0045 -2676.63 -590.094
241.178 -590.094 -934.23

-8825.08 -20.6833 826.508
-20.6833 2476.53 -422.369
826.508 -422.369 1097.03

-9746.66 12.3189 -271.47
12.3189 -5701.38 -510.139
-271.47 -510.139 396.92

-9537.53 13.9863 -241.179
13.9863 -2676.69 -590.09
-241.179 -590.09 -934.29

-10681.8 492.841 -576.495
492.841 -6174.83 -998.756
-576.495 -998.756 -387.766

-8466.46 1035.49 131.07
1035.49 222.331 -444.604
131.07 -444.604 127.087

-6703.88 747.821 694.226
747.821 2415.6 -498.366
694.226 -498.366 5224.77

-8759.98 605.865 -976.527
605.865 -2062.7 10.4841
-976.527 10.4841 -6086.65

-8881.75 845.889 21.7112
845.889 -496.752 -360.224
21.7112 -360.224 -499.234

-7134.79 558.494 532.668
558.494 1744.66 -405.96
532.668 -405.96 4595.37

-15309.5 3.65778e-13 -26.6802
3.65778e-13 -14754 -6.74014e-13
-26.6802 -6.74014e-13 -10989.5

-12594.7 2.07417e-12 -939.488
2.07417e-12 -12511.1 -7.15031e-13
-939.488 -7.15031e-13 -12187.2

-12594.7 2.07417e-12 -939.488
2.07417e-12 -12511.1 -7.15031e-13
-939.488 -7.15031e-13 -12187.2

-7822.52 2991.14 1127.17
2991.14 -579.703 823.43
1127.17 823.43 -5603.38

-17908.4 655.355 372.92
655.355 -17755.1 540.537
372.92 540.537 -18397.4

-17908.4 655.355 372.92
655.355 -17755.1 540.537
372.92 540.537 -18397.4

-16798 -130.174 -45.5301
-130.174 -17157.9 -278.162
-45.5301 -278.162 -14126.5

-6884.04 1920.57 -633.473
1920.57 1801.4 -76.1061
-633.473 -76.1061 5098.31

-8205.95 2181.39 -19.408
2181.39 832.284 126.358
-19.408 126.358 206.941

-7251.03 1226.9 -1005.93
1226.9 4554.79 -212.514
-1005.93 -212.514 5219.21

-6513.09 1838.09 -815.877
1838.09 2386.31 -193.613
-815.877 -193.613 5724.67

-7867.38 2123.75 -154.766
2123.75 1446.04 3.32499
-154.766 3.32499 833.573

-10191.7 850.208 518.556
850.208 -5010.15 -164.869
518.556 -164.869 522.686

-9293.16 445.897 316.487
445.897 -1195.48 -760.47
316.487 -760.47 1444.59

-9958.52 175.796 304.457
175.796 -6630.08 -1081.96
304.457 -1081.96 1675.67

-10191.4 -850.307 -518.602
-850.307 -5009.27 -164.868
-518.602 -164.868 523.719

-9293.26 -445.855 -316.48
-445.855 -1195.92 -760.464
-316.48 -760.464 1444.14

-9958.62 -175.769 -304.46
-175.769 -6630.49 -1081.95
-304.46 -1081.95 1675.19

-7251.02 -1226.88 1005.92
-1226.88 4554.84 -212.506
1005.92 -212.506 5219.27

-6512.83 -1838.13 815.878
-1838.13 2386.76 -193.606
815.878 -193.606 5725.2

-7867.12 -2123.81 154.753
-2123.81 1446.53 3.33565
154.753 3.33565 834.099

-16797.6 130.087 45.5244
130.087 -17157.2 -278.176
45.5244 -278.176 -14125.6

-6883.53 -1920.66 633.491
-1920.66 1802.36 -76.1015
633.491 -76.1015 5099.39

-8205.43 -2181.51 19.3971
-2181.51 833.313 126.367
19.3971 126.367 208.001

-7822.22 -2991.19 -1127.2
-2991.19 -579.272 823.436
-1127.2 823.436 -5602.99

-17908.2 -655.403 -372.948
-655.403 -17754.8 540.54
-372.948 540.54 -18397.1

-17908.2 -655.403 -372.948
-655.403 -17754.8 540.54
-372.948 540.54 -18397.1

