# vtk DataFile Version 3.0
vtk output at time 0.8
ASCII
DATASET UNSTRUCTURED_GRID
POINTS 125 float
0 0 0 0 0 0.05 0 0 0.1 
0 0 0.15 0 0 0.2 0 0.05 0 
0 0.05 0.05 0 0.05 0.1 0 0.05 0.15 
0 0.05 0.2 0 0.1 0 0 0.1 0.05 
0 0.1 0.1 0 0.1 0.15 0 0.1 0.2 
0 0.15 0 0 0.15 0.05 0 0.15 0.1 
0 0.15 0.15 0 0.15 0.2 0 0.2 0 
0 0.2 0.05 0 0.2 0.1 0 0.2 0.15 
0 0.2 0.2 0.0422227 -0.00594361 -0.00921965 0.0483156 -0.00800376 0.0454732 
0.0437756 -0.00731492 0.1 0.0483156 -0.00800376 0.154527 0.0422227 -0.00594361 0.20922 
0.0399165 0.0468801 -0.00755414 0.044856 0.0460389 0.0459752 0.0400788 0.0462386 0.1 
0.044856 0.0460389 0.154025 0.0399165 0.0468801 0.207554 0.0432743 0.1 -0.00866764 
0.0492049 0.1 0.0457527 0.0448306 0.1 0.1 0.0492049 0.1 0.154247 
0.0432743 0.1 0.208668 0.0399165 0.15312 -0.00755414 0.044856 0.153961 0.0459752 
0.0400788 0.153761 0.1 0.044856 0.153961 0.154025 0.0399165 0.15312 0.207554 
0.0422227 0.205944 -0.00921965 0.0483156 0.208004 0.0454732 0.0437756 0.207315 0.1 
0.0483156 0.208004 0.154527 0.0422227 0.205944 0.20922 0.08 -0.0100859 -0.0161258 
0.08 -0.01284 0.0426198 0.08 -0.0131114 0.1 0.08 -0.01284 0.15738 
0.08 -0.0100859 0.216126 0.0799999 0.0443782 -0.0145956 0.08 0.04326 0.0427097 
0.0799999 0.0428873 0.1 0.08 0.04326 0.15729 0.0799999 0.0443782 0.214596 
0.08 0.1 -0.0153413 0.08 0.1 0.04306 0.08 0.1 0.1 
0.08 0.1 0.15694 0.08 0.1 0.215341 0.0799999 0.155622 -0.0145956 
0.08 0.15674 0.0427097 0.0799999 0.157113 0.1 0.08 0.15674 0.15729 
0.0799999 0.155622 0.214596 0.08 0.210086 -0.0161258 0.08 0.21284 0.0426198 
0.08 0.213111 0.1 0.08 0.21284 0.15738 0.08 0.210086 0.216126 
0.117777 -0.00594358 -0.00921965 0.111684 -0.00800374 0.0454732 0.116224 -0.00731489 0.1 
0.111684 -0.00800374 0.154527 0.117777 -0.00594358 0.20922 0.120083 0.0468802 -0.00755413 
0.115144 0.0460389 0.0459752 0.119921 0.0462386 0.1 0.115144 0.0460389 0.154025 
0.120083 0.0468802 0.207554 0.116726 0.1 -0.00866763 0.110795 0.1 0.0457528 
0.115169 0.1 0.1 0.110795 0.1 0.154247 0.116726 0.1 0.208668 
0.120083 0.15312 -0.00755413 0.115144 0.153961 0.0459752 0.119921 0.153761 0.1 
0.115144 0.153961 0.154025 0.120083 0.15312 0.207554 0.117777 0.205944 -0.00921965 
0.111684 0.208004 0.0454732 0.116224 0.207315 0.1 0.111684 0.208004 0.154527 
0.117777 0.205944 0.20922 0.16 0 0 0.16 0 0.05 
0.16 0 0.1 0.16 0 0.15 0.16 0 0.2 
0.16 0.05 0 0.16 0.05 0.05 0.16 0.05 0.1 
0.16 0.05 0.15 0.16 0.05 0.2 0.16 0.1 0 
0.16 0.1 0.05 0.16 0.1 0.1 0.16 0.1 0.15 
0.16 0.1 0.2 0.16 0.15 0 0.16 0.15 0.05 
0.16 0.15 0.1 0.16 0.15 0.15 0.16 0.15 0.2 
0.16 0.2 0 0.16 0.2 0.05 0.16 0.2 0.1 
0.16 0.2 0.15 0.16 0.2 0.2 

CELLS 384 1920
4 5 6 26 31 
4 5 6 1 26 
4 0 5 1 26 
4 0 5 26 25 
4 25 5 26 30 
4 30 5 26 31 
4 26 25 55 50 
4 26 25 30 55 
4 31 26 30 55 
4 26 31 56 55 
4 26 56 51 55 
4 26 51 50 55 
4 55 56 76 81 
4 55 56 51 76 
4 50 55 51 76 
4 50 55 76 75 
4 75 55 76 80 
4 80 55 76 81 
4 76 75 105 100 
4 76 75 80 105 
4 81 76 80 105 
4 76 81 106 105 
4 76 106 101 105 
4 76 101 100 105 
4 10 5 35 36 
4 5 10 11 36 
4 6 5 11 36 
4 5 6 31 36 
4 5 31 30 36 
4 5 30 35 36 
4 36 31 55 56 
4 36 31 30 55 
4 35 36 30 55 
4 35 36 55 60 
4 60 36 55 61 
4 61 36 55 56 
4 60 55 85 86 
4 55 60 61 86 
4 56 55 61 86 
4 55 56 81 86 
4 55 81 80 86 
4 55 80 85 86 
4 86 81 105 106 
4 86 81 80 105 
4 85 86 80 105 
4 85 86 105 110 
4 110 86 105 111 
4 111 86 105 106 
4 15 16 36 41 
4 15 16 11 36 
4 10 15 11 36 
4 10 15 36 35 
4 35 15 36 40 
4 40 15 36 41 
4 36 35 65 60 
4 36 35 40 65 
4 41 36 40 65 
4 36 41 66 65 
4 36 66 61 65 
4 36 61 60 65 
4 65 66 86 91 
4 65 66 61 86 
4 60 65 61 86 
4 60 65 86 85 
4 85 65 86 90 
4 90 65 86 91 
4 86 85 115 110 
4 86 85 90 115 
4 91 86 90 115 
4 86 91 116 115 
4 86 116 111 115 
4 86 111 110 115 
4 20 15 45 46 
4 15 20 21 46 
4 16 15 21 46 
4 15 16 41 46 
4 15 41 40 46 
4 15 40 45 46 
4 46 41 65 66 
4 46 41 40 65 
4 45 46 40 65 
4 45 46 65 70 
4 70 46 65 71 
4 71 46 65 66 
4 70 65 95 96 
4 65 70 71 96 
4 66 65 71 96 
4 65 66 91 96 
4 65 91 90 96 
4 65 90 95 96 
4 96 91 115 116 
4 96 91 90 115 
4 95 96 90 115 
4 95 96 115 120 
4 120 96 115 121 
4 121 96 115 116 
4 7 2 26 27 
4 7 2 1 26 
4 6 7 1 26 
4 6 7 26 31 
4 31 7 26 32 
4 32 7 26 27 
4 31 26 56 57 
4 26 31 32 57 
4 27 26 32 57 
4 26 27 52 57 
4 26 52 51 57 
4 26 51 56 57 
4 57 52 76 77 
4 57 52 51 76 
4 56 57 51 76 
4 56 57 76 81 
4 81 57 76 82 
4 82 57 76 77 
4 81 76 106 107 
4 76 81 82 107 
4 77 76 82 107 
4 76 77 102 107 
4 76 102 101 107 
4 76 101 106 107 
4 7 6 36 31 
4 7 6 11 36 
4 12 7 11 36 
4 7 12 37 36 
4 7 37 32 36 
4 7 32 31 36 
4 36 37 57 62 
4 36 37 32 57 
4 31 36 32 57 
4 31 36 57 56 
4 56 36 57 61 
4 61 36 57 62 
4 57 56 86 81 
4 57 56 61 86 
4 62 57 61 86 
4 57 62 87 86 
4 57 87 82 86 
4 57 82 81 86 
4 86 87 107 112 
4 86 87 82 107 
4 81 86 82 107 
4 81 86 107 106 
4 106 86 107 111 
4 111 86 107 112 
4 17 12 36 37 
4 17 12 11 36 
4 16 17 11 36 
4 16 17 36 41 
4 41 17 36 42 
4 42 17 36 37 
4 41 36 66 67 
4 36 41 42 67 
4 37 36 42 67 
4 36 37 62 67 
4 36 62 61 67 
4 36 61 66 67 
4 67 62 86 87 
4 67 62 61 86 
4 66 67 61 86 
4 66 67 86 91 
4 91 67 86 92 
4 92 67 86 87 
4 91 86 116 117 
4 86 91 92 117 
4 87 86 92 117 
4 86 87 112 117 
4 86 112 111 117 
4 86 111 116 117 
4 17 16 46 41 
4 17 16 21 46 
4 22 17 21 46 
4 17 22 47 46 
4 17 47 42 46 
4 17 42 41 46 
4 46 47 67 72 
4 46 47 42 67 
4 41 46 42 67 
4 41 46 67 66 
4 66 46 67 71 
4 71 46 67 72 
4 67 66 96 91 
4 67 66 71 96 
4 72 67 71 96 
4 67 72 97 96 
4 67 97 92 96 
4 67 92 91 96 
4 96 97 117 122 
4 96 97 92 117 
4 91 96 92 117 
4 91 96 117 116 
4 116 96 117 121 
4 121 96 117 122 
4 7 8 28 33 
4 7 8 3 28 
4 2 7 3 28 
4 2 7 28 27 
4 27 7 28 32 
4 32 7 28 33 
4 28 27 57 52 
4 28 27 32 57 
4 33 28 32 57 
4 28 33 58 57 
4 28 58 53 57 
4 28 53 52 57 
4 57 58 78 83 
4 57 58 53 78 
4 52 57 53 78 
4 52 57 78 77 
4 77 57 78 82 
4 82 57 78 83 
4 78 77 107 102 
4 78 77 82 107 
4 83 78 82 107 
4 78 83 108 107 
4 78 108 103 107 
4 78 103 102 107 
4 12 7 37 38 
4 7 12 13 38 
4 8 7 13 38 
4 7 8 33 38 
4 7 33 32 38 
4 7 32 37 38 
4 38 33 57 58 
4 38 33 32 57 
4 37 38 32 57 
4 37 38 57 62 
4 62 38 57 63 
4 63 38 57 58 
4 62 57 87 88 
4 57 62 63 88 
4 58 57 63 88 
4 57 58 83 88 
4 57 83 82 88 
4 57 82 87 88 
4 88 83 107 108 
4 88 83 82 107 
4 87 88 82 107 
4 87 88 107 112 
4 112 88 107 113 
4 113 88 107 108 
4 17 18 38 43 
4 17 18 13 38 
4 12 17 13 38 
4 12 17 38 37 
4 37 17 38 42 
4 42 17 38 43 
4 38 37 67 62 
4 38 37 42 67 
4 43 38 42 67 
4 38 43 68 67 
4 38 68 63 67 
4 38 63 62 67 
4 67 68 88 93 
4 67 68 63 88 
4 62 67 63 88 
4 62 67 88 87 
4 87 67 88 92 
4 92 67 88 93 
4 88 87 117 112 
4 88 87 92 117 
4 93 88 92 117 
4 88 93 118 117 
4 88 118 113 117 
4 88 113 112 117 
4 22 17 47 48 
4 17 22 23 48 
4 18 17 23 48 
4 17 18 43 48 
4 17 43 42 48 
4 17 42 47 48 
4 48 43 67 68 
4 48 43 42 67 
4 47 48 42 67 
4 47 48 67 72 
4 72 48 67 73 
4 73 48 67 68 
4 72 67 97 98 
4 67 72 73 98 
4 68 67 73 98 
4 67 68 93 98 
4 67 93 92 98 
4 67 92 97 98 
4 98 93 117 118 
4 98 93 92 117 
4 97 98 92 117 
4 97 98 117 122 
4 122 98 117 123 
4 123 98 117 118 
4 9 4 28 29 
4 9 4 3 28 
4 8 9 3 28 
4 8 9 28 33 
4 33 9 28 34 
4 34 9 28 29 
4 33 28 58 59 
4 28 33 34 59 
4 29 28 34 59 
4 28 29 54 59 
4 28 54 53 59 
4 28 53 58 59 
4 59 54 78 79 
4 59 54 53 78 
4 58 59 53 78 
4 58 59 78 83 
4 83 59 78 84 
4 84 59 78 79 
4 83 78 108 109 
4 78 83 84 109 
4 79 78 84 109 
4 78 79 104 109 
4 78 104 103 109 
4 78 103 108 109 
4 9 8 38 33 
4 9 8 13 38 
4 14 9 13 38 
4 9 14 39 38 
4 9 39 34 38 
4 9 34 33 38 
4 38 39 59 64 
4 38 39 34 59 
4 33 38 34 59 
4 33 38 59 58 
4 58 38 59 63 
4 63 38 59 64 
4 59 58 88 83 
4 59 58 63 88 
4 64 59 63 88 
4 59 64 89 88 
4 59 89 84 88 
4 59 84 83 88 
4 88 89 109 114 
4 88 89 84 109 
4 83 88 84 109 
4 83 88 109 108 
4 108 88 109 113 
4 113 88 109 114 
4 19 14 38 39 
4 19 14 13 38 
4 18 19 13 38 
4 18 19 38 43 
4 43 19 38 44 
4 44 19 38 39 
4 43 38 68 69 
4 38 43 44 69 
4 39 38 44 69 
4 38 39 64 69 
4 38 64 63 69 
4 38 63 68 69 
4 69 64 88 89 
4 69 64 63 88 
4 68 69 63 88 
4 68 69 88 93 
4 93 69 88 94 
4 94 69 88 89 
4 93 88 118 119 
4 88 93 94 119 
4 89 88 94 119 
4 88 89 114 119 
4 88 114 113 119 
4 88 113 118 119 
4 19 18 48 43 
4 19 18 23 48 
4 24 19 23 48 
4 19 24 49 48 
4 19 49 44 48 
4 19 44 43 48 
4 48 49 69 74 
4 48 49 44 69 
4 43 48 44 69 
4 43 48 69 68 
4 68 48 69 73 
4 73 48 69 74 
4 69 68 98 93 
4 69 68 73 98 
4 74 69 73 98 
4 69 74 99 98 
4 69 99 94 98 
4 69 94 93 98 
4 98 99 119 124 
4 98 99 94 119 
4 93 98 94 119 
4 93 98 119 118 
4 118 98 119 123 
4 123 98 119 124 

CELL_TYPES 384
10
10
10
10
10
10
10
10
10
10
10
10
10
10
10
10
10
10
10
10
10
10
10
10
10
10
10
10
10
10
10
10
10
10
10
10
10
10
10
10
10
10
10
10
10
10
10
10
10
10
10
10
10
10
10
10
10
10
10
10
10
10
10
10
10
10
10
10
10
10
10
10
10
10
10
10
10
10
10
10
10
10
10
10
10
10
10
10
10
10
10
10
10
10
10
10
10
10
10
10
10
10
10
10
10
10
10
10
10
10
10
10
10
10
10
10
10
10
10
10
10
10
10
10
10
10
10
10
10
10
10
10
10
10
10
10
10
10
10
10
10
10
10
10
10
10
10
10
10
10
10
10
10
10
10
10
10
10
10
10
10
10
10
10
10
10
10
10
10
10
10
10
10
10
10
10
10
10
10
10
10
10
10
10
10
10
10
10
10
10
10
10
10
10
10
10
10
10
10
10
10
10
10
10
10
10
10
10
10
10
10
10
10
10
10
10
10
10
10
10
10
10
10
10
10
10
10
10
10
10
10
10
10
10
10
10
10
10
10
10
10
10
10
10
10
10
10
10
10
10
10
10
10
10
10
10
10
10
10
10
10
10
10
10
10
10
10
10
10
10
10
10
10
10
10
10
10
10
10
10
10
10
10
10
10
10
10
10
10
10
10
10
10
10
10
10
10
10
10
10
10
10
10
10
10
10
10
10
10
10
10
10
10
10
10
10
10
10
10
10
10
10
10
10
10
10
10
10
10
10
10
10
10
10
10
10
10
10
10
10
10
10
10
10
10
10
10
10
10
10
10
10
10
10
10
10
10
10
10
10
10
10
10
10
10
10
10
10
10
10
10
10
10
10
10
10
10
10
10
10
10
10
10
10

POINT_DATA 125
VECTORS displacement float
0 0 0
0 0 0
0 0 0
0 0 0
0 0 0
0 0 0
0 0 0
0 0 0
0 0 0
0 0 0
0 0 0
0 0 0
0 0 0
0 0 0
0 0 0
0 0 0
0 0 0
0 0 0
0 0 0
0 0 0
0 0 0
0 0 0
0 0 0
0 0 0
0 0 0
-0.00777727 -0.00594361 -0.00921965
-0.00168436 -0.00800376 -0.00452678
-0.00622445 -0.00731492 0
-0.00168436 -0.00800376 0.00452678
-0.00777727 -0.00594361 0.00921965
-0.0100835 -0.00311985 -0.00755414
-0.00514397 -0.00396114 -0.00402477
-0.00992125 -0.00376139 0
-0.00514397 -0.00396114 0.00402477
-0.0100835 -0.00311985 0.00755414
-0.00672572 0 -0.00866764
-0.000795135 -1.38778e-17 -0.00424725
-0.00516937 0 0
-0.000795135 0 0.00424725
-0.00672572 0 0.00866764
-0.0100835 0.00311985 -0.00755414
-0.00514397 0.00396114 -0.00402477
-0.00992125 0.00376139 0
-0.00514397 0.00396114 0.00402477
-0.0100835 0.00311985 0.00755414
-0.00777727 0.00594361 -0.00921965
-0.00168436 0.00800376 -0.00452678
-0.00622445 0.00731492 -1.38778e-17
-0.00168436 0.00800376 0.00452678
-0.00777727 0.00594361 0.00921965
-0.02 -0.0100859 -0.0161258
-0.02 -0.01284 -0.00738019
-0.02 -0.0131114 0
-0.02 -0.01284 0.00738019
-0.02 -0.0100859 0.0161258
-0.0200001 -0.00562181 -0.0145956
-0.02 -0.00674005 -0.00729035
-0.0200001 -0.00711271 1.38778e-17
-0.02 -0.00674005 0.00729035
-0.0200001 -0.00562181 0.0145956
-0.02 1.38778e-17 -0.0153413
-0.02 0 -0.00693995
-0.02 1.38778e-17 0
-0.02 1.38778e-17 0.00693995
-0.02 -1.38778e-17 0.0153413
-0.0200001 0.00562181 -0.0145956
-0.02 0.00674005 -0.00729035
-0.0200001 0.00711271 -1.38778e-17
-0.02 0.00674005 0.00729035
-0.0200001 0.00562181 0.0145956
-0.02 0.0100859 -0.0161258
-0.02 0.01284 -0.00738019
-0.02 0.0131114 -1.38778e-17
-0.02 0.01284 0.00738019
-0.02 0.0100859 0.0161258
-0.0322228 -0.00594358 -0.00921965
-0.0383157 -0.00800374 -0.00452678
-0.0337756 -0.00731489 0
-0.0383157 -0.00800374 0.00452678
-0.0322228 -0.00594358 0.00921965
-0.0299166 -0.00311984 -0.00755413
-0.0348561 -0.00396113 -0.00402476
-0.0300788 -0.00376137 0
-0.0348561 -0.00396113 0.00402476
-0.0299166 -0.00311984 0.00755413
-0.0332743 0 -0.00866763
-0.0392049 1.38778e-17 -0.00424724
-0.0348307 1.38778e-17 -1.38778e-17
-0.0392049 -1.38778e-17 0.00424724
-0.0332743 0 0.00866763
-0.0299166 0.00311984 -0.00755413
-0.0348561 0.00396113 -0.00402476
-0.0300788 0.00376137 0
-0.0348561 0.00396113 0.00402476
-0.0299166 0.00311984 0.00755413
-0.0322228 0.00594358 -0.00921965
-0.0383157 0.00800374 -0.00452678
-0.0337756 0.00731489 -1.38778e-17
-0.0383157 0.00800374 0.00452678
-0.0322228 0.00594358 0.00921965
-0.04 0 0
-0.04 0 0
-0.04 0 0
-0.04 0 0
-0.04 0 0
-0.04 0 0
-0.04 0 0
-0.04 0 0
-0.04 0 0
-0.04 0 0
-0.04 0 0
-0.04 0 0
-0.04 0 0
-0.04 0 0
-0.04 0 0
-0.04 0 0
-0.04 0 0
-0.04 0 0
-0.04 0 0
-0.04 0 0
-0.04 0 0
-0.04 0 0
-0.04 0 0
-0.04 0 0
-0.04 0 0

CELL_DATA 384
TENSORS stress float
-7162.16 -2563.68 -1043.52
-2563.68 -935.917 621.65
-1043.52 621.65 -4980.85

-17692.3 -614.462 -347.529
-614.462 -17515.2 389.735
-347.529 389.735 -17983.9

-17692.3 -614.462 -347.529
-614.462 -17515.2 389.735
-347.529 389.735 -17983.9

-15090.1 -269.807 -115.497
-269.807 -14319.2 -278.971
-115.497 -278.971 -11467.5

-6400.02 -1685.42 208.408
-1685.42 1203.47 -40.5906
208.408 -40.5906 3877.93

-7494.53 -1980.75 -249.312
-1980.75 662.442 109.765
-249.312 109.765 197.495

-6638.54 -1165.73 514.236
-1165.73 3845.81 -56.5979
514.236 -56.5979 4451.36

-6025.07 -1583.98 367.305
-1583.98 1734.83 -126.457
367.305 -126.457 4446.78

-7142.21 -1896.01 -126.133
-1896.01 1214.03 18.2942
-126.133 18.2942 755.382

-9571.9 -1124.37 -607.242
-1124.37 -2899.27 -209.275
-607.242 -209.275 1343.82

-9839.25 -572.887 -365.603
-572.887 -1509.16 -564.304
-365.603 -564.304 83.627

-10415 -367.884 -372.006
-367.884 -5314.85 -798.859
-372.006 -798.859 788.555

-9571.63 1124.43 607.278
1124.43 -2898.64 -209.275
607.278 -209.275 1344.54

-9839.37 572.851 365.599
572.851 -1509.53 -564.299
365.599 -564.299 83.2503

-10415.1 367.857 372.007
367.857 -5315.2 -798.85
372.007 -798.85 788.159

-6638.54 1165.71 -514.228
1165.71 3845.83 -56.597
-514.228 -56.597 4451.38

-6024.83 1584 -367.297
1584 1735.21 -126.453
-367.297 -126.453 4447.22

-7141.97 1896.05 126.152
1896.05 1214.42 18.3
126.152 18.3 755.793

-15089.6 269.881 115.517
269.881 -14318.5 -278.989
115.517 -278.989 -11466.7

-6399.49 1685.49 -208.408
1685.49 1204.32 -40.5897
-208.408 -40.5897 3878.88

-7494 1980.84 249.335
1980.84 663.333 109.769
249.335 109.769 198.403

-7161.84 2563.72 1043.55
2563.72 -935.492 621.656
1043.55 621.656 -4980.47

-17692 614.509 347.556
614.509 -17514.9 389.738
347.556 389.738 -17983.6

-17692 614.509 347.556
614.509 -17514.9 389.738
347.556 389.738 -17983.6

-13692.1 -1.66824e-14 -209.229
-1.66824e-14 -12505.1 -3.71964e-12
-209.229 -3.71964e-12 -9179.56

-13526 -1.86585e-12 -713.798
-1.86585e-12 -13419 5.85547e-13
-713.798 5.85547e-13 -13195

-13526 -1.86585e-12 -713.798
-1.86585e-12 -13419 5.85547e-13
-713.798 5.85547e-13 -13195

-7901.84 378.283 -941.013
378.283 -2029.52 -4.33106
-941.013 -4.33106 -5395.48

-8052.88 642.183 -242.458
642.183 -321.983 -377.935
-242.458 -377.935 -355.84

-6603.31 350.911 119.798
350.911 1220.19 -413.742
119.798 -413.742 3420.22

-10006 544.603 -645.903
544.603 -3798.75 -869.028
-645.903 -869.028 669.145

-7642.67 818.139 -136.706
818.139 305.828 -442.786
-136.706 -442.786 202.416

-6184.87 525.767 263.436
525.767 1813.75 -482.889
263.436 -482.889 3987.92

-8077.05 -12.5735 457.691
-12.5735 2566.52 -521.597
457.691 -521.597 1494.64

-10533.3 15.2342 -331.521
15.2342 -5063.6 -559.884
-331.521 -559.884 -649.748

-10559.4 16.2192 -281.218
16.2192 -3584.22 -594.152
-281.218 -594.152 -2605

-8076.93 12.5945 -457.687
12.5945 2566.79 -521.601
-457.687 -521.601 1494.91

-10533.3 -15.226 331.531
-15.226 -5063.67 -559.882
331.531 -559.882 -649.814

-10559.4 -16.2041 281.22
-16.2041 -3584.28 -594.149
281.22 -594.149 -2605.06

-10005.7 -544.627 645.939
-544.627 -3798.08 -869.042
645.939 -869.042 669.915

-7642.41 -818.144 136.724
-818.144 306.268 -442.794
136.724 -442.794 202.871

-6184.62 -525.762 -263.426
-525.762 1814.17 -482.897
-263.426 -482.897 3988.38

-7901.5 -378.281 941.043
-378.281 -2029.05 -4.33084
941.043 -4.33084 -5395.06

-8052.33 -642.208 242.48
-642.208 -321.049 -377.949
242.48 -377.949 -354.894

-6602.77 -350.917 -119.793
-350.917 1221.08 -413.756
-119.793 -413.756 3421.18

-13691.7 -3.33856e-14 209.246
-3.33856e-14 -12504.6 7.43952e-12
209.246 7.43952e-12 -9178.92

-13526 -1.86586e-12 713.799
-1.86586e-12 -13419 -5.85546e-13
713.799 -5.85546e-13 -13194.9

-13526 -1.86586e-12 713.799
-1.86586e-12 -13419 -5.85546e-13
713.799 -5.85546e-13 -13194.9

-7901.84 -378.283 -941.013
-378.283 -2029.52 4.33106
-941.013 4.33106 -5395.48

-13526 -1.86585e-12 -713.798
-1.86585e-12 -13419 5.85547e-13
-713.798 5.85547e-13 -13195

-13526 -1.86585e-12 -713.798
-1.86585e-12 -13419 5.85547e-13
-713.798 5.85547e-13 -13195

-13692.1 -1.66824e-14 -209.229
-1.66824e-14 -12505.1 -3.71964e-12
-209.229 -3.71964e-12 -9179.56

-6603.31 -350.911 119.798
-350.911 1220.19 413.742
119.798 413.742 3420.22

-8052.88 -642.183 -242.458
-642.183 -321.983 377.935
-242.458 377.935 -355.84

-8077.05 12.5735 457.691
12.5735 2566.52 521.597
457.691 521.597 1494.64

-6184.87 -525.767 263.436
-525.767 1813.75 482.889
263.436 482.889 3987.92

-7642.67 -818.139 -136.706
-818.139 305.828 442.786
-136.706 442.786 202.416

-10006 -544.603 -645.903
-544.603 -3798.75 869.028
-645.903 869.028 669.145

-10559.4 -16.2192 -281.218
-16.2192 -3584.22 594.152
-281.218 594.152 -2605

-10533.3 -15.2342 -331.521
-15.2342 -5063.6 559.884
-331.521 559.884 -649.748

-10005.7 544.627 645.939
544.627 -3798.08 869.042
645.939 869.042 669.915

-10559.4 16.2041 281.22
16.2041 -3584.28 594.149
281.22 594.149 -2605.06

-10533.3 15.226 331.531
15.226 -5063.67 559.882
331.531 559.882 -649.814

-8076.93 -12.5945 -457.687
-12.5945 2566.79 521.601
-457.687 521.601 1494.91

-6184.62 525.762 -263.426
525.762 1814.17 482.897
-263.426 482.897 3988.38

-7642.41 818.144 136.724
818.144 306.268 442.794
136.724 442.794 202.871

-13691.7 -3.33856e-14 209.246
-3.33856e-14 -12504.6 7.43952e-12
209.246 7.43952e-12 -9178.92

-6602.77 350.917 -119.793
350.917 1221.08 413.756
-119.793 413.756 3421.18

-8052.33 642.208 242.48
642.208 -321.049 377.949
242.48 377.949 -354.894

-7901.5 378.281 941.043
378.281 -2029.05 4.33084
941.043 4.33084 -5395.06

-13526 -3.73172e-12 713.799
-3.73172e-12 -13419 -1.17109e-12
713.799 -1.17109e-12 -13194.9

-13526 -3.73172e-12 713.799
-3.73172e-12 -13419 -1.17109e-12
713.799 -1.17109e-12 -13194.9

-15090.1 269.807 -115.497
269.807 -14319.2 278.971
-115.497 278.971 -11467.5

-17692.3 614.462 -347.529
614.462 -17515.2 -389.735
-347.529 -389.735 -17983.9

-17692.3 614.462 -347.529
614.462 -17515.2 -389.735
-347.529 -389.735 -17983.9

-7162.16 2563.68 -1043.52
2563.68 -935.917 -621.65
-1043.52 -621.65 -4980.85

-7494.53 1980.75 -249.312
1980.75 662.442 -109.765
-249.312 -109.765 197.495

-6400.02 1685.42 208.408
1685.42 1203.47 40.5906
208.408 40.5906 3877.93

-9571.9 1124.37 -607.242
1124.37 -2899.27 209.275
-607.242 209.275 1343.82

-7142.21 1896.01 -126.133
1896.01 1214.03 -18.2942
-126.133 -18.2942 755.382

-6025.07 1583.98 367.305
1583.98 1734.83 126.457
367.305 126.457 4446.78

-6638.54 1165.73 514.236
1165.73 3845.81 56.5979
514.236 56.5979 4451.36

-10415 367.884 -372.006
367.884 -5314.85 798.859
-372.006 798.859 788.555

-9839.25 572.887 -365.603
572.887 -1509.16 564.304
-365.603 564.304 83.627

-6638.54 -1165.71 -514.228
-1165.71 3845.83 56.597
-514.228 56.597 4451.38

-10415.1 -367.857 372.007
-367.857 -5315.2 798.85
372.007 798.85 788.159

-9839.37 -572.851 365.599
-572.851 -1509.53 564.299
365.599 564.299 83.2503

-9571.63 -1124.43 607.278
-1124.43 -2898.64 209.275
607.278 209.275 1344.54

-7141.97 -1896.05 126.152
-1896.05 1214.42 -18.3
126.152 -18.3 755.793

-6024.83 -1584 -367.297
-1584 1735.21 126.453
-367.297 126.453 4447.22

-7161.84 -2563.72 1043.55
-2563.72 -935.492 -621.656
1043.55 -621.656 -4980.47

-7494 -1980.84 249.335
-1980.84 663.333 -109.769
249.335 -109.769 198.403

-6399.49 -1685.49 -208.408
-1685.49 1204.32 40.5897
-208.408 40.5897 3878.88

-15089.6 -269.881 115.517
-269.881 -14318.5 278.989
115.517 278.989 -11466.7

-17692 -614.509 347.556
-614.509 -17514.9 -389.738
347.556 -389.738 -17983.6

-17692 -614.509 347.556
-614.509 -17514.9 -389.738
347.556 -389.738 -17983.6

-9761.72 -1367.14 -1450.51
-1367.14 -7440.72 596.346
-1450.51 596.346 -4261.43

-17692.3 -614.462 -347.529
-614.462 -17515.2 389.735
-347.529 389.735 -17983.9

-17692.3 -614.462 -347.529
-614.462 -17515.2 389.735
-347.529 389.735 -17983.9

-7162.16 -2563.68 -1043.52
-2563.68 -935.917 621.65
-1043.52 621.65 -4980.85

-5467.36 -2551.06 -1961.59
-2551.06 3882.51 801.087
-1961.59 801.087 3507.87

-5223.6 -2627.73 -1959.63
-2627.73 3698.91 799.222
-1959.63 799.222 4587.75

-9927.39 -1063.31 -623.452
-1063.31 -3742.49 315.162
-623.452 315.162 387.204

-7925.64 -1946.65 -1575.56
-1946.65 -443.893 731.375
-1575.56 731.375 -722.064

-7684.23 -2004.25 -1591.81
-2004.25 -554.732 730.761
-1591.81 730.761 281.014

-8952.31 -1242.79 -1237.46
-1242.79 1200.7 670.487
-1237.46 670.487 -1141.3

-10266.5 -517.516 -360.158
-517.516 -3012.87 36.568
-360.158 36.568 -1189.44

-10143.8 -543.052 -366.354
-543.052 -2486.27 26.3866
-366.354 26.3866 -938.698

-8952.09 1242.81 1237.49
1242.81 1201.21 670.492
1237.49 670.492 -1140.82

-10266.7 517.481 360.13
517.481 -3013.24 36.5647
360.13 36.5647 -1189.83

-10143.9 543.018 366.324
543.018 -2486.64 26.3833
366.324 26.3833 -939.079

-9927.13 1063.37 623.457
1063.37 -3741.86 315.163
623.457 315.163 387.918

-7925.11 1946.75 1575.63
1946.75 -442.97 731.386
1575.63 731.386 -721.149

-7683.7 2004.35 1591.89
2004.35 -553.84 730.773
1591.89 730.773 281.949

-7161.84 2563.72 1043.55
2563.72 -935.492 621.656
1043.55 621.656 -4980.47

-5466.76 2551.18 1961.66
2551.18 3883.52 801.099
1961.66 801.099 3508.87

-5223.01 2627.83 1959.71
2627.83 3699.89 799.234
1959.71 799.234 4588.78

-9761.28 1367.21 1450.56
1367.21 -7440.15 596.354
1450.56 596.354 -4260.78

-17692 614.509 347.556
614.509 -17514.9 389.738
347.556 389.738 -17983.6

-17692 614.509 347.556
614.509 -17514.9 389.738
347.556 389.738 -17983.6

-7901.84 378.283 -941.013
378.283 -2029.52 -4.33106
-941.013 -4.33106 -5395.48

-13526 -1.86585e-12 -713.798
-1.86585e-12 -13419 5.85547e-13
-713.798 5.85547e-13 -13195

-13526 -1.86585e-12 -713.798
-1.86585e-12 -13419 5.85547e-13
-713.798 5.85547e-13 -13195

-8404.11 -7.568e-13 -1536.84
-7.568e-13 -6318.01 4.97616e-12
-1536.84 4.97616e-12 -2485.46

-5749.8 761.685 -1760.19
761.685 3177.5 -93.3901
-1760.19 -93.3901 3813.24

-6104.84 593.247 -1842.08
593.247 2762.79 -95.3323
-1842.08 -95.3323 2902.8

-11046.5 0.00964361 -708.508
0.00964361 -2684.32 -0.00217196
-708.508 -0.00217196 -6010.17

-8143.69 707.434 -1416.55
707.434 -995.286 -109.041
-1416.55 -109.041 -395.106

-8502.42 568.148 -1466.05
568.148 -1450.28 -110.639
-1466.05 -110.639 -1280.11

-10360.1 485.763 -589.197
485.763 -4644.71 -348.859
-589.197 -348.859 -291.376

-10852.9 0.545692 -255.341
0.545692 -4593.07 -19.2761
-255.341 -19.2761 -3643.82

-10628.9 0.00717698 -259.757
0.00717698 -3284.94 -0.000825845
-259.757 -0.000825845 -3420.96

-10359.8 -485.787 589.204
-485.787 -4644.04 -348.861
589.204 -348.861 -290.611

-10852.9 -0.531667 255.326
-0.531667 -4593.14 -19.2742
255.326 -19.2742 -3643.89

-10628.9 0.00717693 259.739
0.00717693 -3285.01 0.000825794
259.739 0.000825794 -3421.03

-11046.1 0.00964431 708.578
0.00964431 -2683.33 0.00217194
708.578 0.00217194 -6009.28

-8143.14 -707.452 1416.62
-707.452 -994.348 -109.037
1416.62 -109.037 -394.155

-8501.87 -568.167 1466.12
-568.167 -1449.32 -110.636
1466.12 -110.636 -1279.15

-8403.84 -2.42085e-12 1536.86
-2.42085e-12 -6317.68 -4.30227e-13
1536.86 -4.30227e-13 -2485.1

-5749.18 -761.701 1760.26
-761.701 3178.52 -93.3866
1760.26 -93.3866 3814.28

-6104.22 -593.265 1842.15
-593.265 2763.84 -95.3297
1842.15 -95.3297 2903.84

-7901.5 -378.281 941.043
-378.281 -2029.05 -4.33084
941.043 -4.33084 -5395.06

-13526 -1.86586e-12 713.799
-1.86586e-12 -13419 -5.85546e-13
713.799 -5.85546e-13 -13194.9

-13526 -1.86586e-12 713.799
-1.86586e-12 -13419 -5.85546e-13
713.799 -5.85546e-13 -13194.9

-8404.11 -7.568e-13 -1536.84
-7.568e-13 -6318.01 4.97616e-12
-1536.84 4.97616e-12 -2485.46

-13526 -1.86585e-12 -713.798
-1.86585e-12 -13419 5.85547e-13
-713.798 5.85547e-13 -13195

-13526 -1.86585e-12 -713.798
-1.86585e-12 -13419 5.85547e-13
-713.798 5.85547e-13 -13195

-7901.84 -378.283 -941.013
-378.283 -2029.52 4.33106
-941.013 4.33106 -5395.48

-6104.84 -593.247 -1842.08
-593.247 2762.79 95.3323
-1842.08 95.3323 2902.8

-5749.8 -761.685 -1760.19
-761.685 3177.5 93.3901
-1760.19 93.3901 3813.24

-10360.1 -485.763 -589.197
-485.763 -4644.71 348.859
-589.197 348.859 -291.376

-8502.42 -568.148 -1466.05
-568.148 -1450.28 110.639
-1466.05 110.639 -1280.11

-8143.69 -707.434 -1416.55
-707.434 -995.286 109.041
-1416.55 109.041 -395.106

-11046.5 -0.00964361 -708.508
-0.00964361 -2684.32 0.00217196
-708.508 0.00217196 -6010.17

-10628.9 -0.00717698 -259.757
-0.00717698 -3284.94 0.000825845
-259.757 0.000825845 -3420.96

-10852.9 -0.545692 -255.341
-0.545692 -4593.07 19.2761
-255.341 19.2761 -3643.82

-11046.1 -0.00964431 708.578
-0.00964431 -2683.33 -0.00217194
708.578 -0.00217194 -6009.28

-10628.9 -0.00717693 259.739
-0.00717693 -3285.01 -0.000825794
259.739 -0.000825794 -3421.03

-10852.9 0.531667 255.326
0.531667 -4593.14 19.2742
255.326 19.2742 -3643.89

-10359.8 485.787 589.204
485.787 -4644.04 348.861
589.204 348.861 -290.611

-8501.87 568.167 1466.12
568.167 -1449.32 110.636
1466.12 110.636 -1279.15

-8143.14 707.452 1416.62
707.452 -994.348 109.037
1416.62 109.037 -394.155

-7901.5 378.281 941.043
378.281 -2029.05 4.33084
941.043 4.33084 -5395.06

-6104.22 593.265 1842.15
593.265 2763.84 95.3297
1842.15 95.3297 2903.84

-5749.18 761.701 1760.26
761.701 3178.52 93.3866
1760.26 93.3866 3814.28

-8403.84 -4.8417e-12 1536.86
-4.8417e-12 -6317.68 -8.60453e-13
1536.86 -8.60453e-13 -2485.1

-13526 -3.73172e-12 713.799
-3.73172e-12 -13419 -1.17109e-12
713.799 -1.17109e-12 -13194.9

-13526 -3.73172e-12 713.799
-3.73172e-12 -13419 -1.17109e-12
713.799 -1.17109e-12 -13194.9

-7162.16 2563.68 -1043.52
2563.68 -935.917 -621.65
-1043.52 -621.65 -4980.85

-17692.3 614.462 -347.529
614.462 -17515.2 -389.735
-347.529 -389.735 -17983.9

-17692.3 614.462 -347.529
614.462 -17515.2 -389.735
-347.529 -389.735 -17983.9

-9761.72 1367.14 -1450.51
1367.14 -7440.72 -596.346
-1450.51 -596.346 -4261.43

-5223.6 2627.73 -1959.63
2627.73 3698.91 -799.222
-1959.63 -799.222 4587.75

-5467.36 2551.06 -1961.59
2551.06 3882.51 -801.087
-1961.59 -801.087 3507.87

-8952.31 1242.79 -1237.46
1242.79 1200.7 -670.487
-1237.46 -670.487 -1141.3

-7684.23 2004.25 -1591.81
2004.25 -554.732 -730.761
-1591.81 -730.761 281.014

-7925.64 1946.65 -1575.56
1946.65 -443.893 -731.375
-1575.56 -731.375 -722.064

-9927.39 1063.31 -623.452
1063.31 -3742.49 -315.162
-623.452 -315.162 387.204

-10143.8 543.052 -366.354
543.052 -2486.27 -26.3866
-366.354 -26.3866 -938.698

-10266.5 517.516 -360.158
517.516 -3012.87 -36.568
-360.158 -36.568 -1189.44

-9927.13 -1063.37 623.457
-1063.37 -3741.86 -315.163
623.457 -315.163 387.918

-10143.9 -543.018 366.324
-543.018 -2486.64 -26.3833
366.324 -26.3833 -939.079

-10266.7 -517.481 360.13
-517.481 -3013.24 -36.5647
360.13 -36.5647 -1189.83

-8952.09 -1242.81 1237.49
-1242.81 1201.21 -670.492
1237.49 -670.492 -1140.82

-7683.7 -2004.35 1591.89
-2004.35 -553.84 -730.773
1591.89 -730.773 281.949

-7925.11 -1946.75 1575.63
-1946.75 -442.97 -731.386
1575.63 -731.386 -721.149

-9761.28 -1367.21 1450.56
-1367.21 -7440.15 -596.354
1450.56 -596.354 -4260.78

-5223.01 -2627.83 1959.71
-2627.83 3699.89 -799.234
1959.71 -799.234 4588.78

-5466.76 -2551.18 1961.66
-2551.18 3883.52 -801.099
1961.66 -801.099 3508.87

-7161.84 -2563.72 1043.55
-2563.72 -935.492 -621.656
1043.55 -621.656 -4980.47

-17692 -614.509 347.556
-614.509 -17514.9 -389.738
347.556 -389.738 -17983.6

-17692 -614.509 347.556
-614.509 -17514.9 -389.738
347.556 -389.738 -17983.6

-7162.16 -2563.68 1043.52
-2563.68 -935.917 -621.65
1043.52 -621.65 -4980.85

-17692.3 -614.462 347.529
-614.462 -17515.2 -389.735
347.529 -389.735 -17983.9

-17692.3 -614.462 347.529
-614.462 -17515.2 -389.735
347.529 -389.735 -17983.9

-9761.72 -1367.14 1450.51
-1367.14 -7440.72 -596.346
1450.51 -596.346 -4261.43

-5223.6 -2627.73 1959.63
-2627.73 3698.91 -799.222
1959.63 -799.222 4587.75

-5467.36 -2551.06 1961.59
-2551.06 3882.51 -801.087
1961.59 -801.087 3507.87

-8952.31 -1242.79 1237.46
-1242.79 1200.7 -670.487
1237.46 -670.487 -1141.3

-7684.23 -2004.25 1591.81
-2004.25 -554.732 -730.761
1591.81 -730.761 281.014

-7925.64 -1946.65 1575.56
-1946.65 -443.893 -731.375
1575.56 -731.375 -722.064

-9927.39 -1063.31 623.452
-1063.31 -3742.49 -315.162
623.452 -315.162 387.204

-10143.8 -543.052 366.354
-543.052 -2486.27 -26.3866
366.354 -26.3866 -938.698

-10266.5 -517.516 360.158
-517.516 -3012.87 -36.568
360.158 -36.568 -1189.44

-9927.13 1063.37 -623.457
1063.37 -3741.86 -315.163
-623.457 -315.163 387.918

-10143.9 543.018 -366.324
543.018 -2486.64 -26.3833
-366.324 -26.3833 -939.079

-10266.7 517.481 -360.13
517.481 -3013.24 -36.5647
-360.13 -36.5647 -1189.83

-8952.09 1242.81 -1237.49
1242.81 1201.21 -670.492
-1237.49 -670.492 -1140.82

-7683.7 2004.35 -1591.89
2004.35 -553.84 -730.773
-1591.89 -730.773 281.949

-7925.11 1946.75 -1575.63
1946.75 -442.97 -731.386
-1575.63 -731.386 -721.149

-9761.28 1367.21 -1450.56
1367.21 -7440.15 -596.354
-1450.56 -596.354 -4260.78

-5223.01 2627.83 -1959.71
2627.83 3699.89 -799.234
-1959.71 -799.234 4588.78

-5466.76 2551.18 -1961.66
2551.18 3883.52 -801.099
-1961.66 -801.099 3508.87

-7161.84 2563.72 -1043.55
2563.72 -935.492 -621.656
-1043.55 -621.656 -4980.47

-17692 614.509 -347.556
614.509 -17514.9 -389.738
-347.556 -389.738 -17983.6

-17692 614.509 -347.556
614.509 -17514.9 -389.738
-347.556 -389.738 -17983.6

-8404.11 0 1536.84
0 -6318.01 0
1536.84 0 -2485.46

-13526 0 713.798
0 -13419 0
713.798 0 -13195

-13526 0 713.798
0 -13419 0
713.798 0 -13195

-7901.84 378.283 941.013
378.283 -2029.52 4.33106
941.013 4.33106 -5395.48

-6104.84 593.247 1842.08
593.247 2762.79 95.3323
1842.08 95.3323 2902.8

-5749.8 761.685 1760.19
761.685 3177.5 93.3901
1760.19 93.3901 3813.24

-10360.1 485.763 589.197
485.763 -4644.71 348.859
589.197 348.859 -291.376

-8502.42 568.148 1466.05
568.148 -1450.28 110.639
1466.05 110.639 -1280.11

-8143.69 707.434 1416.55
707.434 -995.286 109.041
1416.55 109.041 -395.106

-11046.5 0.00964361 708.508
0.00964361 -2684.32 0.00217196
708.508 0.00217196 -6010.17

-10628.9 0.00717698 259.757
0.00717698 -3284.94 0.000825845
259.757 0.000825845 -3420.96

-10852.9 0.545692 255.341
0.545692 -4593.07 19.2761
255.341 19.2761 -3643.82

-11046.1 0.00964431 -708.578
0.00964431 -2683.33 -0.00217194
-708.578 -0.00217194 -6009.28

-10628.9 0.00717693 -259.739
0.00717693 -3285.01 -0.000825794
-259.739 -0.000825794 -3421.03

-10852.9 -0.531667 -255.326
-0.531667 -4593.14 19.2742
-255.326 19.2742 -3643.89

-10359.8 -485.787 -589.204
-485.787 -4644.04 348.861
-589.204 348.861 -290.611

-8501.87 -568.167 -1466.12
-568.167 -1449.32 110.636
-1466.12 110.636 -1279.15

-8143.14 -707.452 -1416.62
-707.452 -994.348 109.037
-1416.62 109.037 -394.155

-7901.5 -378.281 -941.043
-378.281 -2029.05 4.33084
-941.043 4.33084 -5395.06

-6104.22 -593.265 -1842.15
-593.265 2763.84 95.3297
-1842.15 95.3297 2903.84

-5749.18 -761.701 -1760.26
-761.701 3178.52 93.3866
-1760.26 93.3866 3814.28

-8403.84 -1.81449e-12 -1536.86
-1.81449e-12 -6317.68 -1.90444e-11
-1536.86 -1.90444e-11 -2485.1

-13526 1.86586e-12 -713.799
1.86586e-12 -13419 -5.85546e-13
-713.799 -5.85546e-13 -13194.9

-13526 1.86586e-12 -713.799
1.86586e-12 -13419 -5.85546e-13
-713.799 -5.85546e-13 -13194.9

-7901.84 -378.283 941.013
-378.283 -2029.52 -4.33106
941.013 -4.33106 -5395.48

-13526 0 713.798
0 -13419 0
713.798 0 -13195

-13526 0 713.798
0 -13419 0
713.798 0 -13195

-8404.11 0 1536.84
0 -6318.01 0
1536.84 0 -2485.46

-5749.8 -761.685 1760.19
-761.685 3177.5 -93.3901
1760.19 -93.3901 3813.24

-6104.84 -593.247 1842.08
-593.247 2762.79 -95.3323
1842.08 -95.3323 2902.8

-11046.5 -0.00964361 708.508
-0.00964361 -2684.32 -0.00217196
708.508 -0.00217196 -6010.17

-8143.69 -707.434 1416.55
-707.434 -995.286 -109.041
1416.55 -109.041 -395.106

-8502.42 -568.148 1466.05
-568.148 -1450.28 -110.639
1466.05 -110.639 -1280.11

-10360.1 -485.763 589.197
-485.763 -4644.71 -348.859
589.197 -348.859 -291.376

-10852.9 -0.545692 255.341
-0.545692 -4593.07 -19.2761
255.341 -19.2761 -3643.82

-10628.9 -0.00717698 259.757
-0.00717698 -3284.94 -0.000825845
259.757 -0.000825845 -3420.96

-10359.8 485.787 -589.204
485.787 -4644.04 -348.861
-589.204 -348.861 -290.611

-10852.9 0.531667 -255.326
0.531667 -4593.14 -19.2742
-255.326 -19.2742 -3643.89

-10628.9 -0.00717693 -259.739
-0.00717693 -3285.01 0.000825794
-259.739 0.000825794 -3421.03

-11046.1 -0.00964431 -708.578
-0.00964431 -2683.33 0.00217194
-708.578 0.00217194 -6009.28

-8143.14 707.452 -1416.62
707.452 -994.348 -109.037
-1416.62 -109.037 -394.155

-8501.87 568.167 -1466.12
568.167 -1449.32 -110.636
-1466.12 -110.636 -1279.15

-8403.84 -3.3281e-12 -1536.86
-3.3281e-12 -6317.68 -9.092e-12
-1536.86 -9.092e-12 -2485.1

-5749.18 761.701 -1760.26
761.701 3178.52 -93.3866
-1760.26 -93.3866 3814.28

-6104.22 593.265 -1842.15
593.265 2763.84 -95.3297
-1842.15 -95.3297 2903.84

-7901.5 378.281 -941.043
378.281 -2029.05 -4.33084
-941.043 -4.33084 -5395.06

-13526 1.86586e-12 -713.799
1.86586e-12 -13419 -5.85546e-13
-713.799 -5.85546e-13 -13194.9

-13526 1.86586e-12 -713.799
1.86586e-12 -13419 -5.85546e-13
-713.799 -5.85546e-13 -13194.9

-9761.72 1367.14 1450.51
1367.14 -7440.72 596.346
1450.51 596.346 -4261.43

-17692.3 614.462 347.529
614.462 -17515.2 389.735
347.529 389.735 -17983.9

-17692.3 614.462 347.529
614.462 -17515.2 389.735
347.529 389.735 -17983.9

-7162.16 2563.68 1043.52
2563.68 -935.917 621.65
1043.52 621.65 -4980.85

-5467.36 2551.06 1961.59
2551.06 3882.51 801.087
1961.59 801.087 3507.87

-5223.6 2627.73 1959.63
2627.73 3698.91 799.222
1959.63 799.222 4587.75

-9927.39 1063.31 623.452
1063.31 -3742.49 315.162
623.452 315.162 387.204

-7925.64 1946.65 1575.56
1946.65 -443.893 731.375
1575.56 731.375 -722.064

-7684.23 2004.25 1591.81
2004.25 -554.732 730.761
1591.81 730.761 281.014

-8952.31 1242.79 1237.46
1242.79 1200.7 670.487
1237.46 670.487 -1141.3

-10266.5 517.516 360.158
517.516 -3012.87 36.568
360.158 36.568 -1189.44

-10143.8 543.052 366.354
543.052 -2486.27 26.3866
366.354 26.3866 -938.698

-8952.09 -1242.81 -1237.49
-1242.81 1201.21 670.492
-1237.49 670.492 -1140.82

-10266.7 -517.481 -360.13
-517.481 -3013.24 36.5647
-360.13 36.5647 -1189.83

-10143.9 -543.018 -366.324
-543.018 -2486.64 26.3833
-366.324 26.3833 -939.079

-9927.13 -1063.37 -623.457
-1063.37 -3741.86 315.163
-623.457 315.163 387.918

-7925.11 -1946.75 -1575.63
-1946.75 -442.97 731.386
-1575.63 731.386 -721.149

-7683.7 -2004.35 -1591.89
-2004.35 -553.84 730.773
-1591.89 730.773 281.949

-7161.84 -2563.72 -1043.55
-2563.72 -935.492 621.656
-1043.55 621.656 -4980.47

-5466.76 -2551.18 -1961.66
-2551.18 3883.52 801.099
-1961.66 801.099 3508.87

-5223.01 -2627.83 -1959.71
-2627.83 3699.89 799.234
-1959.71 799.234 4588.78

-9761.28 -1367.21 -1450.56
-1367.21 -7440.15 596.354
-1450.56 596.354 -4260.78

-17692 -614.509 -347.556
-614.509 -17514.9 389.738
-347.556 389.738 -17983.6

-17692 -614.509 -347.556
-614.509 -17514.9 389.738
-347.556 389.738 -17983.6

-15090.1 -269.807 115.497
-269.807 -14319.2 278.971
115.497 278.971 -11467.5

-17692.3 -614.462 347.529
-614.462 -17515.2 -389.735
347.529 -389.735 -17983.9

-17692.3 -614.462 347.529
-614.462 -17515.2 -389.735
347.529 -389.735 -17983.9

-7162.16 -2563.68 1043.52
-2563.68 -935.917 -621.65
1043.52 -621.65 -4980.85

-7494.53 -1980.75 249.312
-1980.75 662.442 -109.765
249.312 -109.765 197.495

-6400.02 -1685.42 -208.408
-1685.42 1203.47 40.5906
-208.408 40.5906 3877.93

-9571.9 -1124.37 607.242
-1124.37 -2899.27 209.275
607.242 209.275 1343.82

-7142.21 -1896.01 126.133
-1896.01 1214.03 -18.2942
126.133 -18.2942 755.382

-6025.07 -1583.98 -367.305
-1583.98 1734.83 126.457
-367.305 126.457 4446.78

-6638.54 -1165.73 -514.236
-1165.73 3845.81 56.5979
-514.236 56.5979 4451.36

-10415 -367.884 372.006
-367.884 -5314.85 798.859
372.006 798.859 788.555

-9839.25 -572.887 365.603
-572.887 -1509.16 564.304
365.603 564.304 83.627

-6638.54 1165.71 514.228
1165.71 3845.83 56.597
514.228 56.597 4451.38

-10415.1 367.857 -372.007
367.857 -5315.2 798.85
-372.007 798.85 788.159

-9839.37 572.851 -365.599
572.851 -1509.53 564.299
-365.599 564.299 83.2503

-9571.63 1124.43 -607.278
1124.43 -2898.64 209.275
-607.278 209.275 1344.54

-7141.97 1896.05 -126.152
1896.05 1214.42 -18.3
-126.152 -18.3 755.793

-6024.83 1584 367.297
1584 1735.21 126.453
367.297 126.453 4447.22

-7161.84 2563.72 -1043.55
2563.72 -935.492 -621.656
-1043.55 -621.656 -4980.47

-7494 1980.84 -249.335
1980.84 663.333 -109.769
-249.335 -109.769 198.403

-6399.49 1685.49 208.408
1685.49 1204.32 40.5897
208.408 40.5897 3878.88

-15089.6 269.881 -115.517
269.881 -14318.5 278.989
-115.517 278.989 -11466.7

-17692 614.509 -347.556
614.509 -17514.9 -389.738
-347.556 -389.738 -17983.6

-17692 614.509 -347.556
614.509 -17514.9 -389.738
-347.556 -389.738 -17983.6

-7901.84 378.283 941.013
378.283 -2029.52 4.33106
941.013 4.33106 -5395.48

-13526 0 713.798
0 -13419 0
713.798 0 -13195

-13526 0 713.798
0 -13419 0
713.798 0 -13195

-13692.1 0 209.229
0 -12505.1 0
209.229 0 -9179.56

-6603.31 350.911 -119.798
350.911 1220.19 413.742
-119.798 413.742 3420.22

-8052.88 642.183 242.458
642.183 -321.983 377.935
242.458 377.935 -355.84

-8077.05 -12.5735 -457.691
-12.5735 2566.52 521.597
-457.691 521.597 1494.64

-6184.87 525.767 -263.436
525.767 1813.75 482.889
-263.436 482.889 3987.92

-7642.67 818.139 136.706
818.139 305.828 442.786
136.706 442.786 202.416

-10006 544.603 645.903
544.603 -3798.75 869.028
645.903 869.028 669.145

-10559.4 16.2192 281.218
16.2192 -3584.22 594.152
281.218 594.152 -2605

-10533.3 15.2342 331.521
15.2342 -5063.6 559.884
331.521 559.884 -649.748

-10005.7 -544.627 -645.939
-544.627 -3798.08 869.042
-645.939 869.042 669.915

-10559.4 -16.2041 -281.22
-16.2041 -3584.28 594.149
-281.22 594.149 -2605.06

-10533.3 -15.226 -331.531
-15.226 -5063.67 559.882
-331.531 559.882 -649.814

-8076.93 12.5945 457.687
12.5945 2566.79 521.601
457.687 521.601 1494.91

-6184.62 -525.762 263.426
-525.762 1814.17 482.897
263.426 482.897 3988.38

-7642.41 -818.144 -136.724
-818.144 306.268 442.794
-136.724 442.794 202.871

-13691.7 1.66928e-14 -209.246
1.66928e-14 -12504.6 3.71976e-12
-209.246 3.71976e-12 -9178.92

-6602.77 -350.917 119.793
-350.917 1221.08 413.756
119.793 413.756 3421.18

-8052.33 -642.208 -242.48
-642.208 -321.049 377.949
-242.48 377.949 -354.894

-7901.5 -378.281 -941.043
-378.281 -2029.05 4.33084
-941.043 4.33084 -5395.06

-13526 1.86586e-12 -713.799
1.86586e-12 -13419 -5.85546e-13
-713.799 -5.85546e-13 -13194.9

-13526 1.86586e-12 -713.799
1.86586e-12 -13419 -5.85546e-13
-713.799 -5.85546e-13 -13194.9

-13692.1 0 209.229
0 -12505.1 0
209.229 0 -9179.56

-13526 0 713.798
0 -13419 0
713.798 0 -13195

-13526 0 713.798
0 -13419 0
713.798 0 -13195

-7901.84 -378.283 941.013
-378.283 -2029.52 -4.33106
941.013 -4.33106 -5395.48

-8052.88 -642.183 242.458
-642.183 -321.983 -377.935
242.458 -377.935 -355.84

-6603.31 -350.911 -119.798
-350.911 1220.19 -413.742
-119.798 -413.742 3420.22

-10006 -544.603 645.903
-544.603 -3798.75 -869.028
645.903 -869.028 669.145

-7642.67 -818.139 136.706
-818.139 305.828 -442.786
136.706 -442.786 202.416

-6184.87 -525.767 -263.436
-525.767 1813.75 -482.889
-263.436 -482.889 3987.92

-8077.05 12.5735 -457.691
12.5735 2566.52 -521.597
-457.691 -521.597 1494.64

-10533.3 -15.2342 331.521
-15.2342 -5063.6 -559.884
331.521 -559.884 -649.748

-10559.4 -16.2192 281.218
-16.2192 -3584.22 -594.152
281.218 -594.152 -2605

-8076.93 -12.5945 457.687
-12.5945 2566.79 -521.601
457.687 -521.601 1494.91

-10533.3 15.226 -331.531
15.226 -5063.67 -559.882
-331.531 -559.882 -649.814

-10559.4 16.2041 -281.22
16.2041 -3584.28 -594.149
-281.22 -594.149 -2605.06

-10005.7 544.627 -645.939
544.627 -3798.08 -869.042
-645.939 -869.042 669.915

-7642.41 818.144 -136.724
818.144 306.268 -442.794
-136.724 -442.794 202.871

-6184.62 525.762 263.426
525.762 1814.17 -482.897
263.426 -482.897 3988.38

-7901.5 378.281 -941.043
378.281 -2029.05 -4.33084
-941.043 -4.33084 -5395.06

-8052.33 642.208 -242.48
642.208 -321.049 -377.949
-242.48 -377.949 -354.894

-6602.77 350.917 119.793
350.917 1221.08 -413.756
119.793 -413.756 3421.18

-13691.7 1.66928e-14 -209.246
1.66928e-14 -12504.6 3.71976e-12
-209.246 3.71976e-12 -9178.92

-13526 1.86586e-12 -713.799
1.86586e-12 -13419 -5.85546e-13
-713.799 -5.85546e-13 -13194.9

-13526 1.86586e-12 -713.799
1.86586e-12 -13419 -5.85546e-13
-713.799 -5.85546e-13 -13194.9

-7162.16 2563.68 1043.52
2563.68 -935.917 621.65
1043.52 621.65 -4980.85

-17692.3 614.462 347.529
614.462 -17515.2 389.735
347.529 389.735 -17983.9

-17692.3 614.462 347.529
614.462 -17515.2 389.735
347.529 389.735 -17983.9

-15090.1 269.807 115.497
269.807 -14319.2 -278.971
115.497 -278.971 -11467.5

-6400.02 1685.42 -208.408
1685.42 1203.47 -40.5906
-208.408 -40.5906 3877.93

-7494.53 1980.75 249.312
1980.75 662.442 109.765
249.312 109.765 197.495

-6638.54 1165.73 -514.236
1165.73 3845.81 -56.5979
-514.236 -56.5979 4451.36

-6025.07 1583.98 -367.305
1583.98 1734.83 -126.457
-367.305 -126.457 4446.78

-7142.21 1896.01 126.133
1896.01 1214.03 18.2942
126.133 18.2942 755.382

-9571.9 1124.37 607.242
1124.37 -2899.27 -209.275
607.242 -209.275 1343.82

-9839.25 572.887 365.603
572.887 -1509.16 -564.304
365.603 -564.304 83.627

-10415 367.884 372.006
367.884 -5314.85 -798.859
372.006 -798.859 788.555

-9571.63 -1124.43 -607.278
-1124.43 -2898.64 -209.275
-607.278 -209.275 1344.54

-9839.37 -572.851 -365.599
-572.851 -1509.53 -564.299
-365.599 -564.299 83.2503

-10415.1 -367.857 -372.007
-367.857 -5315.2 -798.85
-372.007 -798.85 788.159

-6638.54 -1165.71 514.228
-1165.71 3845.83 -56.597
514.228 -56.597 4451.38

-6024.83 -1584 367.297
-1584 1735.21 -126.453
367.297 -126.453 4447.22

-7141.97 -1896.05 -126.152
-1896.05 1214.42 18.3
-126.152 18.3 755.793

-15089.6 -269.881 -115.517
-269.881 -14318.5 -278.989
-115.517 -278.989 -11466.7

-6399.49 -1685.49 208.408
-1685.49 1204.32 -40.5897
208.408 -40.5897 3878.88

-7494 -1980.84 -249.335
-1980.84 663.333 109.769
-249.335 109.769 198.403

-7161.84 -2563.72 -1043.55
-2563.72 -935.492 621.656
-1043.55 621.656 -4980.47

-17692 -614.509 -347.556
-614.509 -17514.9 389.738
-347.556 389.738 -17983.6

-17692 -614.509 -347.556
-614.509 -17514.9 389.738
-347.556 389.738 -17983.6

