# vtk DataFile Version 3.0
vtk output at time 0.5
ASCII
DATASET UNSTRUCTURED_GRID
POINTS 125 float
0 0 0 0 0 0.05 0 0 0.1 
0 0 0.15 0 0 0.2 0 0.05 0 
0 0.05 0.05 0 0.05 0.1 0 0.05 0.15 
0 0.05 0.2 0 0.1 0 0 0.1 0.05 
0 0.1 0.1 0 0.1 0.15 0 0.1 0.2 
0 0.15 0 0 0.15 0.05 0 0.15 0.1 
0 0.15 0.15 0 0.15 0.2 0 0.2 0 
0 0.2 0.05 0 0.2 0.1 0 0.2 0.15 
0 0.2 0.2 0.0451844 -0.00397273 -0.00635392 0.048935 -0.00543941 0.0469542 
0.0461327 -0.00493705 0.1 0.048935 -0.00543941 0.153046 0.0451844 -0.00397273 0.206354 
0.043711 0.0478972 -0.00515727 0.0467155 0.0472965 0.0473007 0.0437992 0.0474563 0.1 
0.0467155 0.0472965 0.152699 0.043711 0.0478972 0.205157 0.0457526 0.1 -0.00597007 
0.0493652 0.1 0.0471274 0.0466528 0.1 0.1 0.0493652 0.1 0.152873 
0.0457526 0.1 0.20597 0.043711 0.152103 -0.00515727 0.0467155 0.152703 0.0473007 
0.0437992 0.152544 0.1 0.0467155 0.152703 0.152699 0.043711 0.152103 0.205157 
0.0451844 0.203973 -0.00635392 0.048935 0.205439 0.0469542 0.0461327 0.204937 0.1 
0.048935 0.205439 0.153046 0.0451844 0.203973 0.206354 0.0875 -0.00684321 -0.011183 
0.0875 -0.00891908 0.0449372 0.0875 -0.00899851 0.1 0.0875 -0.00891908 0.155063 
0.0875 -0.00684321 0.211183 0.0875 0.046212 -0.00996837 0.0875 0.0453662 0.0450251 
0.0874999 0.0451894 0.1 0.0875 0.0453662 0.154975 0.0875 0.046212 0.209968 
0.0875 0.1 -0.0106669 0.0875 0.1 0.0451843 0.0875 0.1 0.1 
0.0875 0.1 0.154816 0.0875 0.1 0.210667 0.0875 0.153788 -0.00996837 
0.0875 0.154634 0.0450251 0.0874999 0.154811 0.1 0.0875 0.154634 0.154975 
0.0875 0.153788 0.209968 0.0875 0.206843 -0.011183 0.0875 0.208919 0.0449372 
0.0875 0.208999 0.1 0.0875 0.208919 0.155063 0.0875 0.206843 0.211183 
0.129816 -0.0039727 -0.00635392 0.126065 -0.00543939 0.0469542 0.128867 -0.00493702 0.1 
0.126065 -0.00543939 0.153046 0.129816 -0.0039727 0.206354 0.131289 0.0478972 -0.00515725 
0.128284 0.0472965 0.0473007 0.131201 0.0474563 0.1 0.128284 0.0472965 0.152699 
0.131289 0.0478972 0.205157 0.129247 0.1 -0.00597006 0.125635 0.1 0.0471274 
0.128347 0.1 0.1 0.125635 0.1 0.152873 0.129247 0.1 0.20597 
0.131289 0.152103 -0.00515725 0.128284 0.152703 0.0473007 0.131201 0.152544 0.1 
0.128284 0.152703 0.152699 0.131289 0.152103 0.205157 0.129816 0.203973 -0.00635392 
0.126065 0.205439 0.0469542 0.128867 0.204937 0.1 0.126065 0.205439 0.153046 
0.129816 0.203973 0.206354 0.175 0 0 0.175 0 0.05 
0.175 0 0.1 0.175 0 0.15 0.175 0 0.2 
0.175 0.05 0 0.175 0.05 0.05 0.175 0.05 0.1 
0.175 0.05 0.15 0.175 0.05 0.2 0.175 0.1 0 
0.175 0.1 0.05 0.175 0.1 0.1 0.175 0.1 0.15 
0.175 0.1 0.2 0.175 0.15 0 0.175 0.15 0.05 
0.175 0.15 0.1 0.175 0.15 0.15 0.175 0.15 0.2 
0.175 0.2 0 0.175 0.2 0.05 0.175 0.2 0.1 
0.175 0.2 0.15 0.175 0.2 0.2 

CELLS 384 1920
4 5 6 26 31 
4 5 6 1 26 
4 0 5 1 26 
4 0 5 26 25 
4 25 5 26 30 
4 30 5 26 31 
4 26 25 55 50 
4 26 25 30 55 
4 31 26 30 55 
4 26 31 56 55 
4 26 56 51 55 
4 26 51 50 55 
4 55 56 76 81 
4 55 56 51 76 
4 50 55 51 76 
4 50 55 76 75 
4 75 55 76 80 
4 80 55 76 81 
4 76 75 105 100 
4 76 75 80 105 
4 81 76 80 105 
4 76 81 106 105 
4 76 106 101 105 
4 76 101 100 105 
4 10 5 35 36 
4 5 10 11 36 
4 6 5 11 36 
4 5 6 31 36 
4 5 31 30 36 
4 5 30 35 36 
4 36 31 55 56 
4 36 31 30 55 
4 35 36 30 55 
4 35 36 55 60 
4 60 36 55 61 
4 61 36 55 56 
4 60 55 85 86 
4 55 60 61 86 
4 56 55 61 86 
4 55 56 81 86 
4 55 81 80 86 
4 55 80 85 86 
4 86 81 105 106 
4 86 81 80 105 
4 85 86 80 105 
4 85 86 105 110 
4 110 86 105 111 
4 111 86 105 106 
4 15 16 36 41 
4 15 16 11 36 
4 10 15 11 36 
4 10 15 36 35 
4 35 15 36 40 
4 40 15 36 41 
4 36 35 65 60 
4 36 35 40 65 
4 41 36 40 65 
4 36 41 66 65 
4 36 66 61 65 
4 36 61 60 65 
4 65 66 86 91 
4 65 66 61 86 
4 60 65 61 86 
4 60 65 86 85 
4 85 65 86 90 
4 90 65 86 91 
4 86 85 115 110 
4 86 85 90 115 
4 91 86 90 115 
4 86 91 116 115 
4 86 116 111 115 
4 86 111 110 115 
4 20 15 45 46 
4 15 20 21 46 
4 16 15 21 46 
4 15 16 41 46 
4 15 41 40 46 
4 15 40 45 46 
4 46 41 65 66 
4 46 41 40 65 
4 45 46 40 65 
4 45 46 65 70 
4 70 46 65 71 
4 71 46 65 66 
4 70 65 95 96 
4 65 70 71 96 
4 66 65 71 96 
4 65 66 91 96 
4 65 91 90 96 
4 65 90 95 96 
4 96 91 115 116 
4 96 91 90 115 
4 95 96 90 115 
4 95 96 115 120 
4 120 96 115 121 
4 121 96 115 116 
4 7 2 26 27 
4 7 2 1 26 
4 6 7 1 26 
4 6 7 26 31 
4 31 7 26 32 
4 32 7 26 27 
4 31 26 56 57 
4 26 31 32 57 
4 27 26 32 57 
4 26 27 52 57 
4 26 52 51 57 
4 26 51 56 57 
4 57 52 76 77 
4 57 52 51 76 
4 56 57 51 76 
4 56 57 76 81 
4 81 57 76 82 
4 82 57 76 77 
4 81 76 106 107 
4 76 81 82 107 
4 77 76 82 107 
4 76 77 102 107 
4 76 102 101 107 
4 76 101 106 107 
4 7 6 36 31 
4 7 6 11 36 
4 12 7 11 36 
4 7 12 37 36 
4 7 37 32 36 
4 7 32 31 36 
4 36 37 57 62 
4 36 37 32 57 
4 31 36 32 57 
4 31 36 57 56 
4 56 36 57 61 
4 61 36 57 62 
4 57 56 86 81 
4 57 56 61 86 
4 62 57 61 86 
4 57 62 87 86 
4 57 87 82 86 
4 57 82 81 86 
4 86 87 107 112 
4 86 87 82 107 
4 81 86 82 107 
4 81 86 107 106 
4 106 86 107 111 
4 111 86 107 112 
4 17 12 36 37 
4 17 12 11 36 
4 16 17 11 36 
4 16 17 36 41 
4 41 17 36 42 
4 42 17 36 37 
4 41 36 66 67 
4 36 41 42 67 
4 37 36 42 67 
4 36 37 62 67 
4 36 62 61 67 
4 36 61 66 67 
4 67 62 86 87 
4 67 62 61 86 
4 66 67 61 86 
4 66 67 86 91 
4 91 67 86 92 
4 92 67 86 87 
4 91 86 116 117 
4 86 91 92 117 
4 87 86 92 117 
4 86 87 112 117 
4 86 112 111 117 
4 86 111 116 117 
4 17 16 46 41 
4 17 16 21 46 
4 22 17 21 46 
4 17 22 47 46 
4 17 47 42 46 
4 17 42 41 46 
4 46 47 67 72 
4 46 47 42 67 
4 41 46 42 67 
4 41 46 67 66 
4 66 46 67 71 
4 71 46 67 72 
4 67 66 96 91 
4 67 66 71 96 
4 72 67 71 96 
4 67 72 97 96 
4 67 97 92 96 
4 67 92 91 96 
4 96 97 117 122 
4 96 97 92 117 
4 91 96 92 117 
4 91 96 117 116 
4 116 96 117 121 
4 121 96 117 122 
4 7 8 28 33 
4 7 8 3 28 
4 2 7 3 28 
4 2 7 28 27 
4 27 7 28 32 
4 32 7 28 33 
4 28 27 57 52 
4 28 27 32 57 
4 33 28 32 57 
4 28 33 58 57 
4 28 58 53 57 
4 28 53 52 57 
4 57 58 78 83 
4 57 58 53 78 
4 52 57 53 78 
4 52 57 78 77 
4 77 57 78 82 
4 82 57 78 83 
4 78 77 107 102 
4 78 77 82 107 
4 83 78 82 107 
4 78 83 108 107 
4 78 108 103 107 
4 78 103 102 107 
4 12 7 37 38 
4 7 12 13 38 
4 8 7 13 38 
4 7 8 33 38 
4 7 33 32 38 
4 7 32 37 38 
4 38 33 57 58 
4 38 33 32 57 
4 37 38 32 57 
4 37 38 57 62 
4 62 38 57 63 
4 63 38 57 58 
4 62 57 87 88 
4 57 62 63 88 
4 58 57 63 88 
4 57 58 83 88 
4 57 83 82 88 
4 57 82 87 88 
4 88 83 107 108 
4 88 83 82 107 
4 87 88 82 107 
4 87 88 107 112 
4 112 88 107 113 
4 113 88 107 108 
4 17 18 38 43 
4 17 18 13 38 
4 12 17 13 38 
4 12 17 38 37 
4 37 17 38 42 
4 42 17 38 43 
4 38 37 67 62 
4 38 37 42 67 
4 43 38 42 67 
4 38 43 68 67 
4 38 68 63 67 
4 38 63 62 67 
4 67 68 88 93 
4 67 68 63 88 
4 62 67 63 88 
4 62 67 88 87 
4 87 67 88 92 
4 92 67 88 93 
4 88 87 117 112 
4 88 87 92 117 
4 93 88 92 117 
4 88 93 118 117 
4 88 118 113 117 
4 88 113 112 117 
4 22 17 47 48 
4 17 22 23 48 
4 18 17 23 48 
4 17 18 43 48 
4 17 43 42 48 
4 17 42 47 48 
4 48 43 67 68 
4 48 43 42 67 
4 47 48 42 67 
4 47 48 67 72 
4 72 48 67 73 
4 73 48 67 68 
4 72 67 97 98 
4 67 72 73 98 
4 68 67 73 98 
4 67 68 93 98 
4 67 93 92 98 
4 67 92 97 98 
4 98 93 117 118 
4 98 93 92 117 
4 97 98 92 117 
4 97 98 117 122 
4 122 98 117 123 
4 123 98 117 118 
4 9 4 28 29 
4 9 4 3 28 
4 8 9 3 28 
4 8 9 28 33 
4 33 9 28 34 
4 34 9 28 29 
4 33 28 58 59 
4 28 33 34 59 
4 29 28 34 59 
4 28 29 54 59 
4 28 54 53 59 
4 28 53 58 59 
4 59 54 78 79 
4 59 54 53 78 
4 58 59 53 78 
4 58 59 78 83 
4 83 59 78 84 
4 84 59 78 79 
4 83 78 108 109 
4 78 83 84 109 
4 79 78 84 109 
4 78 79 104 109 
4 78 104 103 109 
4 78 103 108 109 
4 9 8 38 33 
4 9 8 13 38 
4 14 9 13 38 
4 9 14 39 38 
4 9 39 34 38 
4 9 34 33 38 
4 38 39 59 64 
4 38 39 34 59 
4 33 38 34 59 
4 33 38 59 58 
4 58 38 59 63 
4 63 38 59 64 
4 59 58 88 83 
4 59 58 63 88 
4 64 59 63 88 
4 59 64 89 88 
4 59 89 84 88 
4 59 84 83 88 
4 88 89 109 114 
4 88 89 84 109 
4 83 88 84 109 
4 83 88 109 108 
4 108 88 109 113 
4 113 88 109 114 
4 19 14 38 39 
4 19 14 13 38 
4 18 19 13 38 
4 18 19 38 43 
4 43 19 38 44 
4 44 19 38 39 
4 43 38 68 69 
4 38 43 44 69 
4 39 38 44 69 
4 38 39 64 69 
4 38 64 63 69 
4 38 63 68 69 
4 69 64 88 89 
4 69 64 63 88 
4 68 69 63 88 
4 68 69 88 93 
4 93 69 88 94 
4 94 69 88 89 
4 93 88 118 119 
4 88 93 94 119 
4 89 88 94 119 
4 88 89 114 119 
4 88 114 113 119 
4 88 113 118 119 
4 19 18 48 43 
4 19 18 23 48 
4 24 19 23 48 
4 19 24 49 48 
4 19 49 44 48 
4 19 44 43 48 
4 48 49 69 74 
4 48 49 44 69 
4 43 48 44 69 
4 43 48 69 68 
4 68 48 69 73 
4 73 48 69 74 
4 69 68 98 93 
4 69 68 73 98 
4 74 69 73 98 
4 69 74 99 98 
4 69 99 94 98 
4 69 94 93 98 
4 98 99 119 124 
4 98 99 94 119 
4 93 98 94 119 
4 93 98 119 118 
4 118 98 119 123 
4 123 98 119 124 

CELL_TYPES 384
10
10
10
10
10
10
10
10
10
10
10
10
10
10
10
10
10
10
10
10
10
10
10
10
10
10
10
10
10
10
10
10
10
10
10
10
10
10
10
10
10
10
10
10
10
10
10
10
10
10
10
10
10
10
10
10
10
10
10
10
10
10
10
10
10
10
10
10
10
10
10
10
10
10
10
10
10
10
10
10
10
10
10
10
10
10
10
10
10
10
10
10
10
10
10
10
10
10
10
10
10
10
10
10
10
10
10
10
10
10
10
10
10
10
10
10
10
10
10
10
10
10
10
10
10
10
10
10
10
10
10
10
10
10
10
10
10
10
10
10
10
10
10
10
10
10
10
10
10
10
10
10
10
10
10
10
10
10
10
10
10
10
10
10
10
10
10
10
10
10
10
10
10
10
10
10
10
10
10
10
10
10
10
10
10
10
10
10
10
10
10
10
10
10
10
10
10
10
10
10
10
10
10
10
10
10
10
10
10
10
10
10
10
10
10
10
10
10
10
10
10
10
10
10
10
10
10
10
10
10
10
10
10
10
10
10
10
10
10
10
10
10
10
10
10
10
10
10
10
10
10
10
10
10
10
10
10
10
10
10
10
10
10
10
10
10
10
10
10
10
10
10
10
10
10
10
10
10
10
10
10
10
10
10
10
10
10
10
10
10
10
10
10
10
10
10
10
10
10
10
10
10
10
10
10
10
10
10
10
10
10
10
10
10
10
10
10
10
10
10
10
10
10
10
10
10
10
10
10
10
10
10
10
10
10
10
10
10
10
10
10
10
10
10
10
10
10
10
10
10
10
10
10
10
10
10
10
10
10
10
10
10
10
10
10
10
10
10
10
10
10
10
10
10
10
10
10
10
10
10
10
10
10
10

POINT_DATA 125
VECTORS displacement float
0 0 0
0 0 0
0 0 0
0 0 0
0 0 0
0 0 0
0 0 0
0 0 0
0 0 0
0 0 0
0 0 0
0 0 0
0 0 0
0 0 0
0 0 0
0 0 0
0 0 0
0 0 0
0 0 0
0 0 0
0 0 0
0 0 0
0 0 0
0 0 0
0 0 0
-0.00481557 -0.00397273 -0.00635392
-0.001065 -0.00543941 -0.00304581
-0.00386731 -0.00493705 1.38778e-17
-0.001065 -0.00543941 0.00304581
-0.00481557 -0.00397273 0.00635392
-0.00628896 -0.00210284 -0.00515727
-0.00328447 -0.00270348 -0.00269931
-0.00620079 -0.0025437 0
-0.00328447 -0.00270348 0.00269931
-0.00628896 -0.00210284 0.00515727
-0.00424738 1.38778e-17 -0.00597007
-0.000634809 0 -0.00287264
-0.00334723 0 0
-0.000634809 0 0.00287264
-0.00424738 -2.77556e-17 0.00597007
-0.00628896 0.00210284 -0.00515727
-0.00328447 0.00270348 -0.00269931
-0.00620079 0.0025437 0
-0.00328447 0.00270348 0.00269931
-0.00628896 0.00210284 0.00515727
-0.00481557 0.00397273 -0.00635392
-0.001065 0.00543941 -0.00304581
-0.00386731 0.00493705 -1.38778e-17
-0.001065 0.00543941 0.00304581
-0.00481557 0.00397273 0.00635392
-0.0125 -0.00684321 -0.011183
-0.0125 -0.00891908 -0.00506276
-0.0125 -0.00899851 0
-0.0125 -0.00891908 0.00506276
-0.0125 -0.00684321 0.011183
-0.0125 -0.00378803 -0.00996837
-0.0125 -0.00463383 -0.00497485
-0.0125001 -0.00481064 0
-0.0125 -0.00463383 0.00497485
-0.0125 -0.00378803 0.00996837
-0.0125 0 -0.0106669
-0.0125 1.38778e-17 -0.00481569
-0.0125 0 0
-0.0125 0 0.00481569
-0.0125 -1.38778e-17 0.0106669
-0.0125 0.00378803 -0.00996837
-0.0125 0.00463383 -0.00497485
-0.0125001 0.00481064 0
-0.0125 0.00463383 0.00497485
-0.0125 0.00378803 0.00996837
-0.0125 0.00684321 -0.011183
-0.0125 0.00891908 -0.00506276
-0.0125 0.00899851 -1.38778e-17
-0.0125 0.00891908 0.00506276
-0.0125 0.00684321 0.011183
-0.0201845 -0.0039727 -0.00635392
-0.023935 -0.00543939 -0.0030458
-0.0211327 -0.00493702 0
-0.023935 -0.00543939 0.0030458
-0.0201845 -0.0039727 0.00635392
-0.0187111 -0.00210283 -0.00515725
-0.0217156 -0.00270347 -0.0026993
-0.0187993 -0.00254369 -1.38778e-17
-0.0217156 -0.00270347 0.0026993
-0.0187111 -0.00210283 0.00515725
-0.0207526 0 -0.00597006
-0.0243652 -1.38778e-17 -0.00287263
-0.0216528 0 0
-0.0243652 0 0.00287263
-0.0207526 1.38778e-17 0.00597006
-0.0187111 0.00210283 -0.00515725
-0.0217156 0.00270347 -0.0026993
-0.0187993 0.00254369 0
-0.0217156 0.00270347 0.0026993
-0.0187111 0.00210283 0.00515725
-0.0201845 0.0039727 -0.00635392
-0.023935 0.00543939 -0.0030458
-0.0211327 0.00493702 0
-0.023935 0.00543939 0.0030458
-0.0201845 0.0039727 0.00635392
-0.025 0 0
-0.025 0 0
-0.025 0 0
-0.025 0 0
-0.025 0 0
-0.025 0 0
-0.025 0 0
-0.025 0 0
-0.025 0 0
-0.025 0 0
-0.025 0 0
-0.025 0 0
-0.025 0 0
-0.025 0 0
-0.025 0 0
-0.025 0 0
-0.025 0 0
-0.025 0 0
-0.025 0 0
-0.025 0 0
-0.025 0 0
-0.025 0 0
-0.025 0 0
-0.025 0 0
-0.025 0 0

CELL_DATA 384
TENSORS stress float
-5466.7 -1819.25 -836.32
-1819.25 -1057.2 330.734
-836.32 330.734 -3624.04

-14703.1 -775.071 -434.002
-775.071 -14394.1 198.208
-434.002 198.208 -14637.1

-14703.1 -775.071 -434.002
-775.071 -14394.1 198.208
-434.002 198.208 -14637.1

-11288.6 -650.078 -394.127
-650.078 -9639.82 -291.463
-394.127 -291.463 -7327.86

-4980.63 -1245.67 -209.181
-1245.67 537.7 -38.6222
-209.181 -38.6222 2261.13

-5745.44 -1491.32 -481.843
-1491.32 333.797 28.3378
-481.843 28.3378 114.526

-5119 -952.093 -33.7931
-952.093 2533.82 3.42292
-33.7931 3.42292 2945.47

-4660.48 -1141.87 -94.9166
-1141.87 926.968 -78.7969
-94.9166 -78.7969 2671.57

-5434.91 -1394.54 -384.578
-1394.54 732.879 -15.1528
-384.578 -15.1528 513.721

-7575.41 -1128.11 -611.384
-1128.11 -1120.59 -191.515
-611.384 -191.515 1431.9

-9160.47 -682.791 -404.405
-682.791 -1573.19 -345.081
-404.405 -345.081 -857.538

-9426.64 -591.992 -424.73
-591.992 -3377.91 -452.469
-424.73 -452.469 117.984

-7575.13 1128.14 611.41
1128.14 -1120.15 -191.515
611.41 -191.515 1432.39

-9160.64 682.761 404.404
682.761 -1573.52 -345.076
404.404 -345.076 -857.872

-9426.8 591.966 424.733
591.966 -3378.22 -452.463
424.733 -452.463 117.635

-5119.02 952.078 33.8014
952.078 2533.8 3.42127
33.8014 3.42127 2945.45

-4660.23 1141.89 94.9321
1141.89 927.286 -78.795
94.9321 -78.795 2671.93

-5434.68 1394.56 384.599
1394.56 733.178 -15.1503
384.599 -15.1503 514.033

-11287.9 650.129 394.157
650.129 -9639.09 -291.482
394.157 -291.482 -7327.02

-4980.03 1245.71 209.194
1245.71 538.482 -38.6235
209.194 -38.6235 2261.99

-5744.87 1491.37 481.869
1491.37 334.576 28.3373
481.869 28.3373 115.316

-5466.35 1819.28 836.337
1819.28 -1056.79 330.738
836.337 330.738 -3623.65

-14702.7 775.107 434.023
775.107 -14393.7 198.209
434.023 198.209 -14636.7

-14702.7 775.107 434.023
775.107 -14393.7 198.209
434.023 198.209 -14636.7

-10186.1 4.30542e-12 -445.055
4.30542e-12 -8560.92 -9.31858e-12
-445.055 -9.31858e-12 -6089.36

-12228.2 0 -560.864
0 -12052.8 0
-560.864 0 -11946.1

-12228.2 0 -560.864
0 -12052.8 0
-560.864 0 -11946.1

-5914.51 97.8185 -793.319
97.8185 -1645.6 -21.5051
-793.319 -21.5051 -3922.3

-6111.8 325.213 -476.516
325.213 -203.302 -309.793
-476.516 -309.793 -233.841

-5091.94 108.362 -272.534
108.362 618.286 -334.218
-272.534 -334.218 1966.8

-7890.43 362.001 -624.792
362.001 -1633.01 -571.212
-624.792 -571.212 1040.17

-5773.6 460.568 -386.02
460.568 229.36 -342.544
-386.02 -342.544 165.574

-4751.72 243.269 -164.952
243.269 1035.41 -368.154
-164.952 -368.154 2374.59

-6255.54 0.600326 -29.4648
0.600326 1828.74 -417.345
-29.4648 -417.345 1259.33

-9849.13 10.7704 -391.994
10.7704 -3534.95 -407.794
-391.994 -407.794 -1012.3

-10276.2 10.8416 -342.719
10.8416 -3460.9 -398.792
-342.719 -398.792 -2991.34

-6255.44 -0.580395 29.4771
-0.580395 1828.89 -417.347
29.4771 -417.347 1259.48

-9849.16 -10.7582 392.004
-10.7582 -3535.01 -407.793
392.004 -407.793 -1012.36

-10276.2 -10.8244 342.723
-10.8244 -3460.96 -398.79
342.723 -398.79 -2991.4

-7890.14 -362 624.819
-362 -1632.55 -571.22
624.819 -571.22 1040.68

-5773.35 -460.56 386.04
-460.56 229.685 -342.549
386.04 -342.549 165.91

-4751.48 -243.258 164.971
-243.258 1035.72 -368.159
164.971 -368.159 2374.93

-5914.14 -97.8112 793.337
-97.8112 -1645.16 -21.5061
793.337 -21.5061 -3921.9

-6111.21 -325.218 476.543
-325.218 -202.496 -309.804
476.543 -309.804 -233.028

-5091.35 -108.358 272.552
-108.358 619.065 -334.23
272.552 -334.23 1967.63

-10185.6 -5.26821e-15 445.079
-5.26821e-15 -8560.39 -4.05307e-12
445.079 -4.05307e-12 -6088.75

-12228.2 2.16765e-12 560.864
2.16765e-12 -12052.8 4.1231e-13
560.864 4.1231e-13 -11946.1

-12228.2 2.16765e-12 560.864
2.16765e-12 -12052.8 4.1231e-13
560.864 4.1231e-13 -11946.1

-5914.51 -97.8185 -793.319
-97.8185 -1645.6 21.5051
-793.319 21.5051 -3922.3

-12228.2 0 -560.864
0 -12052.8 0
-560.864 0 -11946.1

-12228.2 0 -560.864
0 -12052.8 0
-560.864 0 -11946.1

-10186.1 4.30542e-12 -445.055
4.30542e-12 -8560.92 -9.31858e-12
-445.055 -9.31858e-12 -6089.36

-5091.94 -108.362 -272.534
-108.362 618.286 334.218
-272.534 334.218 1966.8

-6111.8 -325.213 -476.516
-325.213 -203.302 309.793
-476.516 309.793 -233.841

-6255.54 -0.600326 -29.4648
-0.600326 1828.74 417.345
-29.4648 417.345 1259.33

-4751.72 -243.269 -164.952
-243.269 1035.41 368.154
-164.952 368.154 2374.59

-5773.6 -460.568 -386.02
-460.568 229.36 342.544
-386.02 342.544 165.574

-7890.43 -362.001 -624.792
-362.001 -1633.01 571.212
-624.792 571.212 1040.17

-10276.2 -10.8416 -342.719
-10.8416 -3460.9 398.792
-342.719 398.792 -2991.34

-9849.13 -10.7704 -391.994
-10.7704 -3534.95 407.794
-391.994 407.794 -1012.3

-7890.14 362 624.819
362 -1632.55 571.22
624.819 571.22 1040.68

-10276.2 10.8244 342.723
10.8244 -3460.96 398.79
342.723 398.79 -2991.4

-9849.16 10.7582 392.004
10.7582 -3535.01 407.793
392.004 407.793 -1012.36

-6255.44 0.580395 29.4771
0.580395 1828.89 417.347
29.4771 417.347 1259.48

-4751.48 243.258 164.971
243.258 1035.72 368.159
164.971 368.159 2374.93

-5773.35 460.56 386.04
460.56 229.685 342.549
386.04 342.549 165.91

-10185.6 -5.26821e-15 445.079
-5.26821e-15 -8560.39 -4.05307e-12
445.079 -4.05307e-12 -6088.75

-5091.35 108.358 272.552
108.358 619.065 334.23
272.552 334.23 1967.63

-6111.21 325.218 476.543
325.218 -202.496 309.804
476.543 309.804 -233.028

-5914.14 97.8112 793.337
97.8112 -1645.16 21.5061
793.337 21.5061 -3921.9

-12228.2 2.16765e-12 560.864
2.16765e-12 -12052.8 4.1231e-13
560.864 4.1231e-13 -11946.1

-12228.2 2.16765e-12 560.864
2.16765e-12 -12052.8 4.1231e-13
560.864 4.1231e-13 -11946.1

-11288.6 650.078 -394.127
650.078 -9639.82 291.463
-394.127 291.463 -7327.86

-14703.1 775.071 -434.002
775.071 -14394.1 -198.208
-434.002 -198.208 -14637.1

-14703.1 775.071 -434.002
775.071 -14394.1 -198.208
-434.002 -198.208 -14637.1

-5466.7 1819.25 -836.32
1819.25 -1057.2 -330.734
-836.32 -330.734 -3624.04

-5745.44 1491.32 -481.843
1491.32 333.797 -28.3378
-481.843 -28.3378 114.526

-4980.63 1245.67 -209.181
1245.67 537.7 38.6222
-209.181 38.6222 2261.13

-7575.41 1128.11 -611.384
1128.11 -1120.59 191.515
-611.384 191.515 1431.9

-5434.91 1394.54 -384.578
1394.54 732.879 15.1528
-384.578 15.1528 513.721

-4660.48 1141.87 -94.9166
1141.87 926.968 78.7969
-94.9166 78.7969 2671.57

-5119 952.093 -33.7931
952.093 2533.82 -3.42292
-33.7931 -3.42292 2945.47

-9426.64 591.992 -424.73
591.992 -3377.91 452.469
-424.73 452.469 117.984

-9160.47 682.791 -404.405
682.791 -1573.19 345.081
-404.405 345.081 -857.538

-5119.02 -952.078 33.8014
-952.078 2533.8 -3.42127
33.8014 -3.42127 2945.45

-9426.8 -591.966 424.733
-591.966 -3378.22 452.463
424.733 452.463 117.635

-9160.64 -682.761 404.404
-682.761 -1573.52 345.076
404.404 345.076 -857.872

-7575.13 -1128.14 611.41
-1128.14 -1120.15 191.515
611.41 191.515 1432.39

-5434.68 -1394.56 384.599
-1394.56 733.178 15.1503
384.599 15.1503 514.033

-4660.23 -1141.89 94.9321
-1141.89 927.286 78.795
94.9321 78.795 2671.93

-5466.35 -1819.28 836.337
-1819.28 -1056.79 -330.738
836.337 -330.738 -3623.65

-5744.87 -1491.37 481.869
-1491.37 334.576 -28.3373
481.869 -28.3373 115.316

-4980.03 -1245.71 209.194
-1245.71 538.482 38.6235
209.194 38.6235 2261.99

-11287.9 -650.129 394.157
-650.129 -9639.09 291.482
394.157 291.482 -7327.02

-14702.7 -775.107 434.023
-775.107 -14393.7 -198.209
434.023 -198.209 -14636.7

-14702.7 -775.107 434.023
-775.107 -14393.7 -198.209
434.023 -198.209 -14636.7

-7363.48 -1289.86 -1005.13
-1289.86 -5278.27 337.031
-1005.13 337.031 -3068.89

-14703.1 -775.071 -434.002
-775.071 -14394.1 198.208
-434.002 198.208 -14637.1

-14703.1 -775.071 -434.002
-775.071 -14394.1 198.208
-434.002 198.208 -14637.1

-5466.7 -1819.25 -836.32
-1819.25 -1057.2 330.734
-836.32 330.734 -3624.04

-4293.39 -1801.17 -1221.64
-1801.17 2299.15 419.587
-1221.64 419.587 2083.57

-4187.03 -1830.58 -1204.94
-1830.58 2070.87 419.128
-1204.94 419.128 2629.19

-7998.15 -1091.71 -614.41
-1091.71 -1830.11 206.704
-614.41 206.704 644.888

-6075.64 -1507.41 -1080.4
-1507.41 -213.309 389.542
-1080.4 389.542 -386.716

-5970.04 -1532.08 -1068.99
-1532.08 -410.703 389.374
-1068.99 389.374 127.183

-7002.45 -1169.76 -953.133
-1169.76 1330.27 384.162
-953.133 384.162 -211.174

-9678.6 -642.256 -399.398
-642.256 -2717.31 68.5881
-399.398 68.5881 -1823.05

-9547.47 -659.076 -402.884
-659.076 -2349.21 62.6013
-402.884 62.6013 -1666.55

-7002.23 1169.77 953.145
1169.77 1330.64 384.167
953.145 384.167 -210.824

-9678.77 642.225 399.373
642.225 -2717.64 68.586
399.373 68.586 -1823.38

-9547.64 659.046 402.857
659.046 -2349.54 62.5993
402.857 62.5993 -1666.89

-7997.87 1091.74 614.405
1091.74 -1829.67 206.706
614.405 206.706 645.374

-6075.11 1507.47 1080.42
1507.47 -212.586 389.55
1080.42 389.55 -385.999

-5969.5 1532.13 1069.02
1532.13 -409.984 389.383
1069.02 389.383 127.925

-5466.35 1819.28 836.337
1819.28 -1056.79 330.738
836.337 330.738 -3623.65

-4292.78 1801.23 1221.67
1801.23 2299.97 419.595
1221.67 419.595 2084.39

-4186.41 1830.64 1204.98
1830.64 2071.68 419.137
1204.98 419.137 2630.04

-7363.01 1289.91 1005.16
1289.91 -5277.74 337.037
1005.16 337.037 -3068.3

-14702.7 775.107 434.023
775.107 -14393.7 198.209
434.023 198.209 -14636.7

-14702.7 775.107 434.023
775.107 -14393.7 198.209
434.023 198.209 -14636.7

-5914.51 97.8185 -793.319
97.8185 -1645.6 -21.5051
-793.319 -21.5051 -3922.3

-12228.2 0 -560.864
0 -12052.8 0
-560.864 0 -11946.1

-12228.2 0 -560.864
0 -12052.8 0
-560.864 0 -11946.1

-6373.2 0 -1016.51
0 -4541.67 0
-1016.51 0 -2037.62

-4460.78 296.416 -1118.13
296.416 1877.23 -20.0493
-1118.13 -20.0493 2251.69

-4694.68 212.4 -1173.06
212.4 1710.4 -23.1816
-1173.06 -23.1816 1720.01

-8844.27 0.0102097 -736.757
0.0102097 -1059.73 -0.000925781
-736.757 -0.000925781 -3092.2

-6215.75 345.462 -989.343
345.462 -581.127 -26.5426
-989.343 -26.5426 -221.601

-6450.85 270.393 -1034.5
270.393 -765.459 -29.5304
-1034.5 -29.5304 -739.628

-8311.8 333.862 -592.538
333.862 -2346.57 -172.702
-592.538 -172.702 248.629

-10657 0.301698 -323.06
0.301698 -4248.63 -10.5268
-323.06 -10.5268 -3804.43

-10403.1 0.0076704 -330.71
0.0076704 -3532.8 -0.000494202
-330.71 -0.000494202 -3466.31

-8311.51 -333.861 592.534
-333.861 -2346.1 -172.704
592.534 -172.704 249.143

-10657.1 -0.285196 323.044
-0.285196 -4248.7 -10.5257
323.044 -10.5257 -3804.5

-10403.1 0.00767036 330.691
0.00767036 -3532.86 0.000494176
330.691 0.000494176 -3466.37

-8843.87 0.0102101 736.784
0.0102101 -1059.03 0.000925771
736.784 0.000925771 -3091.55

-6215.21 -345.455 989.373
-345.455 -580.399 -26.5407
989.373 -26.5407 -220.866

-6450.3 -270.388 1034.53
-270.388 -764.712 -29.5287
1034.53 -29.5287 -738.888

-6372.93 4.83834e-13 1016.52
4.83834e-13 -4541.37 4.84281e-12
1016.52 4.84281e-12 -2037.3

-4460.16 -296.413 1118.16
-296.413 1878.06 -20.0481
1118.16 -20.0481 2252.53

-4694.05 -212.399 1173.09
-212.399 1711.25 -23.1806
1173.09 -23.1806 1720.85

-5914.14 -97.8112 793.337
-97.8112 -1645.16 -21.5061
793.337 -21.5061 -3921.9

-12228.2 2.16765e-12 560.864
2.16765e-12 -12052.8 4.1231e-13
560.864 4.1231e-13 -11946.1

-12228.2 2.16765e-12 560.864
2.16765e-12 -12052.8 4.1231e-13
560.864 4.1231e-13 -11946.1

-6373.2 0 -1016.51
0 -4541.67 0
-1016.51 0 -2037.62

-12228.2 0 -560.864
0 -12052.8 0
-560.864 0 -11946.1

-12228.2 0 -560.864
0 -12052.8 0
-560.864 0 -11946.1

-5914.51 -97.8185 -793.319
-97.8185 -1645.6 21.5051
-793.319 21.5051 -3922.3

-4694.68 -212.4 -1173.06
-212.4 1710.4 23.1816
-1173.06 23.1816 1720.01

-4460.78 -296.416 -1118.13
-296.416 1877.23 20.0493
-1118.13 20.0493 2251.69

-8311.8 -333.862 -592.538
-333.862 -2346.57 172.702
-592.538 172.702 248.629

-6450.85 -270.393 -1034.5
-270.393 -765.459 29.5304
-1034.5 29.5304 -739.628

-6215.75 -345.462 -989.343
-345.462 -581.127 26.5426
-989.343 26.5426 -221.601

-8844.27 -0.0102097 -736.757
-0.0102097 -1059.73 0.000925781
-736.757 0.000925781 -3092.2

-10403.1 -0.0076704 -330.71
-0.0076704 -3532.8 0.000494202
-330.71 0.000494202 -3466.31

-10657 -0.301698 -323.06
-0.301698 -4248.63 10.5268
-323.06 10.5268 -3804.43

-8843.87 -0.0102101 736.784
-0.0102101 -1059.03 -0.000925771
736.784 -0.000925771 -3091.55

-10403.1 -0.00767036 330.691
-0.00767036 -3532.86 -0.000494176
330.691 -0.000494176 -3466.37

-10657.1 0.285196 323.044
0.285196 -4248.7 10.5257
323.044 10.5257 -3804.5

-8311.51 333.861 592.534
333.861 -2346.1 172.704
592.534 172.704 249.143

-6450.3 270.388 1034.53
270.388 -764.712 29.5287
1034.53 29.5287 -738.888

-6215.21 345.455 989.373
345.455 -580.399 26.5407
989.373 26.5407 -220.866

-5914.14 97.8112 793.337
97.8112 -1645.16 21.5061
793.337 21.5061 -3921.9

-4694.05 212.399 1173.09
212.399 1711.25 23.1806
1173.09 23.1806 1720.85

-4460.16 296.413 1118.16
296.413 1878.06 20.0481
1118.16 20.0481 2252.53

-6372.93 4.83834e-13 1016.52
4.83834e-13 -4541.37 4.84281e-12
1016.52 4.84281e-12 -2037.3

-12228.2 2.16765e-12 560.864
2.16765e-12 -12052.8 4.1231e-13
560.864 4.1231e-13 -11946.1

-12228.2 2.16765e-12 560.864
2.16765e-12 -12052.8 4.1231e-13
560.864 4.1231e-13 -11946.1

-5466.7 1819.25 -836.32
1819.25 -1057.2 -330.734
-836.32 -330.734 -3624.04

-14703.1 775.071 -434.002
775.071 -14394.1 -198.208
-434.002 -198.208 -14637.1

-14703.1 775.071 -434.002
775.071 -14394.1 -198.208
-434.002 -198.208 -14637.1

-7363.48 1289.86 -1005.13
1289.86 -5278.27 -337.031
-1005.13 -337.031 -3068.89

-4187.03 1830.58 -1204.94
1830.58 2070.87 -419.128
-1204.94 -419.128 2629.19

-4293.39 1801.17 -1221.64
1801.17 2299.15 -419.587
-1221.64 -419.587 2083.57

-7002.45 1169.76 -953.133
1169.76 1330.27 -384.162
-953.133 -384.162 -211.174

-5970.04 1532.08 -1068.99
1532.08 -410.703 -389.374
-1068.99 -389.374 127.183

-6075.64 1507.41 -1080.4
1507.41 -213.309 -389.542
-1080.4 -389.542 -386.716

-7998.15 1091.71 -614.41
1091.71 -1830.11 -206.704
-614.41 -206.704 644.888

-9547.47 659.076 -402.884
659.076 -2349.21 -62.6013
-402.884 -62.6013 -1666.55

-9678.6 642.256 -399.398
642.256 -2717.31 -68.5881
-399.398 -68.5881 -1823.05

-7997.87 -1091.74 614.405
-1091.74 -1829.67 -206.706
614.405 -206.706 645.374

-9547.64 -659.046 402.857
-659.046 -2349.54 -62.5993
402.857 -62.5993 -1666.89

-9678.77 -642.225 399.373
-642.225 -2717.64 -68.586
399.373 -68.586 -1823.38

-7002.23 -1169.77 953.145
-1169.77 1330.64 -384.167
953.145 -384.167 -210.824

-5969.5 -1532.13 1069.02
-1532.13 -409.984 -389.383
1069.02 -389.383 127.925

-6075.11 -1507.47 1080.42
-1507.47 -212.586 -389.55
1080.42 -389.55 -385.999

-7363.01 -1289.91 1005.16
-1289.91 -5277.74 -337.037
1005.16 -337.037 -3068.3

-4186.41 -1830.64 1204.98
-1830.64 2071.68 -419.137
1204.98 -419.137 2630.04

-4292.78 -1801.23 1221.67
-1801.23 2299.97 -419.595
1221.67 -419.595 2084.39

-5466.35 -1819.28 836.337
-1819.28 -1056.79 -330.738
836.337 -330.738 -3623.65

-14702.7 -775.107 434.023
-775.107 -14393.7 -198.209
434.023 -198.209 -14636.7

-14702.7 -775.107 434.023
-775.107 -14393.7 -198.209
434.023 -198.209 -14636.7

-5466.7 -1819.25 836.32
-1819.25 -1057.2 -330.734
836.32 -330.734 -3624.04

-14703.1 -775.071 434.002
-775.071 -14394.1 -198.208
434.002 -198.208 -14637.1

-14703.1 -775.071 434.002
-775.071 -14394.1 -198.208
434.002 -198.208 -14637.1

-7363.48 -1289.86 1005.13
-1289.86 -5278.27 -337.031
1005.13 -337.031 -3068.89

-4187.03 -1830.58 1204.94
-1830.58 2070.87 -419.128
1204.94 -419.128 2629.19

-4293.39 -1801.17 1221.64
-1801.17 2299.15 -419.587
1221.64 -419.587 2083.57

-7002.45 -1169.76 953.133
-1169.76 1330.27 -384.162
953.133 -384.162 -211.174

-5970.04 -1532.08 1068.99
-1532.08 -410.703 -389.374
1068.99 -389.374 127.183

-6075.64 -1507.41 1080.4
-1507.41 -213.309 -389.542
1080.4 -389.542 -386.716

-7998.15 -1091.71 614.41
-1091.71 -1830.11 -206.704
614.41 -206.704 644.888

-9547.47 -659.076 402.884
-659.076 -2349.21 -62.6013
402.884 -62.6013 -1666.55

-9678.6 -642.256 399.398
-642.256 -2717.31 -68.5881
399.398 -68.5881 -1823.05

-7997.87 1091.74 -614.405
1091.74 -1829.67 -206.706
-614.405 -206.706 645.374

-9547.64 659.046 -402.857
659.046 -2349.54 -62.5993
-402.857 -62.5993 -1666.89

-9678.77 642.225 -399.373
642.225 -2717.64 -68.586
-399.373 -68.586 -1823.38

-7002.23 1169.77 -953.145
1169.77 1330.64 -384.167
-953.145 -384.167 -210.824

-5969.5 1532.13 -1069.02
1532.13 -409.984 -389.383
-1069.02 -389.383 127.925

-6075.11 1507.47 -1080.42
1507.47 -212.586 -389.55
-1080.42 -389.55 -385.999

-7363.01 1289.91 -1005.16
1289.91 -5277.74 -337.037
-1005.16 -337.037 -3068.3

-4186.41 1830.64 -1204.98
1830.64 2071.68 -419.137
-1204.98 -419.137 2630.04

-4292.78 1801.23 -1221.67
1801.23 2299.97 -419.595
-1221.67 -419.595 2084.39

-5466.35 1819.28 -836.337
1819.28 -1056.79 -330.738
-836.337 -330.738 -3623.65

-14702.7 775.107 -434.023
775.107 -14393.7 -198.209
-434.023 -198.209 -14636.7

-14702.7 775.107 -434.023
775.107 -14393.7 -198.209
-434.023 -198.209 -14636.7

-6373.2 0 1016.51
0 -4541.67 0
1016.51 0 -2037.62

-12228.2 0 560.864
0 -12052.8 0
560.864 0 -11946.1

-12228.2 0 560.864
0 -12052.8 0
560.864 0 -11946.1

-5914.51 97.8185 793.319
97.8185 -1645.6 21.5051
793.319 21.5051 -3922.3

-4694.68 212.4 1173.06
212.4 1710.4 23.1816
1173.06 23.1816 1720.01

-4460.78 296.416 1118.13
296.416 1877.23 20.0493
1118.13 20.0493 2251.69

-8311.8 333.862 592.538
333.862 -2346.57 172.702
592.538 172.702 248.629

-6450.85 270.393 1034.5
270.393 -765.459 29.5304
1034.5 29.5304 -739.628

-6215.75 345.462 989.343
345.462 -581.127 26.5426
989.343 26.5426 -221.601

-8844.27 0.0102097 736.757
0.0102097 -1059.73 0.000925781
736.757 0.000925781 -3092.2

-10403.1 0.0076704 330.71
0.0076704 -3532.8 0.000494202
330.71 0.000494202 -3466.31

-10657 0.301698 323.06
0.301698 -4248.63 10.5268
323.06 10.5268 -3804.43

-8843.87 0.0102101 -736.784
0.0102101 -1059.03 -0.000925771
-736.784 -0.000925771 -3091.55

-10403.1 0.00767036 -330.691
0.00767036 -3532.86 -0.000494176
-330.691 -0.000494176 -3466.37

-10657.1 -0.285196 -323.044
-0.285196 -4248.7 10.5257
-323.044 10.5257 -3804.5

-8311.51 -333.861 -592.534
-333.861 -2346.1 172.704
-592.534 172.704 249.143

-6450.3 -270.388 -1034.53
-270.388 -764.712 29.5287
-1034.53 29.5287 -738.888

-6215.21 -345.455 -989.373
-345.455 -580.399 26.5407
-989.373 26.5407 -220.866

-5914.14 -97.8112 -793.337
-97.8112 -1645.16 21.5061
-793.337 21.5061 -3921.9

-4694.05 -212.399 -1173.09
-212.399 1711.25 23.1806
-1173.09 23.1806 1720.85

-4460.16 -296.413 -1118.16
-296.413 1878.06 20.0481
-1118.16 20.0481 2252.53

-6372.93 0 -1016.52
0 -4541.37 0
-1016.52 0 -2037.3

-12228.2 0 -560.864
0 -12052.8 0
-560.864 0 -11946.1

-12228.2 0 -560.864
0 -12052.8 0
-560.864 0 -11946.1

-5914.51 -97.8185 793.319
-97.8185 -1645.6 -21.5051
793.319 -21.5051 -3922.3

-12228.2 0 560.864
0 -12052.8 0
560.864 0 -11946.1

-12228.2 0 560.864
0 -12052.8 0
560.864 0 -11946.1

-6373.2 0 1016.51
0 -4541.67 0
1016.51 0 -2037.62

-4460.78 -296.416 1118.13
-296.416 1877.23 -20.0493
1118.13 -20.0493 2251.69

-4694.68 -212.4 1173.06
-212.4 1710.4 -23.1816
1173.06 -23.1816 1720.01

-8844.27 -0.0102097 736.757
-0.0102097 -1059.73 -0.000925781
736.757 -0.000925781 -3092.2

-6215.75 -345.462 989.343
-345.462 -581.127 -26.5426
989.343 -26.5426 -221.601

-6450.85 -270.393 1034.5
-270.393 -765.459 -29.5304
1034.5 -29.5304 -739.628

-8311.8 -333.862 592.538
-333.862 -2346.57 -172.702
592.538 -172.702 248.629

-10657 -0.301698 323.06
-0.301698 -4248.63 -10.5268
323.06 -10.5268 -3804.43

-10403.1 -0.0076704 330.71
-0.0076704 -3532.8 -0.000494202
330.71 -0.000494202 -3466.31

-8311.51 333.861 -592.534
333.861 -2346.1 -172.704
-592.534 -172.704 249.143

-10657.1 0.285196 -323.044
0.285196 -4248.7 -10.5257
-323.044 -10.5257 -3804.5

-10403.1 -0.00767036 -330.691
-0.00767036 -3532.86 0.000494176
-330.691 0.000494176 -3466.37

-8843.87 -0.0102101 -736.784
-0.0102101 -1059.03 0.000925771
-736.784 0.000925771 -3091.55

-6215.21 345.455 -989.373
345.455 -580.399 -26.5407
-989.373 -26.5407 -220.866

-6450.3 270.388 -1034.53
270.388 -764.712 -29.5287
-1034.53 -29.5287 -738.888

-6372.93 0 -1016.52
0 -4541.37 0
-1016.52 0 -2037.3

-4460.16 296.413 -1118.16
296.413 1878.06 -20.0481
-1118.16 -20.0481 2252.53

-4694.05 212.399 -1173.09
212.399 1711.25 -23.1806
-1173.09 -23.1806 1720.85

-5914.14 97.8112 -793.337
97.8112 -1645.16 -21.5061
-793.337 -21.5061 -3921.9

-12228.2 0 -560.864
0 -12052.8 0
-560.864 0 -11946.1

-12228.2 0 -560.864
0 -12052.8 0
-560.864 0 -11946.1

-7363.48 1289.86 1005.13
1289.86 -5278.27 337.031
1005.13 337.031 -3068.89

-14703.1 775.071 434.002
775.071 -14394.1 198.208
434.002 198.208 -14637.1

-14703.1 775.071 434.002
775.071 -14394.1 198.208
434.002 198.208 -14637.1

-5466.7 1819.25 836.32
1819.25 -1057.2 330.734
836.32 330.734 -3624.04

-4293.39 1801.17 1221.64
1801.17 2299.15 419.587
1221.64 419.587 2083.57

-4187.03 1830.58 1204.94
1830.58 2070.87 419.128
1204.94 419.128 2629.19

-7998.15 1091.71 614.41
1091.71 -1830.11 206.704
614.41 206.704 644.888

-6075.64 1507.41 1080.4
1507.41 -213.309 389.542
1080.4 389.542 -386.716

-5970.04 1532.08 1068.99
1532.08 -410.703 389.374
1068.99 389.374 127.183

-7002.45 1169.76 953.133
1169.76 1330.27 384.162
953.133 384.162 -211.174

-9678.6 642.256 399.398
642.256 -2717.31 68.5881
399.398 68.5881 -1823.05

-9547.47 659.076 402.884
659.076 -2349.21 62.6013
402.884 62.6013 -1666.55

-7002.23 -1169.77 -953.145
-1169.77 1330.64 384.167
-953.145 384.167 -210.824

-9678.77 -642.225 -399.373
-642.225 -2717.64 68.586
-399.373 68.586 -1823.38

-9547.64 -659.046 -402.857
-659.046 -2349.54 62.5993
-402.857 62.5993 -1666.89

-7997.87 -1091.74 -614.405
-1091.74 -1829.67 206.706
-614.405 206.706 645.374

-6075.11 -1507.47 -1080.42
-1507.47 -212.586 389.55
-1080.42 389.55 -385.999

-5969.5 -1532.13 -1069.02
-1532.13 -409.984 389.383
-1069.02 389.383 127.925

-5466.35 -1819.28 -836.337
-1819.28 -1056.79 330.738
-836.337 330.738 -3623.65

-4292.78 -1801.23 -1221.67
-1801.23 2299.97 419.595
-1221.67 419.595 2084.39

-4186.41 -1830.64 -1204.98
-1830.64 2071.68 419.137
-1204.98 419.137 2630.04

-7363.01 -1289.91 -1005.16
-1289.91 -5277.74 337.037
-1005.16 337.037 -3068.3

-14702.7 -775.107 -434.023
-775.107 -14393.7 198.209
-434.023 198.209 -14636.7

-14702.7 -775.107 -434.023
-775.107 -14393.7 198.209
-434.023 198.209 -14636.7

-11288.6 -650.078 394.127
-650.078 -9639.82 291.463
394.127 291.463 -7327.86

-14703.1 -775.071 434.002
-775.071 -14394.1 -198.208
434.002 -198.208 -14637.1

-14703.1 -775.071 434.002
-775.071 -14394.1 -198.208
434.002 -198.208 -14637.1

-5466.7 -1819.25 836.32
-1819.25 -1057.2 -330.734
836.32 -330.734 -3624.04

-5745.44 -1491.32 481.843
-1491.32 333.797 -28.3378
481.843 -28.3378 114.526

-4980.63 -1245.67 209.181
-1245.67 537.7 38.6222
209.181 38.6222 2261.13

-7575.41 -1128.11 611.384
-1128.11 -1120.59 191.515
611.384 191.515 1431.9

-5434.91 -1394.54 384.578
-1394.54 732.879 15.1528
384.578 15.1528 513.721

-4660.48 -1141.87 94.9166
-1141.87 926.968 78.7969
94.9166 78.7969 2671.57

-5119 -952.093 33.7931
-952.093 2533.82 -3.42292
33.7931 -3.42292 2945.47

-9426.64 -591.992 424.73
-591.992 -3377.91 452.469
424.73 452.469 117.984

-9160.47 -682.791 404.405
-682.791 -1573.19 345.081
404.405 345.081 -857.538

-5119.02 952.078 -33.8014
952.078 2533.8 -3.42127
-33.8014 -3.42127 2945.45

-9426.8 591.966 -424.733
591.966 -3378.22 452.463
-424.733 452.463 117.635

-9160.64 682.761 -404.404
682.761 -1573.52 345.076
-404.404 345.076 -857.872

-7575.13 1128.14 -611.41
1128.14 -1120.15 191.515
-611.41 191.515 1432.39

-5434.68 1394.56 -384.599
1394.56 733.178 15.1503
-384.599 15.1503 514.033

-4660.23 1141.89 -94.9321
1141.89 927.286 78.795
-94.9321 78.795 2671.93

-5466.35 1819.28 -836.337
1819.28 -1056.79 -330.738
-836.337 -330.738 -3623.65

-5744.87 1491.37 -481.869
1491.37 334.576 -28.3373
-481.869 -28.3373 115.316

-4980.03 1245.71 -209.194
1245.71 538.482 38.6235
-209.194 38.6235 2261.99

-11287.9 650.129 -394.157
650.129 -9639.09 291.482
-394.157 291.482 -7327.02

-14702.7 775.107 -434.023
775.107 -14393.7 -198.209
-434.023 -198.209 -14636.7

-14702.7 775.107 -434.023
775.107 -14393.7 -198.209
-434.023 -198.209 -14636.7

-5914.51 97.8185 793.319
97.8185 -1645.6 21.5051
793.319 21.5051 -3922.3

-12228.2 0 560.864
0 -12052.8 0
560.864 0 -11946.1

-12228.2 0 560.864
0 -12052.8 0
560.864 0 -11946.1

-10186.1 -4.31069e-12 445.055
-4.31069e-12 -8560.92 -1.33715e-11
445.055 -1.33715e-11 -6089.36

-5091.94 108.362 272.534
108.362 618.286 334.218
272.534 334.218 1966.8

-6111.8 325.213 476.516
325.213 -203.302 309.793
476.516 309.793 -233.841

-6255.54 0.600326 29.4648
0.600326 1828.74 417.345
29.4648 417.345 1259.33

-4751.72 243.269 164.952
243.269 1035.41 368.154
164.952 368.154 2374.59

-5773.6 460.568 386.02
460.568 229.36 342.544
386.02 342.544 165.574

-7890.43 362.001 624.792
362.001 -1633.01 571.212
624.792 571.212 1040.17

-10276.2 10.8416 342.719
10.8416 -3460.9 398.792
342.719 398.792 -2991.34

-9849.13 10.7704 391.994
10.7704 -3534.95 407.794
391.994 407.794 -1012.3

-7890.14 -362 -624.819
-362 -1632.55 571.22
-624.819 571.22 1040.68

-10276.2 -10.8244 -342.723
-10.8244 -3460.96 398.79
-342.723 398.79 -2991.4

-9849.16 -10.7582 -392.004
-10.7582 -3535.01 407.793
-392.004 407.793 -1012.36

-6255.44 -0.580395 -29.4771
-0.580395 1828.89 417.347
-29.4771 417.347 1259.48

-4751.48 -243.258 -164.971
-243.258 1035.72 368.159
-164.971 368.159 2374.93

-5773.35 -460.56 -386.04
-460.56 229.685 342.549
-386.04 342.549 165.91

-10185.6 -4.30563e-12 -445.079
-4.30563e-12 -8560.39 9.31885e-12
-445.079 9.31885e-12 -6088.75

-5091.35 -108.358 -272.552
-108.358 619.065 334.23
-272.552 334.23 1967.63

-6111.21 -325.218 -476.543
-325.218 -202.496 309.804
-476.543 309.804 -233.028

-5914.14 -97.8112 -793.337
-97.8112 -1645.16 21.5061
-793.337 21.5061 -3921.9

-12228.2 0 -560.864
0 -12052.8 0
-560.864 0 -11946.1

-12228.2 0 -560.864
0 -12052.8 0
-560.864 0 -11946.1

-10186.1 -4.30542e-12 445.055
-4.30542e-12 -8560.92 -9.31858e-12
445.055 -9.31858e-12 -6089.36

-12228.2 0 560.864
0 -12052.8 0
560.864 0 -11946.1

-12228.2 0 560.864
0 -12052.8 0
560.864 0 -11946.1

-5914.51 -97.8185 793.319
-97.8185 -1645.6 -21.5051
793.319 -21.5051 -3922.3

-6111.8 -325.213 476.516
-325.213 -203.302 -309.793
476.516 -309.793 -233.841

-5091.94 -108.362 272.534
-108.362 618.286 -334.218
272.534 -334.218 1966.8

-7890.43 -362.001 624.792
-362.001 -1633.01 -571.212
624.792 -571.212 1040.17

-5773.6 -460.568 386.02
-460.568 229.36 -342.544
386.02 -342.544 165.574

-4751.72 -243.269 164.952
-243.269 1035.41 -368.154
164.952 -368.154 2374.59

-6255.54 -0.600326 29.4648
-0.600326 1828.74 -417.345
29.4648 -417.345 1259.33

-9849.13 -10.7704 391.994
-10.7704 -3534.95 -407.794
391.994 -407.794 -1012.3

-10276.2 -10.8416 342.719
-10.8416 -3460.9 -398.792
342.719 -398.792 -2991.34

-6255.44 0.580395 -29.4771
0.580395 1828.89 -417.347
-29.4771 -417.347 1259.48

-9849.16 10.7582 -392.004
10.7582 -3535.01 -407.793
-392.004 -407.793 -1012.36

-10276.2 10.8244 -342.723
10.8244 -3460.96 -398.79
-342.723 -398.79 -2991.4

-7890.14 362 -624.819
362 -1632.55 -571.22
-624.819 -571.22 1040.68

-5773.35 460.56 -386.04
460.56 229.685 -342.549
-386.04 -342.549 165.91

-4751.48 243.258 -164.971
243.258 1035.72 -368.159
-164.971 -368.159 2374.93

-5914.14 97.8112 -793.337
97.8112 -1645.16 -21.5061
-793.337 -21.5061 -3921.9

-6111.21 325.218 -476.543
325.218 -202.496 -309.804
-476.543 -309.804 -233.028

-5091.35 108.358 -272.552
108.358 619.065 -334.23
-272.552 -334.23 1967.63

-10185.6 -2.15282e-12 -445.079
-2.15282e-12 -8560.39 4.65943e-12
-445.079 4.65943e-12 -6088.75

-12228.2 0 -560.864
0 -12052.8 0
-560.864 0 -11946.1

-12228.2 0 -560.864
0 -12052.8 0
-560.864 0 -11946.1

-5466.7 1819.25 836.32
1819.25 -1057.2 330.734
836.32 330.734 -3624.04

-14703.1 775.071 434.002
775.071 -14394.1 198.208
434.002 198.208 -14637.1

-14703.1 775.071 434.002
775.071 -14394.1 198.208
434.002 198.208 -14637.1

-11288.6 650.078 394.127
650.078 -9639.82 -291.463
394.127 -291.463 -7327.86

-4980.63 1245.67 209.181
1245.67 537.7 -38.6222
209.181 -38.6222 2261.13

-5745.44 1491.32 481.843
1491.32 333.797 28.3378
481.843 28.3378 114.526

-5119 952.093 33.7931
952.093 2533.82 3.42292
33.7931 3.42292 2945.47

-4660.48 1141.87 94.9166
1141.87 926.968 -78.7969
94.9166 -78.7969 2671.57

-5434.91 1394.54 384.578
1394.54 732.879 -15.1528
384.578 -15.1528 513.721

-7575.41 1128.11 611.384
1128.11 -1120.59 -191.515
611.384 -191.515 1431.9

-9160.47 682.791 404.405
682.791 -1573.19 -345.081
404.405 -345.081 -857.538

-9426.64 591.992 424.73
591.992 -3377.91 -452.469
424.73 -452.469 117.984

-7575.13 -1128.14 -611.41
-1128.14 -1120.15 -191.515
-611.41 -191.515 1432.39

-9160.64 -682.761 -404.404
-682.761 -1573.52 -345.076
-404.404 -345.076 -857.872

-9426.8 -591.966 -424.733
-591.966 -3378.22 -452.463
-424.733 -452.463 117.635

-5119.02 -952.078 -33.8014
-952.078 2533.8 3.42127
-33.8014 3.42127 2945.45

-4660.23 -1141.89 -94.9321
-1141.89 927.286 -78.795
-94.9321 -78.795 2671.93

-5434.68 -1394.56 -384.599
-1394.56 733.178 -15.1503
-384.599 -15.1503 514.033

-11287.9 -650.129 -394.157
-650.129 -9639.09 -291.482
-394.157 -291.482 -7327.02

-4980.03 -1245.71 -209.194
-1245.71 538.482 -38.6235
-209.194 -38.6235 2261.99

-5744.87 -1491.37 -481.869
-1491.37 334.576 28.3373
-481.869 28.3373 115.316

-5466.35 -1819.28 -836.337
-1819.28 -1056.79 330.738
-836.337 330.738 -3623.65

-14702.7 -775.107 -434.023
-775.107 -14393.7 198.209
-434.023 198.209 -14636.7

-14702.7 -775.107 -434.023
-775.107 -14393.7 198.209
-434.023 198.209 -14636.7

