# vtk DataFile Version 2.0
Unstructured Grid
ASCII
DATASET UNSTRUCTURED_GRID
POINTS 729 double
0.000000 0.000000 0.000000
0.000000 0.000000 0.050000
0.000000 0.000000 0.100000
0.000000 0.000000 0.150000
0.000000 0.000000 0.200000
0.000000 0.050000 0.000000
0.000000 0.050000 0.050000
0.000000 0.050000 0.100000
0.000000 0.050000 0.150000
0.000000 0.050000 0.200000
0.000000 0.100000 0.000000
0.000000 0.100000 0.050000
0.000000 0.100000 0.100000
0.000000 0.100000 0.150000
0.000000 0.100000 0.200000
0.000000 0.150000 0.000000
0.000000 0.150000 0.050000
0.000000 0.150000 0.100000
0.000000 0.150000 0.150000
0.000000 0.150000 0.200000
0.000000 0.200000 0.000000
0.000000 0.200000 0.050000
0.000000 0.200000 0.100000
0.000000 0.200000 0.150000
0.000000 0.200000 0.200000
0.035837 -0.012325 -0.012793
0.037539 -0.013672 0.043511
0.038866 -0.014158 0.100000
0.037539 -0.013672 0.156489
0.035837 -0.012325 0.212793
0.038143 0.043761 -0.013975
0.040940 0.043545 0.043245
0.041145 0.043096 0.100000
0.040940 0.043545 0.156755
0.038143 0.043761 0.213975
0.038155 0.100000 -0.014316
0.040812 0.100000 0.042888
0.041615 0.100000 0.100000
0.040812 0.100000 0.157112
0.038155 0.100000 0.214316
0.038143 0.156239 -0.013975
0.040940 0.156455 0.043245
0.041145 0.156904 0.100000
0.040940 0.156455 0.156755
0.038143 0.156239 0.213975
0.035837 0.212325 -0.012793
0.037539 0.213672 0.043511
0.038866 0.214158 0.100000
0.037539 0.213672 0.156489
0.035837 0.212325 0.212793
0.075000 -0.014721 -0.014706
0.075000 -0.015220 0.041872
0.075000 -0.016051 0.100000
0.075000 -0.015220 0.158128
0.075000 -0.014721 0.214706
0.075000 0.042046 -0.015916
0.075000 0.041885 0.041692
0.075000 0.041357 0.100000
0.075000 0.041885 0.158308
0.075000 0.042046 0.215916
0.075000 0.100000 -0.016588
0.075000 0.100000 0.041175
0.075000 0.100000 0.100000
0.075000 0.100000 0.158825
0.075000 0.100000 0.216588
0.075000 0.157954 -0.015916
0.075000 0.158115 0.041692
0.075000 0.158643 0.100000
0.075000 0.158115 0.158308
0.075000 0.157954 0.215916
0.075000 0.214721 -0.014706
0.075000 0.215220 0.041872
0.075000 0.216051 0.100000
0.075000 0.215220 0.158128
0.075000 0.214721 0.214706
0.114163 -0.012325 -0.012793
0.112461 -0.013672 0.043511
0.111134 -0.014158 0.100000
0.112461 -0.013672 0.156489
0.114163 -0.012325 0.212793
0.111857 0.043761 -0.013975
0.109060 0.043545 0.043245
0.108855 0.043096 0.100000
0.109060 0.043545 0.156755
0.111857 0.043761 0.213975
0.111845 0.100000 -0.014316
0.109188 0.100000 0.042888
0.108385 0.100000 0.100000
0.109188 0.100000 0.157112
0.111845 0.100000 0.214316
0.111857 0.156239 -0.013975
0.109060 0.156455 0.043245
0.108855 0.156904 0.100000
0.109060 0.156455 0.156755
0.111857 0.156239 0.213975
0.114163 0.212325 -0.012793
0.112461 0.213672 0.043511
0.111134 0.214158 0.100000
0.112461 0.213672 0.156489
0.114163 0.212325 0.212793
0.150000 0.000000 0.000000
0.150000 0.000000 0.050000
0.150000 0.000000 0.100000
0.150000 0.000000 0.150000
0.150000 0.000000 0.200000
0.150000 0.050000 0.000000
0.150000 0.050000 0.050000
0.150000 0.050000 0.100000
0.150000 0.050000 0.150000
0.150000 0.050000 0.200000
0.150000 0.100000 0.000000
0.150000 0.100000 0.050000
0.150000 0.100000 0.100000
0.150000 0.100000 0.150000
0.150000 0.100000 0.200000
0.150000 0.150000 0.000000
0.150000 0.150000 0.050000
0.150000 0.150000 0.100000
0.150000 0.150000 0.150000
0.150000 0.150000 0.200000
0.150000 0.200000 0.000000
0.150000 0.200000 0.050000
0.150000 0.200000 0.100000
0.150000 0.200000 0.150000
0.150000 0.200000 0.200000
0.000000 0.050000 0.025000
0.024588 0.019416 0.015468
0.023255 0.045728 0.015737
0.024630 0.018999 0.045137
0.023638 0.045075 0.045045
0.040819 0.015323 0.043665
0.000000 0.025000 0.025000
0.000000 0.025000 0.050000
0.024496 -0.013376 0.044869
0.000000 0.025000 0.000000
0.000000 0.000000 0.025000
0.023847 -0.012765 0.014684
0.017095 -0.009369 -0.017629
0.019588 0.019583 -0.014459
0.037887 -0.012841 0.014664
0.038618 0.016043 -0.013423
0.018956 0.045569 -0.013625
0.041227 0.016402 0.014563
0.040611 0.044166 0.013998
0.057956 0.013590 0.013683
0.055974 -0.014302 0.013432
0.057664 0.013201 -0.014651
0.055497 -0.014583 -0.014413
0.075000 0.012853 -0.014721
0.057296 0.042084 -0.015782
0.057865 0.042565 0.012443
0.058415 0.012653 0.042021
0.058523 0.042092 0.041441
0.075000 0.042376 0.012802
0.056232 -0.015215 0.041781
0.075000 0.012542 0.042217
0.075000 0.013296 0.013870
0.075000 -0.014499 0.013555
0.092044 0.013590 0.013683
0.092135 0.042565 0.012443
0.091585 0.012653 0.042021
0.091477 0.042092 0.041441
0.109181 0.015323 0.043665
0.093768 -0.015215 0.041781
0.094026 -0.014302 0.013432
0.094503 -0.014583 -0.014413
0.092336 0.013201 -0.014651
0.112113 -0.012841 0.014664
0.111382 0.016043 -0.013423
0.092704 0.042084 -0.015782
0.108773 0.016402 0.014563
0.109389 0.044166 0.013998
0.125412 0.019416 0.015468
0.126153 -0.012765 0.014684
0.130412 0.019583 -0.014459
0.132905 -0.009369 -0.017629
0.150000 0.025000 0.000000
0.131044 0.045569 -0.013625
0.126745 0.045728 0.015737
0.125370 0.018999 0.045137
0.126362 0.045075 0.045045
0.150000 0.050000 0.025000
0.125504 -0.013376 0.044869
0.150000 0.025000 0.050000
0.150000 0.025000 0.025000
0.150000 0.000000 0.025000
0.000000 0.075000 0.000000
0.019100 0.100000 -0.016678
0.024391 0.100000 0.013855
0.019178 0.071160 -0.015528
0.024418 0.072029 0.014766
0.041228 0.100000 0.012933
0.000000 0.075000 0.025000
0.000000 0.100000 0.025000
0.024714 0.100000 0.044837
0.000000 0.075000 0.050000
0.024592 0.071102 0.044701
0.041261 0.071763 0.042870
0.041100 0.071937 0.013073
0.038338 0.071526 -0.014875
0.057797 0.071584 0.011746
0.058551 0.071579 0.040996
0.057426 0.071248 -0.016388
0.057056 0.100000 -0.016303
0.057588 0.100000 0.011877
0.075000 0.071209 -0.016486
0.075000 0.100000 0.012060
0.057989 0.100000 0.041115
0.075000 0.071313 0.012012
0.075000 0.071349 0.041159
0.092944 0.100000 -0.016303
0.092412 0.100000 0.011877
0.092574 0.071248 -0.016388
0.092203 0.071584 0.011746
0.108772 0.100000 0.012933
0.092011 0.100000 0.041115
0.091449 0.071579 0.040996
0.108739 0.071763 0.042870
0.108900 0.071937 0.013073
0.111662 0.071526 -0.014875
0.125582 0.072029 0.014766
0.125408 0.071102 0.044701
0.130822 0.071160 -0.015528
0.130900 0.100000 -0.016678
0.125609 0.100000 0.013855
0.150000 0.075000 0.000000
0.150000 0.100000 0.025000
0.125286 0.100000 0.044837
0.150000 0.075000 0.025000
0.150000 0.075000 0.050000
0.000000 0.150000 0.025000
0.024418 0.127971 0.014766
0.023255 0.154272 0.015737
0.024592 0.128898 0.044701
0.023638 0.154925 0.045045
0.041261 0.128237 0.042870
0.000000 0.125000 0.025000
0.000000 0.125000 0.050000
0.000000 0.125000 0.000000
0.019178 0.128840 -0.015528
0.038338 0.128474 -0.014875
0.018956 0.154431 -0.013625
0.041100 0.128063 0.013073
0.040611 0.155834 0.013998
0.057797 0.128416 0.011746
0.057426 0.128752 -0.016388
0.075000 0.128791 -0.016486
0.057296 0.157916 -0.015782
0.057865 0.157435 0.012443
0.058551 0.128421 0.040996
0.058523 0.157908 0.041441
0.075000 0.157624 0.012802
0.075000 0.128651 0.041159
0.075000 0.128687 0.012012
0.092203 0.128416 0.011746
0.092135 0.157435 0.012443
0.091449 0.128421 0.040996
0.091477 0.157908 0.041441
0.108739 0.128237 0.042870
0.092574 0.128752 -0.016388
0.111662 0.128474 -0.014875
0.092704 0.157916 -0.015782
0.108900 0.128063 0.013073
0.109389 0.155834 0.013998
0.125582 0.127971 0.014766
0.130822 0.128840 -0.015528
0.150000 0.125000 0.000000
0.131044 0.154431 -0.013625
0.126745 0.154272 0.015737
0.125408 0.128898 0.044701
0.126362 0.154925 0.045045
0.150000 0.150000 0.025000
0.150000 0.125000 0.050000
0.150000 0.125000 0.025000
0.000000 0.175000 0.000000
0.017095 0.209369 -0.017629
0.023847 0.212765 0.014684
0.019588 0.180417 -0.014459
0.024588 0.180584 0.015468
0.037887 0.212841 0.014664
0.000000 0.175000 0.025000
0.000000 0.200000 0.025000
0.024496 0.213376 0.044869
0.000000 0.175000 0.050000
0.024630 0.181001 0.045137
0.040819 0.184677 0.043665
0.041227 0.183598 0.014563
0.038618 0.183957 -0.013423
0.057956 0.186410 0.013683
0.058415 0.187347 0.042021
0.057664 0.186799 -0.014651
0.055497 0.214583 -0.014413
0.055974 0.214302 0.013432
0.075000 0.187147 -0.014721
0.075000 0.214499 0.013555
0.056232 0.215215 0.041781
0.075000 0.186704 0.013870
0.075000 0.187458 0.042217
0.094503 0.214583 -0.014413
0.094026 0.214302 0.013432
0.092336 0.186799 -0.014651
0.092044 0.186410 0.013683
0.112113 0.212841 0.014664
0.093768 0.215215 0.041781
0.091585 0.187347 0.042021
0.109181 0.184677 0.043665
0.108773 0.183598 0.014563
0.111382 0.183957 -0.013423
0.125412 0.180584 0.015468
0.125370 0.181001 0.045137
0.130412 0.180417 -0.014459
0.132905 0.209369 -0.017629
0.126153 0.212765 0.014684
0.150000 0.175000 0.000000
0.150000 0.200000 0.025000
0.125504 0.213376 0.044869
0.150000 0.175000 0.025000
0.150000 0.175000 0.050000
0.000000 0.025000 0.100000
0.024746 0.018660 0.074694
0.024343 0.018006 0.100000
0.024101 -0.014393 0.073870
0.023168 -0.012757 0.100000
0.038218 -0.014552 0.071523
0.000000 0.025000 0.075000
0.000000 0.000000 0.075000
0.000000 0.050000 0.075000
0.023552 0.044823 0.074291
0.041452 0.043195 0.071917
0.022787 0.044676 0.100000
0.042063 0.014857 0.072112
0.041938 0.014573 0.100000
0.059329 0.041634 0.070404
0.059479 0.011916 0.070359
0.075000 0.041487 0.070587
0.059483 0.041521 0.100000
0.059643 0.011880 0.100000
0.057335 -0.015838 0.070243
0.057440 -0.015943 0.100000
0.075000 0.011531 0.100000
0.075000 -0.015994 0.070358
0.075000 0.011652 0.070587
0.090521 0.011916 0.070359
0.090357 0.011880 0.100000
0.092665 -0.015838 0.070243
0.092560 -0.015943 0.100000
0.111782 -0.014552 0.071523
0.090671 0.041634 0.070404
0.108548 0.043195 0.071917
0.090517 0.041521 0.100000
0.107937 0.014857 0.072112
0.108062 0.014573 0.100000
0.126448 0.044823 0.074291
0.125254 0.018660 0.074694
0.150000 0.050000 0.075000
0.127213 0.044676 0.100000
0.125657 0.018006 0.100000
0.125899 -0.014393 0.073870
0.126832 -0.012757 0.100000
0.150000 0.025000 0.100000
0.150000 0.000000 0.075000
0.150000 0.025000 0.075000
0.024520 0.070969 0.074499
0.000000 0.075000 0.075000
0.000000 0.075000 0.100000
0.000000 0.100000 0.075000
0.024596 0.100000 0.074508
0.024051 0.071057 0.100000
0.024148 0.100000 0.100000
0.041599 0.100000 0.071643
0.041802 0.071389 0.100000
0.041994 0.071522 0.071883
0.059469 0.071387 0.070230
0.059023 0.100000 0.070129
0.059539 0.071138 0.100000
0.059155 0.100000 0.100000
0.075000 0.070923 0.100000
0.075000 0.071297 0.070322
0.075000 0.100000 0.070279
0.090531 0.071387 0.070230
0.090977 0.100000 0.070129
0.090461 0.071138 0.100000
0.090845 0.100000 0.100000
0.108401 0.100000 0.071643
0.108198 0.071389 0.100000
0.108006 0.071522 0.071883
0.125480 0.070969 0.074499
0.125404 0.100000 0.074508
0.125949 0.071057 0.100000
0.125852 0.100000 0.100000
0.150000 0.075000 0.100000
0.150000 0.075000 0.075000
0.150000 0.100000 0.075000
0.000000 0.125000 0.100000
0.024520 0.129031 0.074499
0.024051 0.128943 0.100000
0.000000 0.125000 0.075000
0.000000 0.150000 0.075000
0.023552 0.155177 0.074291
0.041452 0.156805 0.071917
0.022787 0.155324 0.100000
0.041994 0.128478 0.071883
0.041802 0.128611 0.100000
0.059329 0.158366 0.070404
0.059469 0.128613 0.070230
0.075000 0.158513 0.070587
0.059483 0.158479 0.100000
0.059539 0.128862 0.100000
0.075000 0.129077 0.100000
0.075000 0.128703 0.070322
0.090531 0.128613 0.070230
0.090461 0.128862 0.100000
0.090671 0.158366 0.070404
0.108548 0.156805 0.071917
0.090517 0.158479 0.100000
0.108006 0.128478 0.071883
0.108198 0.128611 0.100000
0.126448 0.155177 0.074291
0.125480 0.129031 0.074499
0.150000 0.150000 0.075000
0.127213 0.155324 0.100000
0.125949 0.128943 0.100000
0.150000 0.125000 0.100000
0.150000 0.125000 0.075000
0.024746 0.181340 0.074694
0.000000 0.175000 0.075000
0.000000 0.175000 0.100000
0.000000 0.200000 0.075000
0.024101 0.214393 0.073870
0.024343 0.181994 0.100000
0.023168 0.212757 0.100000
0.038218 0.214552 0.071523
0.041938 0.185427 0.100000
0.042063 0.185143 0.072112
0.059479 0.188084 0.070359
0.057335 0.215838 0.070243
0.059643 0.188120 0.100000
0.057440 0.215943 0.100000
0.075000 0.188469 0.100000
0.075000 0.188348 0.070587
0.075000 0.215994 0.070358
0.090521 0.188084 0.070359
0.092665 0.215838 0.070243
0.090357 0.188120 0.100000
0.092560 0.215943 0.100000
0.111782 0.214552 0.071523
0.108062 0.185427 0.100000
0.107937 0.185143 0.072112
0.125254 0.181340 0.074694
0.125899 0.214393 0.073870
0.125657 0.181994 0.100000
0.126832 0.212757 0.100000
0.150000 0.175000 0.100000
0.150000 0.175000 0.075000
0.150000 0.200000 0.075000
0.000000 0.050000 0.125000
0.024746 0.018660 0.125306
0.023552 0.044823 0.125709
0.024630 0.018999 0.154863
0.023638 0.045075 0.154955
0.040819 0.015323 0.156335
0.000000 0.025000 0.125000
0.000000 0.025000 0.150000
0.024496 -0.013376 0.155131
0.000000 0.000000 0.125000
0.024101 -0.014393 0.126130
0.038218 -0.014552 0.128477
0.042063 0.014857 0.127888
0.041452 0.043195 0.128083
0.059479 0.011916 0.129641
0.057335 -0.015838 0.129757
0.059329 0.041634 0.129596
0.058415 0.012653 0.157979
0.058523 0.042092 0.158559
0.075000 0.041487 0.129413
0.056232 -0.015215 0.158219
0.075000 0.012542 0.157783
0.075000 0.011652 0.129413
0.075000 -0.015994 0.129642
0.090521 0.011916 0.129641
0.090671 0.041634 0.129596
0.091585 0.012653 0.157979
0.091477 0.042092 0.158559
0.109181 0.015323 0.156335
0.093768 -0.015215 0.158219
0.092665 -0.015838 0.129757
0.111782 -0.014552 0.128477
0.107937 0.014857 0.127888
0.108548 0.043195 0.128083
0.125254 0.018660 0.125306
0.125899 -0.014393 0.126130
0.126448 0.044823 0.125709
0.125370 0.018999 0.154863
0.126362 0.045075 0.154955
0.150000 0.050000 0.125000
0.125504 -0.013376 0.155131
0.150000 0.025000 0.150000
0.150000 0.025000 0.125000
0.150000 0.000000 0.125000
0.024596 0.100000 0.125492
0.024520 0.070969 0.125501
0.041599 0.100000 0.128357
0.000000 0.075000 0.125000
0.000000 0.100000 0.125000
0.024714 0.100000 0.155163
0.000000 0.075000 0.150000
0.024592 0.071102 0.155299
0.041261 0.071763 0.157130
0.041994 0.071522 0.128117
0.059469 0.071387 0.129770
0.058551 0.071579 0.159004
0.059023 0.100000 0.129871
0.075000 0.100000 0.129721
0.057989 0.100000 0.158885
0.075000 0.071297 0.129678
0.075000 0.071349 0.158841
0.090977 0.100000 0.129871
0.090531 0.071387 0.129770
0.108401 0.100000 0.128357
0.092011 0.100000 0.158885
0.091449 0.071579 0.159004
0.108739 0.071763 0.157130
0.108006 0.071522 0.128117
0.125480 0.070969 0.125501
0.125408 0.071102 0.155299
0.125404 0.100000 0.125492
0.150000 0.100000 0.125000
0.125286 0.100000 0.155163
0.150000 0.075000 0.125000
0.150000 0.075000 0.150000
0.000000 0.150000 0.125000
0.024520 0.129031 0.125501
0.023552 0.155177 0.125709
0.024592 0.128898 0.155299
0.023638 0.154925 0.154955
0.041261 0.128237 0.157130
0.000000 0.125000 0.125000
0.000000 0.125000 0.150000
0.041994 0.128478 0.128117
0.041452 0.156805 0.128083
0.059469 0.128613 0.129770
0.059329 0.158366 0.129596
0.058551 0.128421 0.159004
0.058523 0.157908 0.158559
0.075000 0.158513 0.129413
0.075000 0.128651 0.158841
0.075000 0.128703 0.129678
0.090531 0.128613 0.129770
0.090671 0.158366 0.129596
0.091449 0.128421 0.159004
0.091477 0.157908 0.158559
0.108739 0.128237 0.157130
0.108006 0.128478 0.128117
0.108548 0.156805 0.128083
0.125480 0.129031 0.125501
0.126448 0.155177 0.125709
0.125408 0.128898 0.155299
0.126362 0.154925 0.154955
0.150000 0.150000 0.125000
0.150000 0.125000 0.150000
0.150000 0.125000 0.125000
0.024101 0.214393 0.126130
0.024746 0.181340 0.125306
0.038218 0.214552 0.128477
0.000000 0.175000 0.125000
0.000000 0.200000 0.125000
0.024496 0.213376 0.155131
0.000000 0.175000 0.150000
0.024630 0.181001 0.154863
0.040819 0.184677 0.156335
0.042063 0.185143 0.127888
0.059479 0.188084 0.129641
0.058415 0.187347 0.157979
0.057335 0.215838 0.129757
0.075000 0.215994 0.129642
0.056232 0.215215 0.158219
0.075000 0.188348 0.129413
0.075000 0.187458 0.157783
0.092665 0.215838 0.129757
0.090521 0.188084 0.129641
0.111782 0.214552 0.128477
0.093768 0.215215 0.158219
0.091585 0.187347 0.157979
0.109181 0.184677 0.156335
0.107937 0.185143 0.127888
0.125254 0.181340 0.125306
0.125370 0.181001 0.154863
0.125899 0.214393 0.126130
0.150000 0.200000 0.125000
0.125504 0.213376 0.155131
0.150000 0.175000 0.125000
0.150000 0.175000 0.150000
0.000000 0.025000 0.200000
0.024588 0.019416 0.184532
0.019588 0.019583 0.214459
0.023847 -0.012765 0.185316
0.017095 -0.009369 0.217629
0.037887 -0.012841 0.185336
0.000000 0.025000 0.175000
0.000000 0.000000 0.175000
0.000000 0.050000 0.175000
0.023255 0.045728 0.184263
0.040611 0.044166 0.186002
0.018956 0.045569 0.213625
0.041227 0.016402 0.185437
0.038618 0.016043 0.213423
0.057865 0.042565 0.187557
0.057956 0.013590 0.186317
0.075000 0.042376 0.187198
0.057296 0.042084 0.215782
0.057664 0.013201 0.214651
0.055974 -0.014302 0.186568
0.055497 -0.014583 0.214413
0.075000 0.012853 0.214721
0.075000 -0.014499 0.186445
0.075000 0.013296 0.186130
0.092044 0.013590 0.186317
0.092336 0.013201 0.214651
0.094026 -0.014302 0.186568
0.094503 -0.014583 0.214413
0.112113 -0.012841 0.185336
0.092135 0.042565 0.187557
0.109389 0.044166 0.186002
0.092704 0.042084 0.215782
0.108773 0.016402 0.185437
0.111382 0.016043 0.213423
0.126745 0.045728 0.184263
0.125412 0.019416 0.184532
0.150000 0.050000 0.175000
0.131044 0.045569 0.213625
0.130412 0.019583 0.214459
0.126153 -0.012765 0.185316
0.132905 -0.009369 0.217629
0.150000 0.025000 0.200000
0.150000 0.000000 0.175000
0.150000 0.025000 0.175000
0.024418 0.072029 0.185234
0.000000 0.075000 0.175000
0.000000 0.075000 0.200000
0.000000 0.100000 0.175000
0.024391 0.100000 0.186145
0.019178 0.071160 0.215528
0.019100 0.100000 0.216678
0.041228 0.100000 0.187067
0.038338 0.071526 0.214875
0.041100 0.071937 0.186927
0.057797 0.071584 0.188254
0.057588 0.100000 0.188123
0.057426 0.071248 0.216388
0.057056 0.100000 0.216303
0.075000 0.071209 0.216486
0.075000 0.071313 0.187988
0.075000 0.100000 0.187940
0.092203 0.071584 0.188254
0.092412 0.100000 0.188123
0.092574 0.071248 0.216388
0.092944 0.100000 0.216303
0.108772 0.100000 0.187067
0.111662 0.071526 0.214875
0.108900 0.071937 0.186927
0.125582 0.072029 0.185234
0.125609 0.100000 0.186145
0.130822 0.071160 0.215528
0.130900 0.100000 0.216678
0.150000 0.075000 0.200000
0.150000 0.075000 0.175000
0.150000 0.100000 0.175000
0.000000 0.125000 0.200000
0.024418 0.127971 0.185234
0.019178 0.128840 0.215528
0.000000 0.125000 0.175000
0.000000 0.150000 0.175000
0.023255 0.154272 0.184263
0.040611 0.155834 0.186002
0.018956 0.154431 0.213625
0.041100 0.128063 0.186927
0.038338 0.128474 0.214875
0.057865 0.157435 0.187557
0.057797 0.128416 0.188254
0.075000 0.157624 0.187198
0.057296 0.157916 0.215782
0.057426 0.128752 0.216388
0.075000 0.128791 0.216486
0.075000 0.128687 0.187988
0.092203 0.128416 0.188254
0.092574 0.128752 0.216388
0.092135 0.157435 0.187557
0.109389 0.155834 0.186002
0.092704 0.157916 0.215782
0.108900 0.128063 0.186927
0.111662 0.128474 0.214875
0.126745 0.154272 0.184263
0.125582 0.127971 0.185234
0.150000 0.150000 0.175000
0.131044 0.154431 0.213625
0.130822 0.128840 0.215528
0.150000 0.125000 0.200000
0.150000 0.125000 0.175000
0.024588 0.180584 0.184532
0.000000 0.175000 0.175000
0.000000 0.175000 0.200000
0.000000 0.200000 0.175000
0.023847 0.212765 0.185316
0.019588 0.180417 0.214459
0.017095 0.209369 0.217629
0.037887 0.212841 0.185336
0.038618 0.183957 0.213423
0.041227 0.183598 0.185437
0.057956 0.186410 0.186317
0.055974 0.214302 0.186568
0.057664 0.186799 0.214651
0.055497 0.214583 0.214413
0.075000 0.187147 0.214721
0.075000 0.186704 0.186130
0.075000 0.214499 0.186445
0.092044 0.186410 0.186317
0.094026 0.214302 0.186568
0.092336 0.186799 0.214651
0.094503 0.214583 0.214413
0.112113 0.212841 0.185336
0.111382 0.183957 0.213423
0.108773 0.183598 0.185437
0.125412 0.180584 0.184532
0.126153 0.212765 0.185316
0.130412 0.180417 0.214459
0.132905 0.209369 0.217629
0.150000 0.175000 0.200000
0.150000 0.175000 0.175000
0.150000 0.200000 0.175000

CELLS 384 4224
10 5 6 26 31 125 128 126 127 129 130 
10 5 6 1 26 125 132 131 126 128 133 
10 0 5 1 26 134 131 135 136 126 133 
10 0 5 26 25 134 126 136 137 138 139 
10 25 5 26 30 138 126 139 140 141 142 
10 30 5 26 31 141 126 142 143 127 130 
10 26 25 55 50 139 146 144 145 147 148 
10 26 25 30 55 139 140 142 144 146 149 
10 31 26 30 55 130 142 143 150 144 149 
10 26 31 56 55 130 152 151 144 150 153 
10 26 56 51 55 151 155 154 144 153 156 
10 26 51 50 55 154 157 145 144 156 148 
10 55 56 76 81 153 160 158 159 161 162 
10 55 56 51 76 153 155 156 158 160 163 
10 50 55 51 76 148 156 157 164 158 163 
10 50 55 76 75 148 158 164 165 166 167 
10 75 55 76 80 166 158 167 168 169 170 
10 80 55 76 81 169 158 170 171 159 162 
10 76 75 105 100 167 174 172 173 175 176 
10 76 75 80 105 167 168 170 172 174 177 
10 81 76 80 105 162 170 171 178 172 177 
10 76 81 106 105 162 180 179 172 178 181 
10 76 106 101 105 179 183 182 172 181 184 
10 76 101 100 105 182 185 173 172 184 176 
10 10 5 35 36 186 189 187 188 190 191 
10 5 10 11 36 186 193 192 190 188 194 
10 6 5 11 36 125 192 195 196 190 194 
10 5 6 31 36 125 129 127 190 196 197 
10 5 31 30 36 127 143 141 190 197 198 
10 5 30 35 36 141 199 189 190 198 191 
10 36 31 55 56 197 150 200 201 152 153 
10 36 31 30 55 197 143 198 200 150 149 
10 35 36 30 55 191 198 199 202 200 149 
10 35 36 55 60 191 200 202 203 204 205 
10 60 36 55 61 204 200 205 206 207 208 
10 61 36 55 56 207 200 208 209 201 153 
10 60 55 85 86 205 212 210 211 213 214 
10 55 60 61 86 205 206 208 213 211 215 
10 56 55 61 86 153 208 209 216 213 215 
10 55 56 81 86 153 161 159 213 216 217 
10 55 81 80 86 159 171 169 213 217 218 
10 55 80 85 86 169 219 212 213 218 214 
10 86 81 105 106 217 178 220 221 180 181 
10 86 81 80 105 217 171 218 220 178 177 
10 85 86 80 105 214 218 219 222 220 177 
10 85 86 105 110 214 220 222 223 224 225 
10 110 86 105 111 224 220 225 226 227 228 
10 111 86 105 106 227 220 228 229 221 181 
10 15 16 36 41 230 233 231 232 234 235 
10 15 16 11 36 230 237 236 231 233 194 
10 10 15 11 36 238 236 193 188 231 194 
10 10 15 36 35 238 231 188 187 239 191 
10 35 15 36 40 239 231 191 240 241 242 
10 40 15 36 41 241 231 242 243 232 235 
10 36 35 65 60 191 245 244 204 203 246 
10 36 35 40 65 191 240 242 244 245 247 
10 41 36 40 65 235 242 243 248 244 247 
10 36 41 66 65 235 250 249 244 248 251 
10 36 66 61 65 249 252 207 244 251 253 
10 36 61 60 65 207 206 204 244 253 246 
10 65 66 86 91 251 256 254 255 257 258 
10 65 66 61 86 251 252 253 254 256 215 
10 60 65 61 86 246 253 206 211 254 215 
10 60 65 86 85 246 254 211 210 259 214 
10 85 65 86 90 259 254 214 260 261 262 
10 90 65 86 91 261 254 262 263 255 258 
10 86 85 115 110 214 265 264 224 223 266 
10 86 85 90 115 214 260 262 264 265 267 
10 91 86 90 115 258 262 263 268 264 267 
10 86 91 116 115 258 270 269 264 268 271 
10 86 116 111 115 269 272 227 264 271 273 
10 86 111 110 115 227 226 224 264 273 266 
10 20 15 45 46 274 277 275 276 278 279 
10 15 20 21 46 274 281 280 278 276 282 
10 16 15 21 46 230 280 283 284 278 282 
10 15 16 41 46 230 234 232 278 284 285 
10 15 41 40 46 232 243 241 278 285 286 
10 15 40 45 46 241 287 277 278 286 279 
10 46 41 65 66 285 248 288 289 250 251 
10 46 41 40 65 285 243 286 288 248 247 
10 45 46 40 65 279 286 287 290 288 247 
10 45 46 65 70 279 288 290 291 292 293 
10 70 46 65 71 292 288 293 294 295 296 
10 71 46 65 66 295 288 296 297 289 251 
10 70 65 95 96 293 300 298 299 301 302 
10 65 70 71 96 293 294 296 301 299 303 
10 66 65 71 96 251 296 297 304 301 303 
10 65 66 91 96 251 257 255 301 304 305 
10 65 91 90 96 255 263 261 301 305 306 
10 65 90 95 96 261 307 300 301 306 302 
10 96 91 115 116 305 268 308 309 270 271 
10 96 91 90 115 305 263 306 308 268 267 
10 95 96 90 115 302 306 307 310 308 267 
10 95 96 115 120 302 308 310 311 312 313 
10 120 96 115 121 312 308 313 314 315 316 
10 121 96 115 116 315 308 316 317 309 271 
10 7 2 26 27 318 321 319 320 322 323 
10 7 2 1 26 318 325 324 319 321 133 
10 6 7 1 26 326 324 132 128 319 133 
10 6 7 26 31 326 319 128 129 327 130 
10 31 7 26 32 327 319 130 328 329 330 
10 32 7 26 27 329 319 330 331 320 323 
10 31 26 56 57 130 151 152 332 333 334 
10 26 31 32 57 130 328 330 333 332 335 
10 27 26 32 57 323 330 331 336 333 335 
10 26 27 52 57 323 338 337 333 336 339 
10 26 52 51 57 337 340 154 333 339 341 
10 26 51 56 57 154 155 151 333 341 334 
10 57 52 76 77 339 344 342 343 345 346 
10 57 52 51 76 339 340 341 342 344 163 
10 56 57 51 76 334 341 155 160 342 163 
10 56 57 76 81 334 342 160 161 347 162 
10 81 57 76 82 347 342 162 348 349 350 
10 82 57 76 77 349 342 350 351 343 346 
10 81 76 106 107 162 179 180 352 353 354 
10 76 81 82 107 162 348 350 353 352 355 
10 77 76 82 107 346 350 351 356 353 355 
10 76 77 102 107 346 358 357 353 356 359 
10 76 102 101 107 357 360 182 353 359 361 
10 76 101 106 107 182 183 179 353 361 354 
10 7 6 36 31 326 196 362 327 129 197 
10 7 6 11 36 326 195 363 362 196 194 
10 12 7 11 36 364 363 365 366 362 194 
10 7 12 37 36 364 368 367 362 366 369 
10 7 37 32 36 367 370 329 362 369 371 
10 7 32 31 36 329 328 327 362 371 197 
10 36 37 57 62 369 374 372 373 375 376 
10 36 37 32 57 369 370 371 372 374 335 
10 31 36 32 57 197 371 328 332 372 335 
10 31 36 57 56 197 372 332 152 201 334 
10 56 36 57 61 201 372 334 209 207 377 
10 61 36 57 62 207 372 377 378 373 376 
10 57 56 86 81 334 216 379 347 161 217 
10 57 56 61 86 334 209 377 379 216 215 
10 62 57 61 86 376 377 378 380 379 215 
10 57 62 87 86 376 382 381 379 380 383 
10 57 87 82 86 381 384 349 379 383 385 
10 57 82 81 86 349 348 347 379 385 217 
10 86 87 107 112 383 388 386 387 389 390 
10 86 87 82 107 383 384 385 386 388 355 
10 81 86 82 107 217 385 348 352 386 355 
10 81 86 107 106 217 386 352 180 221 354 
10 106 86 107 111 221 386 354 229 227 391 
10 111 86 107 112 227 386 391 392 387 390 
10 17 12 36 37 393 366 394 395 368 369 
10 17 12 11 36 393 365 396 394 366 194 
10 16 17 11 36 397 396 237 233 394 194 
10 16 17 36 41 397 394 233 234 398 235 
10 41 17 36 42 398 394 235 399 400 401 
10 42 17 36 37 400 394 401 402 395 369 
10 41 36 66 67 235 249 250 403 404 405 
10 36 41 42 67 235 399 401 404 403 406 
10 37 36 42 67 369 401 402 407 404 406 
10 36 37 62 67 369 375 373 404 407 408 
10 36 62 61 67 373 378 207 404 408 409 
10 36 61 66 67 207 252 249 404 409 405 
10 67 62 86 87 408 380 410 411 382 383 
10 67 62 61 86 408 378 409 410 380 215 
10 66 67 61 86 405 409 252 256 410 215 
10 66 67 86 91 405 410 256 257 412 258 
10 91 67 86 92 412 410 258 413 414 415 
10 92 67 86 87 414 410 415 416 411 383 
10 91 86 116 117 258 269 270 417 418 419 
10 86 91 92 117 258 413 415 418 417 420 
10 87 86 92 117 383 415 416 421 418 420 
10 86 87 112 117 383 389 387 418 421 422 
10 86 112 111 117 387 392 227 418 422 423 
10 86 111 116 117 227 272 269 418 423 419 
10 17 16 46 41 397 284 424 398 234 285 
10 17 16 21 46 397 283 425 424 284 282 
10 22 17 21 46 426 425 427 428 424 282 
10 17 22 47 46 426 430 429 424 428 431 
10 17 47 42 46 429 432 400 424 431 433 
10 17 42 41 46 400 399 398 424 433 285 
10 46 47 67 72 431 436 434 435 437 438 
10 46 47 42 67 431 432 433 434 436 406 
10 41 46 42 67 285 433 399 403 434 406 
10 41 46 67 66 285 434 403 250 289 405 
10 66 46 67 71 289 434 405 297 295 439 
10 71 46 67 72 295 434 439 440 435 438 
10 67 66 96 91 405 304 441 412 257 305 
10 67 66 71 96 405 297 439 441 304 303 
10 72 67 71 96 438 439 440 442 441 303 
10 67 72 97 96 438 444 443 441 442 445 
10 67 97 92 96 443 446 414 441 445 447 
10 67 92 91 96 414 413 412 441 447 305 
10 96 97 117 122 445 450 448 449 451 452 
10 96 97 92 117 445 446 447 448 450 420 
10 91 96 92 117 305 447 413 417 448 420 
10 91 96 117 116 305 448 417 270 309 419 
10 116 96 117 121 309 448 419 317 315 453 
10 121 96 117 122 315 448 453 454 449 452 
10 7 8 28 33 455 458 456 457 459 460 
10 7 8 3 28 455 462 461 456 458 463 
10 2 7 3 28 318 461 464 465 456 463 
10 2 7 28 27 318 456 465 322 320 466 
10 27 7 28 32 320 456 466 331 329 467 
10 32 7 28 33 329 456 467 468 457 460 
10 28 27 57 52 466 336 469 470 338 339 
10 28 27 32 57 466 331 467 469 336 335 
10 33 28 32 57 460 467 468 471 469 335 
10 28 33 58 57 460 473 472 469 471 474 
10 28 58 53 57 472 476 475 469 474 477 
10 28 53 52 57 475 478 470 469 477 339 
10 57 58 78 83 474 481 479 480 482 483 
10 57 58 53 78 474 476 477 479 481 484 
10 52 57 53 78 339 477 478 485 479 484 
10 52 57 78 77 339 479 485 345 343 486 
10 77 57 78 82 343 479 486 351 349 487 
10 82 57 78 83 349 479 487 488 480 483 
10 78 77 107 102 486 356 489 490 358 359 
10 78 77 82 107 486 351 487 489 356 355 
10 83 78 82 107 483 487 488 491 489 355 
10 78 83 108 107 483 493 492 489 491 494 
10 78 108 103 107 492 496 495 489 494 497 
10 78 103 102 107 495 498 490 489 497 359 
10 12 7 37 38 364 367 368 499 500 501 
10 7 12 13 38 364 503 502 500 499 504 
10 8 7 13 38 455 502 505 506 500 504 
10 7 8 33 38 455 459 457 500 506 507 
10 7 33 32 38 457 468 329 500 507 508 
10 7 32 37 38 329 370 367 500 508 501 
10 38 33 57 58 507 471 509 510 473 474 
10 38 33 32 57 507 468 508 509 471 335 
10 37 38 32 57 501 508 370 374 509 335 
10 37 38 57 62 501 509 374 375 511 376 
10 62 38 57 63 511 509 376 512 513 514 
10 63 38 57 58 513 509 514 515 510 474 
10 62 57 87 88 376 381 382 516 517 518 
10 57 62 63 88 376 512 514 517 516 519 
10 58 57 63 88 474 514 515 520 517 519 
10 57 58 83 88 474 482 480 517 520 521 
10 57 83 82 88 480 488 349 517 521 522 
10 57 82 87 88 349 384 381 517 522 518 
10 88 83 107 108 521 491 523 524 493 494 
10 88 83 82 107 521 488 522 523 491 355 
10 87 88 82 107 518 522 384 388 523 355 
10 87 88 107 112 518 523 388 389 525 390 
10 112 88 107 113 525 523 390 526 527 528 
10 113 88 107 108 527 523 528 529 524 494 
10 17 18 38 43 530 533 531 532 534 535 
10 17 18 13 38 530 537 536 531 533 504 
10 12 17 13 38 393 536 503 499 531 504 
10 12 17 38 37 393 531 499 368 395 501 
10 37 17 38 42 395 531 501 402 400 538 
10 42 17 38 43 400 531 538 539 532 535 
10 38 37 67 62 501 407 540 511 375 408 
10 38 37 42 67 501 402 538 540 407 406 
10 43 38 42 67 535 538 539 541 540 406 
10 38 43 68 67 535 543 542 540 541 544 
10 38 68 63 67 542 545 513 540 544 546 
10 38 63 62 67 513 512 511 540 546 408 
10 67 68 88 93 544 549 547 548 550 551 
10 67 68 63 88 544 545 546 547 549 519 
10 62 67 63 88 408 546 512 516 547 519 
10 62 67 88 87 408 547 516 382 411 518 
10 87 67 88 92 411 547 518 416 414 552 
10 92 67 88 93 414 547 552 553 548 551 
10 88 87 117 112 518 421 554 525 389 422 
10 88 87 92 117 518 416 552 554 421 420 
10 93 88 92 117 551 552 553 555 554 420 
10 88 93 118 117 551 557 556 554 555 558 
10 88 118 113 117 556 559 527 554 558 560 
10 88 113 112 117 527 526 525 554 560 422 
10 22 17 47 48 426 429 430 561 562 563 
10 17 22 23 48 426 565 564 562 561 566 
10 18 17 23 48 530 564 567 568 562 566 
10 17 18 43 48 530 534 532 562 568 569 
10 17 43 42 48 532 539 400 562 569 570 
10 17 42 47 48 400 432 429 562 570 563 
10 48 43 67 68 569 541 571 572 543 544 
10 48 43 42 67 569 539 570 571 541 406 
10 47 48 42 67 563 570 432 436 571 406 
10 47 48 67 72 563 571 436 437 573 438 
10 72 48 67 73 573 571 438 574 575 576 
10 73 48 67 68 575 571 576 577 572 544 
10 72 67 97 98 438 443 444 578 579 580 
10 67 72 73 98 438 574 576 579 578 581 
10 68 67 73 98 544 576 577 582 579 581 
10 67 68 93 98 544 550 548 579 582 583 
10 67 93 92 98 548 553 414 579 583 584 
10 67 92 97 98 414 446 443 579 584 580 
10 98 93 117 118 583 555 585 586 557 558 
10 98 93 92 117 583 553 584 585 555 420 
10 97 98 92 117 580 584 446 450 585 420 
10 97 98 117 122 580 585 450 451 587 452 
10 122 98 117 123 587 585 452 588 589 590 
10 123 98 117 118 589 585 590 591 586 558 
10 9 4 28 29 592 595 593 594 596 597 
10 9 4 3 28 592 599 598 593 595 463 
10 8 9 3 28 600 598 462 458 593 463 
10 8 9 28 33 600 593 458 459 601 460 
10 33 9 28 34 601 593 460 602 603 604 
10 34 9 28 29 603 593 604 605 594 597 
10 33 28 58 59 460 472 473 606 607 608 
10 28 33 34 59 460 602 604 607 606 609 
10 29 28 34 59 597 604 605 610 607 609 
10 28 29 54 59 597 612 611 607 610 613 
10 28 54 53 59 611 614 475 607 613 615 
10 28 53 58 59 475 476 472 607 615 608 
10 59 54 78 79 613 618 616 617 619 620 
10 59 54 53 78 613 614 615 616 618 484 
10 58 59 53 78 608 615 476 481 616 484 
10 58 59 78 83 608 616 481 482 621 483 
10 83 59 78 84 621 616 483 622 623 624 
10 84 59 78 79 623 616 624 625 617 620 
10 83 78 108 109 483 492 493 626 627 628 
10 78 83 84 109 483 622 624 627 626 629 
10 79 78 84 109 620 624 625 630 627 629 
10 78 79 104 109 620 632 631 627 630 633 
10 78 104 103 109 631 634 495 627 633 635 
10 78 103 108 109 495 496 492 627 635 628 
10 9 8 38 33 600 506 636 601 459 507 
10 9 8 13 38 600 505 637 636 506 504 
10 14 9 13 38 638 637 639 640 636 504 
10 9 14 39 38 638 642 641 636 640 643 
10 9 39 34 38 641 644 603 636 643 645 
10 9 34 33 38 603 602 601 636 645 507 
10 38 39 59 64 643 648 646 647 649 650 
10 38 39 34 59 643 644 645 646 648 609 
10 33 38 34 59 507 645 602 606 646 609 
10 33 38 59 58 507 646 606 473 510 608 
10 58 38 59 63 510 646 608 515 513 651 
10 63 38 59 64 513 646 651 652 647 650 
10 59 58 88 83 608 520 653 621 482 521 
10 59 58 63 88 608 515 651 653 520 519 
10 64 59 63 88 650 651 652 654 653 519 
10 59 64 89 88 650 656 655 653 654 657 
10 59 89 84 88 655 658 623 653 657 659 
10 59 84 83 88 623 622 621 653 659 521 
10 88 89 109 114 657 662 660 661 663 664 
10 88 89 84 109 657 658 659 660 662 629 
10 83 88 84 109 521 659 622 626 660 629 
10 83 88 109 108 521 660 626 493 524 628 
10 108 88 109 113 524 660 628 529 527 665 
10 113 88 109 114 527 660 665 666 661 664 
10 19 14 38 39 667 640 668 669 642 643 
10 19 14 13 38 667 639 670 668 640 504 
10 18 19 13 38 671 670 537 533 668 504 
10 18 19 38 43 671 668 533 534 672 535 
10 43 19 38 44 672 668 535 673 674 675 
10 44 19 38 39 674 668 675 676 669 643 
10 43 38 68 69 535 542 543 677 678 679 
10 38 43 44 69 535 673 675 678 677 680 
10 39 38 44 69 643 675 676 681 678 680 
10 38 39 64 69 643 649 647 678 681 682 
10 38 64 63 69 647 652 513 678 682 683 
10 38 63 68 69 513 545 542 678 683 679 
10 69 64 88 89 682 654 684 685 656 657 
10 69 64 63 88 682 652 683 684 654 519 
10 68 69 63 88 679 683 545 549 684 519 
10 68 69 88 93 679 684 549 550 686 551 
10 93 69 88 94 686 684 551 687 688 689 
10 94 69 88 89 688 684 689 690 685 657 
10 93 88 118 119 551 556 557 691 692 693 
10 88 93 94 119 551 687 689 692 691 694 
10 89 88 94 119 657 689 690 695 692 694 
10 88 89 114 119 657 663 661 692 695 696 
10 88 114 113 119 661 666 527 692 696 697 
10 88 113 118 119 527 559 556 692 697 693 
10 19 18 48 43 671 568 698 672 534 569 
10 19 18 23 48 671 567 699 698 568 566 
10 24 19 23 48 700 699 701 702 698 566 
10 19 24 49 48 700 704 703 698 702 705 
10 19 49 44 48 703 706 674 698 705 707 
10 19 44 43 48 674 673 672 698 707 569 
10 48 49 69 74 705 710 708 709 711 712 
10 48 49 44 69 705 706 707 708 710 680 
10 43 48 44 69 569 707 673 677 708 680 
10 43 48 69 68 569 708 677 543 572 679 
10 68 48 69 73 572 708 679 577 575 713 
10 73 48 69 74 575 708 713 714 709 712 
10 69 68 98 93 679 582 715 686 550 583 
10 69 68 73 98 679 577 713 715 582 581 
10 74 69 73 98 712 713 714 716 715 581 
10 69 74 99 98 712 718 717 715 716 719 
10 69 99 94 98 717 720 688 715 719 721 
10 69 94 93 98 688 687 686 715 721 583 
10 98 99 119 124 719 724 722 723 725 726 
10 98 99 94 119 719 720 721 722 724 694 
10 93 98 94 119 583 721 687 691 722 694 
10 93 98 119 118 583 722 691 557 586 693 
10 118 98 119 123 586 722 693 591 589 727 
10 123 98 119 124 589 722 727 728 723 726 

CELL_TYPES 384
78
78
78
78
78
78
78
78
78
78
78
78
78
78
78
78
78
78
78
78
78
78
78
78
78
78
78
78
78
78
78
78
78
78
78
78
78
78
78
78
78
78
78
78
78
78
78
78
78
78
78
78
78
78
78
78
78
78
78
78
78
78
78
78
78
78
78
78
78
78
78
78
78
78
78
78
78
78
78
78
78
78
78
78
78
78
78
78
78
78
78
78
78
78
78
78
78
78
78
78
78
78
78
78
78
78
78
78
78
78
78
78
78
78
78
78
78
78
78
78
78
78
78
78
78
78
78
78
78
78
78
78
78
78
78
78
78
78
78
78
78
78
78
78
78
78
78
78
78
78
78
78
78
78
78
78
78
78
78
78
78
78
78
78
78
78
78
78
78
78
78
78
78
78
78
78
78
78
78
78
78
78
78
78
78
78
78
78
78
78
78
78
78
78
78
78
78
78
78
78
78
78
78
78
78
78
78
78
78
78
78
78
78
78
78
78
78
78
78
78
78
78
78
78
78
78
78
78
78
78
78
78
78
78
78
78
78
78
78
78
78
78
78
78
78
78
78
78
78
78
78
78
78
78
78
78
78
78
78
78
78
78
78
78
78
78
78
78
78
78
78
78
78
78
78
78
78
78
78
78
78
78
78
78
78
78
78
78
78
78
78
78
78
78
78
78
78
78
78
78
78
78
78
78
78
78
78
78
78
78
78
78
78
78
78
78
78
78
78
78
78
78
78
78
78
78
78
78
78
78
78
78
78
78
78
78
78
78
78
78
78
78
78
78
78
78
78
78
78
78
78
78
78
78
78
78
78
78
78
78
78
78
78
78
78
78
78
78
78
78
78
78
78
78
78
78
78
78
78
78
78
78
78
78

POINT_DATA 729
VECTORS displacement float
0.000000 0.000000 0.000000
0.000000 0.000000 0.000000
0.000000 0.000000 0.000000
0.000000 0.000000 0.000000
0.000000 0.000000 0.000000
0.000000 0.000000 0.000000
0.000000 0.000000 0.000000
0.000000 0.000000 0.000000
0.000000 0.000000 0.000000
0.000000 0.000000 0.000000
0.000000 0.000000 0.000000
0.000000 0.000000 0.000000
0.000000 0.000000 0.000000
0.000000 0.000000 0.000000
0.000000 0.000000 0.000000
0.000000 0.000000 0.000000
0.000000 0.000000 0.000000
0.000000 0.000000 0.000000
0.000000 0.000000 0.000000
0.000000 0.000000 0.000000
0.000000 0.000000 0.000000
0.000000 0.000000 0.000000
0.000000 0.000000 0.000000
0.000000 0.000000 0.000000
0.000000 0.000000 0.000000
-0.014163 -0.012325 -0.012793
-0.012461 -0.013672 -0.006489
-0.011134 -0.014158 -0.000000
-0.012461 -0.013672 0.006489
-0.014163 -0.012325 0.012793
-0.011857 -0.006239 -0.013975
-0.009060 -0.006455 -0.006755
-0.008855 -0.006904 -0.000000
-0.009060 -0.006455 0.006755
-0.011857 -0.006239 0.013975
-0.011845 0.000000 -0.014316
-0.009188 -0.000000 -0.007112
-0.008385 -0.000000 -0.000000
-0.009188 -0.000000 0.007112
-0.011845 -0.000000 0.014316
-0.011857 0.006239 -0.013975
-0.009060 0.006455 -0.006755
-0.008855 0.006904 0.000000
-0.009060 0.006455 0.006755
-0.011857 0.006239 0.013975
-0.014163 0.012325 -0.012793
-0.012461 0.013672 -0.006489
-0.011134 0.014158 0.000000
-0.012461 0.013672 0.006489
-0.014163 0.012325 0.012793
-0.025000 -0.014721 -0.014706
-0.025000 -0.015220 -0.008128
-0.025000 -0.016051 -0.000000
-0.025000 -0.015220 0.008128
-0.025000 -0.014721 0.014706
-0.025000 -0.007954 -0.015916
-0.025000 -0.008115 -0.008308
-0.025000 -0.008643 0.000000
-0.025000 -0.008115 0.008308
-0.025000 -0.007954 0.015916
-0.025000 0.000000 -0.016588
-0.025000 0.000000 -0.008825
-0.025000 0.000000 0.000000
-0.025000 0.000000 0.008825
-0.025000 -0.000000 0.016588
-0.025000 0.007954 -0.015916
-0.025000 0.008115 -0.008308
-0.025000 0.008643 -0.000000
-0.025000 0.008115 0.008308
-0.025000 0.007954 0.015916
-0.025000 0.014721 -0.014706
-0.025000 0.015220 -0.008128
-0.025000 0.016051 -0.000000
-0.025000 0.015220 0.008128
-0.025000 0.014721 0.014706
-0.035837 -0.012325 -0.012793
-0.037539 -0.013672 -0.006489
-0.038866 -0.014158 0.000000
-0.037539 -0.013672 0.006489
-0.035837 -0.012325 0.012793
-0.038143 -0.006239 -0.013975
-0.040940 -0.006455 -0.006755
-0.041145 -0.006904 -0.000000
-0.040940 -0.006455 0.006755
-0.038143 -0.006239 0.013975
-0.038155 0.000000 -0.014316
-0.040812 -0.000000 -0.007112
-0.041615 0.000000 0.000000
-0.040812 -0.000000 0.007112
-0.038155 -0.000000 0.014316
-0.038143 0.006239 -0.013975
-0.040940 0.006455 -0.006755
-0.041145 0.006904 -0.000000
-0.040940 0.006455 0.006755
-0.038143 0.006239 0.013975
-0.035837 0.012325 -0.012793
-0.037539 0.013672 -0.006489
-0.038866 0.014158 -0.000000
-0.037539 0.013672 0.006489
-0.035837 0.012325 0.012793
-0.050000 0.000000 0.000000
-0.050000 0.000000 0.000000
-0.050000 0.000000 0.000000
-0.050000 0.000000 0.000000
-0.050000 0.000000 0.000000
-0.050000 0.000000 0.000000
-0.050000 0.000000 0.000000
-0.050000 0.000000 0.000000
-0.050000 0.000000 0.000000
-0.050000 0.000000 0.000000
-0.050000 0.000000 0.000000
-0.050000 0.000000 0.000000
-0.050000 0.000000 0.000000
-0.050000 0.000000 0.000000
-0.050000 0.000000 0.000000
-0.050000 0.000000 0.000000
-0.050000 0.000000 0.000000
-0.050000 0.000000 0.000000
-0.050000 0.000000 0.000000
-0.050000 0.000000 0.000000
-0.050000 0.000000 0.000000
-0.050000 0.000000 0.000000
-0.050000 0.000000 0.000000
-0.050000 0.000000 0.000000
-0.050000 0.000000 0.000000
0.000000 0.000000 0.000000
-0.000412 -0.005584 -0.009532
-0.001745 -0.004272 -0.009263
-0.000370 -0.006001 -0.004863
-0.001362 -0.004925 -0.004955
-0.009181 -0.009677 -0.006335
0.000000 0.000000 0.000000
0.000000 0.000000 0.000000
-0.000504 -0.013376 -0.005131
0.000000 0.000000 0.000000
0.000000 0.000000 0.000000
-0.001153 -0.012765 -0.010316
-0.007905 -0.009369 -0.017629
-0.005412 -0.005417 -0.014459
-0.012113 -0.012841 -0.010336
-0.011382 -0.008957 -0.013423
-0.006044 -0.004431 -0.013625
-0.008773 -0.008598 -0.010437
-0.009389 -0.005834 -0.011002
-0.017044 -0.011410 -0.011317
-0.019026 -0.014302 -0.011568
-0.017336 -0.011799 -0.014651
-0.019503 -0.014583 -0.014413
-0.025000 -0.012147 -0.014721
-0.017704 -0.007916 -0.015782
-0.017135 -0.007435 -0.012557
-0.016585 -0.012347 -0.007979
-0.016477 -0.007908 -0.008559
-0.025000 -0.007624 -0.012198
-0.018768 -0.015215 -0.008219
-0.025000 -0.012458 -0.007783
-0.025000 -0.011704 -0.011130
-0.025000 -0.014499 -0.011445
-0.032956 -0.011410 -0.011317
-0.032865 -0.007435 -0.012557
-0.033415 -0.012347 -0.007979
-0.033523 -0.007908 -0.008559
-0.040819 -0.009677 -0.006335
-0.031232 -0.015215 -0.008219
-0.030974 -0.014302 -0.011568
-0.030497 -0.014583 -0.014413
-0.032664 -0.011799 -0.014651
-0.037887 -0.012841 -0.010336
-0.038618 -0.008957 -0.013423
-0.032296 -0.007916 -0.015782
-0.041227 -0.008598 -0.010437
-0.040611 -0.005834 -0.011002
-0.049588 -0.005584 -0.009532
-0.048847 -0.012765 -0.010316
-0.044588 -0.005417 -0.014459
-0.042095 -0.009369 -0.017629
-0.050000 0.000000 0.000000
-0.043956 -0.004431 -0.013625
-0.048255 -0.004272 -0.009263
-0.049630 -0.006001 -0.004863
-0.048638 -0.004925 -0.004955
-0.050000 0.000000 0.000000
-0.049496 -0.013376 -0.005131
-0.050000 0.000000 0.000000
-0.050000 0.000000 0.000000
-0.050000 0.000000 0.000000
0.000000 0.000000 0.000000
-0.005900 -0.000000 -0.016678
-0.000609 0.000000 -0.011145
-0.005822 -0.003840 -0.015528
-0.000582 -0.002971 -0.010234
-0.008772 0.000000 -0.012067
0.000000 0.000000 0.000000
0.000000 0.000000 0.000000
-0.000286 0.000000 -0.005163
0.000000 0.000000 0.000000
-0.000408 -0.003898 -0.005299
-0.008739 -0.003237 -0.007130
-0.008900 -0.003063 -0.011927
-0.011662 -0.003474 -0.014875
-0.017203 -0.003416 -0.013254
-0.016449 -0.003421 -0.009004
-0.017574 -0.003752 -0.016388
-0.017944 0.000000 -0.016303
-0.017412 0.000000 -0.013123
-0.025000 -0.003791 -0.016486
-0.025000 0.000000 -0.012940
-0.017011 -0.000000 -0.008885
-0.025000 -0.003687 -0.012988
-0.025000 -0.003651 -0.008841
-0.032056 -0.000000 -0.016303
-0.032588 0.000000 -0.013123
-0.032426 -0.003752 -0.016388
-0.032797 -0.003416 -0.013254
-0.041228 -0.000000 -0.012067
-0.032989 -0.000000 -0.008885
-0.033551 -0.003421 -0.009004
-0.041261 -0.003237 -0.007130
-0.041100 -0.003063 -0.011927
-0.038338 -0.003474 -0.014875
-0.049418 -0.002971 -0.010234
-0.049592 -0.003898 -0.005299
-0.044178 -0.003840 -0.015528
-0.044100 0.000000 -0.016678
-0.049391 0.000000 -0.011145
-0.050000 0.000000 0.000000
-0.050000 0.000000 0.000000
-0.049714 -0.000000 -0.005163
-0.050000 0.000000 0.000000
-0.050000 0.000000 0.000000
0.000000 0.000000 0.000000
-0.000582 0.002971 -0.010234
-0.001745 0.004272 -0.009263
-0.000408 0.003898 -0.005299
-0.001362 0.004925 -0.004955
-0.008739 0.003237 -0.007130
0.000000 0.000000 0.000000
0.000000 0.000000 0.000000
0.000000 0.000000 0.000000
-0.005822 0.003840 -0.015528
-0.011662 0.003474 -0.014875
-0.006044 0.004431 -0.013625
-0.008900 0.003063 -0.011927
-0.009389 0.005834 -0.011002
-0.017203 0.003416 -0.013254
-0.017574 0.003752 -0.016388
-0.025000 0.003791 -0.016486
-0.017704 0.007916 -0.015782
-0.017135 0.007435 -0.012557
-0.016449 0.003421 -0.009004
-0.016477 0.007908 -0.008559
-0.025000 0.007624 -0.012198
-0.025000 0.003651 -0.008841
-0.025000 0.003687 -0.012988
-0.032797 0.003416 -0.013254
-0.032865 0.007435 -0.012557
-0.033551 0.003421 -0.009004
-0.033523 0.007908 -0.008559
-0.041261 0.003237 -0.007130
-0.032426 0.003752 -0.016388
-0.038338 0.003474 -0.014875
-0.032296 0.007916 -0.015782
-0.041100 0.003063 -0.011927
-0.040611 0.005834 -0.011002
-0.049418 0.002971 -0.010234
-0.044178 0.003840 -0.015528
-0.050000 0.000000 0.000000
-0.043956 0.004431 -0.013625
-0.048255 0.004272 -0.009263
-0.049592 0.003898 -0.005299
-0.048638 0.004925 -0.004955
-0.050000 0.000000 0.000000
-0.050000 0.000000 0.000000
-0.050000 0.000000 0.000000
0.000000 0.000000 0.000000
-0.007905 0.009369 -0.017629
-0.001153 0.012765 -0.010316
-0.005412 0.005417 -0.014459
-0.000412 0.005584 -0.009532
-0.012113 0.012841 -0.010336
0.000000 0.000000 0.000000
0.000000 0.000000 0.000000
-0.000504 0.013376 -0.005131
0.000000 0.000000 0.000000
-0.000370 0.006001 -0.004863
-0.009181 0.009677 -0.006335
-0.008773 0.008598 -0.010437
-0.011382 0.008957 -0.013423
-0.017044 0.011410 -0.011317
-0.016585 0.012347 -0.007979
-0.017336 0.011799 -0.014651
-0.019503 0.014583 -0.014413
-0.019026 0.014302 -0.011568
-0.025000 0.012147 -0.014721
-0.025000 0.014499 -0.011445
-0.018768 0.015215 -0.008219
-0.025000 0.011704 -0.011130
-0.025000 0.012458 -0.007783
-0.030497 0.014583 -0.014413
-0.030974 0.014302 -0.011568
-0.032664 0.011799 -0.014651
-0.032956 0.011410 -0.011317
-0.037887 0.012841 -0.010336
-0.031232 0.015215 -0.008219
-0.033415 0.012347 -0.007979
-0.040819 0.009677 -0.006335
-0.041227 0.008598 -0.010437
-0.038618 0.008957 -0.013423
-0.049588 0.005584 -0.009532
-0.049630 0.006001 -0.004863
-0.044588 0.005417 -0.014459
-0.042095 0.009369 -0.017629
-0.048847 0.012765 -0.010316
-0.050000 0.000000 0.000000
-0.050000 0.000000 0.000000
-0.049496 0.013376 -0.005131
-0.050000 0.000000 0.000000
-0.050000 0.000000 0.000000
0.000000 0.000000 0.000000
-0.000254 -0.006340 -0.000306
-0.000657 -0.006994 0.000000
-0.000899 -0.014393 -0.001130
-0.001832 -0.012757 -0.000000
-0.011782 -0.014552 -0.003477
0.000000 0.000000 0.000000
0.000000 0.000000 0.000000
0.000000 0.000000 0.000000
-0.001448 -0.005177 -0.000709
-0.008548 -0.006805 -0.003083
-0.002213 -0.005324 0.000000
-0.007937 -0.010143 -0.002888
-0.008062 -0.010427 -0.000000
-0.015671 -0.008366 -0.004596
-0.015521 -0.013084 -0.004641
-0.025000 -0.008513 -0.004413
-0.015517 -0.008479 -0.000000
-0.015357 -0.013120 -0.000000
-0.017665 -0.015838 -0.004757
-0.017560 -0.015943 0.000000
-0.025000 -0.013469 -0.000000
-0.025000 -0.015994 -0.004642
-0.025000 -0.013348 -0.004413
-0.034479 -0.013084 -0.004641
-0.034643 -0.013120 0.000000
-0.032335 -0.015838 -0.004757
-0.032440 -0.015943 0.000000
-0.038218 -0.014552 -0.003477
-0.034329 -0.008366 -0.004596
-0.041452 -0.006805 -0.003083
-0.034483 -0.008479 0.000000
-0.042063 -0.010143 -0.002888
-0.041938 -0.010427 0.000000
-0.048552 -0.005177 -0.000709
-0.049746 -0.006340 -0.000306
-0.050000 0.000000 0.000000
-0.047787 -0.005324 0.000000
-0.049343 -0.006994 0.000000
-0.049101 -0.014393 -0.001130
-0.048168 -0.012757 0.000000
-0.050000 0.000000 0.000000
-0.050000 0.000000 0.000000
-0.050000 0.000000 0.000000
-0.000480 -0.004031 -0.000501
0.000000 0.000000 0.000000
0.000000 0.000000 0.000000
0.000000 0.000000 0.000000
-0.000404 0.000000 -0.000492
-0.000949 -0.003943 0.000000
-0.000852 0.000000 0.000000
-0.008401 -0.000000 -0.003357
-0.008198 -0.003611 -0.000000
-0.008006 -0.003478 -0.003117
-0.015531 -0.003613 -0.004770
-0.015977 0.000000 -0.004871
-0.015461 -0.003862 -0.000000
-0.015845 0.000000 -0.000000
-0.025000 -0.004077 0.000000
-0.025000 -0.003703 -0.004678
-0.025000 0.000000 -0.004721
-0.034469 -0.003613 -0.004770
-0.034023 0.000000 -0.004871
-0.034539 -0.003862 -0.000000
-0.034155 0.000000 0.000000
-0.041599 -0.000000 -0.003357
-0.041802 -0.003611 0.000000
-0.041994 -0.003478 -0.003117
-0.049520 -0.004031 -0.000501
-0.049596 0.000000 -0.000492
-0.049051 -0.003943 0.000000
-0.049148 -0.000000 -0.000000
-0.050000 0.000000 0.000000
-0.050000 0.000000 0.000000
-0.050000 0.000000 0.000000
0.000000 0.000000 0.000000
-0.000480 0.004031 -0.000501
-0.000949 0.003943 0.000000
0.000000 0.000000 0.000000
0.000000 0.000000 0.000000
-0.001448 0.005177 -0.000709
-0.008548 0.006805 -0.003083
-0.002213 0.005324 0.000000
-0.008006 0.003478 -0.003117
-0.008198 0.003611 -0.000000
-0.015671 0.008366 -0.004596
-0.015531 0.003613 -0.004770
-0.025000 0.008513 -0.004413
-0.015517 0.008479 0.000000
-0.015461 0.003862 0.000000
-0.025000 0.004077 0.000000
-0.025000 0.003703 -0.004678
-0.034469 0.003613 -0.004770
-0.034539 0.003862 0.000000
-0.034329 0.008366 -0.004596
-0.041452 0.006805 -0.003083
-0.034483 0.008479 0.000000
-0.041994 0.003478 -0.003117
-0.041802 0.003611 -0.000000
-0.048552 0.005177 -0.000709
-0.049520 0.004031 -0.000501
-0.050000 0.000000 0.000000
-0.047787 0.005324 -0.000000
-0.049051 0.003943 -0.000000
-0.050000 0.000000 0.000000
-0.050000 0.000000 0.000000
-0.000254 0.006340 -0.000306
0.000000 0.000000 0.000000
0.000000 0.000000 0.000000
0.000000 0.000000 0.000000
-0.000899 0.014393 -0.001130
-0.000657 0.006994 0.000000
-0.001832 0.012757 0.000000
-0.011782 0.014552 -0.003477
-0.008062 0.010427 0.000000
-0.007937 0.010143 -0.002888
-0.015521 0.013084 -0.004641
-0.017665 0.015838 -0.004757
-0.015357 0.013120 0.000000
-0.017560 0.015943 0.000000
-0.025000 0.013469 -0.000000
-0.025000 0.013348 -0.004413
-0.025000 0.015994 -0.004642
-0.034479 0.013084 -0.004641
-0.032335 0.015838 -0.004757
-0.034643 0.013120 0.000000
-0.032440 0.015943 -0.000000
-0.038218 0.014552 -0.003477
-0.041938 0.010427 -0.000000
-0.042063 0.010143 -0.002888
-0.049746 0.006340 -0.000306
-0.049101 0.014393 -0.001130
-0.049343 0.006994 -0.000000
-0.048168 0.012757 -0.000000
-0.050000 0.000000 0.000000
-0.050000 0.000000 0.000000
-0.050000 0.000000 0.000000
0.000000 0.000000 0.000000
-0.000254 -0.006340 0.000306
-0.001448 -0.005177 0.000709
-0.000370 -0.006001 0.004863
-0.001362 -0.004925 0.004955
-0.009181 -0.009677 0.006335
0.000000 0.000000 0.000000
0.000000 0.000000 0.000000
-0.000504 -0.013376 0.005131
0.000000 0.000000 0.000000
-0.000899 -0.014393 0.001130
-0.011782 -0.014552 0.003477
-0.007937 -0.010143 0.002888
-0.008548 -0.006805 0.003083
-0.015521 -0.013084 0.004641
-0.017665 -0.015838 0.004757
-0.015671 -0.008366 0.004596
-0.016585 -0.012347 0.007979
-0.016477 -0.007908 0.008559
-0.025000 -0.008513 0.004413
-0.018768 -0.015215 0.008219
-0.025000 -0.012458 0.007783
-0.025000 -0.013348 0.004413
-0.025000 -0.015994 0.004642
-0.034479 -0.013084 0.004641
-0.034329 -0.008366 0.004596
-0.033415 -0.012347 0.007979
-0.033523 -0.007908 0.008559
-0.040819 -0.009677 0.006335
-0.031232 -0.015215 0.008219
-0.032335 -0.015838 0.004757
-0.038218 -0.014552 0.003477
-0.042063 -0.010143 0.002888
-0.041452 -0.006805 0.003083
-0.049746 -0.006340 0.000306
-0.049101 -0.014393 0.001130
-0.048552 -0.005177 0.000709
-0.049630 -0.006001 0.004863
-0.048638 -0.004925 0.004955
-0.050000 0.000000 0.000000
-0.049496 -0.013376 0.005131
-0.050000 0.000000 0.000000
-0.050000 0.000000 0.000000
-0.050000 0.000000 0.000000
-0.000404 0.000000 0.000492
-0.000480 -0.004031 0.000501
-0.008401 0.000000 0.003357
0.000000 0.000000 0.000000
0.000000 0.000000 0.000000
-0.000286 0.000000 0.005163
0.000000 0.000000 0.000000
-0.000408 -0.003898 0.005299
-0.008739 -0.003237 0.007130
-0.008006 -0.003478 0.003117
-0.015531 -0.003613 0.004770
-0.016449 -0.003421 0.009004
-0.015977 0.000000 0.004871
-0.025000 -0.000000 0.004721
-0.017011 0.000000 0.008885
-0.025000 -0.003703 0.004678
-0.025000 -0.003651 0.008841
-0.034023 0.000000 0.004871
-0.034469 -0.003613 0.004770
-0.041599 0.000000 0.003357
-0.032989 -0.000000 0.008885
-0.033551 -0.003421 0.009004
-0.041261 -0.003237 0.007130
-0.041994 -0.003478 0.003117
-0.049520 -0.004031 0.000501
-0.049592 -0.003898 0.005299
-0.049596 0.000000 0.000492
-0.050000 0.000000 0.000000
-0.049714 0.000000 0.005163
-0.050000 0.000000 0.000000
-0.050000 0.000000 0.000000
0.000000 0.000000 0.000000
-0.000480 0.004031 0.000501
-0.001448 0.005177 0.000709
-0.000408 0.003898 0.005299
-0.001362 0.004925 0.004955
-0.008739 0.003237 0.007130
0.000000 0.000000 0.000000
0.000000 0.000000 0.000000
-0.008006 0.003478 0.003117
-0.008548 0.006805 0.003083
-0.015531 0.003613 0.004770
-0.015671 0.008366 0.004596
-0.016449 0.003421 0.009004
-0.016477 0.007908 0.008559
-0.025000 0.008513 0.004413
-0.025000 0.003651 0.008841
-0.025000 0.003703 0.004678
-0.034469 0.003613 0.004770
-0.034329 0.008366 0.004596
-0.033551 0.003421 0.009004
-0.033523 0.007908 0.008559
-0.041261 0.003237 0.007130
-0.041994 0.003478 0.003117
-0.041452 0.006805 0.003083
-0.049520 0.004031 0.000501
-0.048552 0.005177 0.000709
-0.049592 0.003898 0.005299
-0.048638 0.004925 0.004955
-0.050000 0.000000 0.000000
-0.050000 0.000000 0.000000
-0.050000 0.000000 0.000000
-0.000899 0.014393 0.001130
-0.000254 0.006340 0.000306
-0.011782 0.014552 0.003477
0.000000 0.000000 0.000000
0.000000 0.000000 0.000000
-0.000504 0.013376 0.005131
0.000000 0.000000 0.000000
-0.000370 0.006001 0.004863
-0.009181 0.009677 0.006335
-0.007937 0.010143 0.002888
-0.015521 0.013084 0.004641
-0.016585 0.012347 0.007979
-0.017665 0.015838 0.004757
-0.025000 0.015994 0.004642
-0.018768 0.015215 0.008219
-0.025000 0.013348 0.004413
-0.025000 0.012458 0.007783
-0.032335 0.015838 0.004757
-0.034479 0.013084 0.004641
-0.038218 0.014552 0.003477
-0.031232 0.015215 0.008219
-0.033415 0.012347 0.007979
-0.040819 0.009677 0.006335
-0.042063 0.010143 0.002888
-0.049746 0.006340 0.000306
-0.049630 0.006001 0.004863
-0.049101 0.014393 0.001130
-0.050000 0.000000 0.000000
-0.049496 0.013376 0.005131
-0.050000 0.000000 0.000000
-0.050000 0.000000 0.000000
0.000000 0.000000 0.000000
-0.000412 -0.005584 0.009532
-0.005412 -0.005417 0.014459
-0.001153 -0.012765 0.010316
-0.007905 -0.009369 0.017629
-0.012113 -0.012841 0.010336
0.000000 0.000000 0.000000
0.000000 0.000000 0.000000
0.000000 0.000000 0.000000
-0.001745 -0.004272 0.009263
-0.009389 -0.005834 0.011002
-0.006044 -0.004431 0.013625
-0.008773 -0.008598 0.010437
-0.011382 -0.008957 0.013423
-0.017135 -0.007435 0.012557
-0.017044 -0.011410 0.011317
-0.025000 -0.007624 0.012198
-0.017704 -0.007916 0.015782
-0.017336 -0.011799 0.014651
-0.019026 -0.014302 0.011568
-0.019503 -0.014583 0.014413
-0.025000 -0.012147 0.014721
-0.025000 -0.014499 0.011445
-0.025000 -0.011704 0.011130
-0.032956 -0.011410 0.011317
-0.032664 -0.011799 0.014651
-0.030974 -0.014302 0.011568
-0.030497 -0.014583 0.014413
-0.037887 -0.012841 0.010336
-0.032865 -0.007435 0.012557
-0.040611 -0.005834 0.011002
-0.032296 -0.007916 0.015782
-0.041227 -0.008598 0.010437
-0.038618 -0.008957 0.013423
-0.048255 -0.004272 0.009263
-0.049588 -0.005584 0.009532
-0.050000 0.000000 0.000000
-0.043956 -0.004431 0.013625
-0.044588 -0.005417 0.014459
-0.048847 -0.012765 0.010316
-0.042095 -0.009369 0.017629
-0.050000 0.000000 0.000000
-0.050000 0.000000 0.000000
-0.050000 0.000000 0.000000
-0.000582 -0.002971 0.010234
0.000000 0.000000 0.000000
0.000000 0.000000 0.000000
0.000000 0.000000 0.000000
-0.000609 0.000000 0.011145
-0.005822 -0.003840 0.015528
-0.005900 0.000000 0.016678
-0.008772 -0.000000 0.012067
-0.011662 -0.003474 0.014875
-0.008900 -0.003063 0.011927
-0.017203 -0.003416 0.013254
-0.017412 0.000000 0.013123
-0.017574 -0.003752 0.016388
-0.017944 -0.000000 0.016303
-0.025000 -0.003791 0.016486
-0.025000 -0.003687 0.012988
-0.025000 0.000000 0.012940
-0.032797 -0.003416 0.013254
-0.032588 0.000000 0.013123
-0.032426 -0.003752 0.016388
-0.032056 0.000000 0.016303
-0.041228 0.000000 0.012067
-0.038338 -0.003474 0.014875
-0.041100 -0.003063 0.011927
-0.049418 -0.002971 0.010234
-0.049391 0.000000 0.011145
-0.044178 -0.003840 0.015528
-0.044100 0.000000 0.016678
-0.050000 0.000000 0.000000
-0.050000 0.000000 0.000000
-0.050000 0.000000 0.000000
0.000000 0.000000 0.000000
-0.000582 0.002971 0.010234
-0.005822 0.003840 0.015528
0.000000 0.000000 0.000000
0.000000 0.000000 0.000000
-0.001745 0.004272 0.009263
-0.009389 0.005834 0.011002
-0.006044 0.004431 0.013625
-0.008900 0.003063 0.011927
-0.011662 0.003474 0.014875
-0.017135 0.007435 0.012557
-0.017203 0.003416 0.013254
-0.025000 0.007624 0.012198
-0.017704 0.007916 0.015782
-0.017574 0.003752 0.016388
-0.025000 0.003791 0.016486
-0.025000 0.003687 0.012988
-0.032797 0.003416 0.013254
-0.032426 0.003752 0.016388
-0.032865 0.007435 0.012557
-0.040611 0.005834 0.011002
-0.032296 0.007916 0.015782
-0.041100 0.003063 0.011927
-0.038338 0.003474 0.014875
-0.048255 0.004272 0.009263
-0.049418 0.002971 0.010234
-0.050000 0.000000 0.000000
-0.043956 0.004431 0.013625
-0.044178 0.003840 0.015528
-0.050000 0.000000 0.000000
-0.050000 0.000000 0.000000
-0.000412 0.005584 0.009532
0.000000 0.000000 0.000000
0.000000 0.000000 0.000000
0.000000 0.000000 0.000000
-0.001153 0.012765 0.010316
-0.005412 0.005417 0.014459
-0.007905 0.009369 0.017629
-0.012113 0.012841 0.010336
-0.011382 0.008957 0.013423
-0.008773 0.008598 0.010437
-0.017044 0.011410 0.011317
-0.019026 0.014302 0.011568
-0.017336 0.011799 0.014651
-0.019503 0.014583 0.014413
-0.025000 0.012147 0.014721
-0.025000 0.011704 0.011130
-0.025000 0.014499 0.011445
-0.032956 0.011410 0.011317
-0.030974 0.014302 0.011568
-0.032664 0.011799 0.014651
-0.030497 0.014583 0.014413
-0.037887 0.012841 0.010336
-0.038618 0.008957 0.013423
-0.041227 0.008598 0.010437
-0.049588 0.005584 0.009532
-0.048847 0.012765 0.010316
-0.044588 0.005417 0.014459
-0.042095 0.009369 0.017629
-0.050000 0.000000 0.000000
-0.050000 0.000000 0.000000
-0.050000 0.000000 0.000000

CELL_DATA 384
TENSORS stress float
-7481.8 -1352.63 -2992.33
-1352.63 6937.71 -117.876
-2992.33 -117.876 544.091

-7359.63 -6056.21 -2874.45
-6056.21 3679.81 0
-2874.45 0 3679.81

-7359.63 -6056.21 -2874.45
-6056.21 3679.81 0
-2874.45 0 3679.81

-10226.4 -5459.24 -4912.7
-5459.24 2320.98 -596.977
-4912.7 -596.977 7905.44

-10661.7 -1742.01 -5436.37
-1742.01 5234.37 -1120.64
-5436.37 -1120.64 5427.29

-11266.2 -1256.69 -4951.05
-1256.69 5631.89 -213.817
-4951.05 -213.817 5634.32

-10260 -1061.42 -93.2732
-1061.42 5335.37 -1133.11
-93.2732 -1133.11 4924.67

-11420.8 261.841 -105.745
261.841 5613.93 -1120.64
-105.745 -1120.64 5806.85

-12025.3 747.159 379.573
747.159 6011.46 -213.817
379.573 -213.817 6013.88

-13792.5 771.507 -687.597
771.507 6722.9 -189.468
-687.597 -189.468 7069.57

-11750.3 -685.539 -725.713
-685.539 5652.08 -151.352
-725.713 -151.352 6098.21

-11346.4 -685.539 -725.713
-685.539 5757 -757.228
-725.713 -757.228 5589.38

-13792.5 -771.507 687.597
-771.507 6722.9 -189.468
687.597 -189.468 7069.57

-11750.3 685.539 725.713
685.539 5652.08 -151.352
725.713 -151.352 6098.21

-11346.4 685.539 725.713
685.539 5757 -757.228
725.713 -757.228 5589.38

-10260 1061.42 93.2732
1061.42 5335.37 -1133.11
93.2732 -1133.11 4924.67

-11420.8 -261.841 105.745
-261.841 5613.93 -1120.64
105.745 -1120.64 5806.85

-12025.3 -747.159 -379.573
-747.159 6011.46 -213.817
-379.573 -213.817 6013.88

-10226.4 5459.24 4912.7
5459.24 2320.98 -596.977
4912.7 -596.977 7905.44

-10661.7 1742.01 5436.37
1742.01 5234.37 -1120.64
5436.37 -1120.64 5427.29

-11266.2 1256.69 4951.05
1256.69 5631.89 -213.817
4951.05 -213.817 5634.32

-7481.8 1352.63 2992.33
1352.63 6937.71 -117.876
2992.33 -117.876 544.091

-7359.63 6056.21 2874.45
6056.21 3679.81 0
2874.45 0 3679.81

-7359.63 6056.21 2874.45
6056.21 3679.81 0
2874.45 0 3679.81

-9123.39 3.68832e-11 -5164.59
3.68832e-11 1370.37 -4.91777e-11
-5164.59 -4.91777e-11 7753.02

-5426.66 -1.22944e-11 -3150.15
-1.22944e-11 2713.33 0
-3150.15 0 2713.33

-5426.66 -1.22944e-11 -3150.15
-1.22944e-11 2713.33 0
-3150.15 0 2713.33

-7256.87 -2916.45 -2992.33
-2916.45 6487.84 -157.825
-2992.33 -157.825 769.028

-11041.3 -2820.51 -4951.05
-2820.51 5182.02 -253.766
-4951.05 -253.766 5859.25

-10972.8 -2758.11 -5013.46
-2758.11 5058.56 -151.129
-5013.46 -151.129 5914.28

-13567.5 -792.314 -687.597
-792.314 6273.03 -229.417
-687.597 -229.417 7294.51

-11800.4 -816.663 379.573
-816.663 5561.58 -253.766
379.573 -253.766 6238.81

-11732 -754.257 317.167
-754.257 5438.13 -151.129
317.167 -151.129 6293.85

-12245.5 6.14721e-12 170.515
6.14721e-12 6454.52 -297.78
170.515 -297.78 5791.01

-13979.6 3.0736e-11 -759.068
3.0736e-11 7074.24 -297.78
-759.068 -297.78 6905.34

-13981.7 -6.76193e-11 -759.068
-6.76193e-11 7215.35 -300.888
-759.068 -300.888 6766.3

-12245.5 -6.14721e-12 -170.515
-6.14721e-12 6454.52 -297.78
-170.515 -297.78 5791.01

-13979.6 -5.16365e-11 759.068
-5.16365e-11 7074.24 -297.78
759.068 -297.78 6905.34

-13981.7 -1.49992e-10 759.068
-1.49992e-10 7215.35 -300.888
759.068 -300.888 6766.3

-13567.5 792.314 687.597
792.314 6273.03 -229.417
687.597 -229.417 7294.51

-11800.4 816.663 -379.573
816.663 5561.58 -253.766
-379.573 -253.766 6238.81

-11732 754.257 -317.167
754.257 5438.13 -151.129
-317.167 -151.129 6293.85

-7256.87 2916.45 2992.33
2916.45 6487.84 -157.825
2992.33 -157.825 769.028

-11041.3 2820.51 4951.05
2820.51 5182.02 -253.766
4951.05 -253.766 5859.25

-10972.8 2758.11 5013.46
2758.11 5058.56 -151.129
5013.46 -151.129 5914.28

-9123.39 -1.22944e-11 5164.59
-1.22944e-11 1370.37 -6.76193e-11
5164.59 -6.76193e-11 7753.02

-5426.66 5.53249e-11 3150.15
5.53249e-11 2713.33 0
3150.15 0 2713.33

-5426.66 5.53249e-11 3150.15
5.53249e-11 2713.33 0
3150.15 0 2713.33

-7256.87 2916.45 -2992.33
2916.45 6487.84 157.825
-2992.33 157.825 769.028

-5426.66 -1.22944e-11 -3150.15
-1.22944e-11 2713.33 0
-3150.15 0 2713.33

-5426.66 -1.22944e-11 -3150.15
-1.22944e-11 2713.33 0
-3150.15 0 2713.33

-9123.39 3.68832e-11 -5164.59
3.68832e-11 1370.37 -4.91777e-11
-5164.59 -4.91777e-11 7753.02

-10972.8 2758.11 -5013.46
2758.11 5058.56 151.129
-5013.46 151.129 5914.28

-11041.3 2820.51 -4951.05
2820.51 5182.02 253.766
-4951.05 253.766 5859.25

-12245.5 5.04071e-11 170.515
5.04071e-11 6454.52 297.78
170.515 297.78 5791.01

-11732 754.257 317.167
754.257 5438.13 151.129
317.167 151.129 6293.85

-11800.4 816.663 379.573
816.663 5561.58 253.766
379.573 253.766 6238.81

-13567.5 792.314 -687.597
792.314 6273.03 229.417
-687.597 229.417 7294.51

-13981.7 4.30305e-11 -759.068
4.30305e-11 7215.35 300.888
-759.068 300.888 6766.3

-13979.6 7.49959e-11 -759.068
7.49959e-11 7074.24 297.78
-759.068 297.78 6905.34

-13567.5 -792.314 687.597
-792.314 6273.03 229.417
687.597 229.417 7294.51

-13981.7 -3.93421e-11 759.068
-3.93421e-11 7215.35 300.888
759.068 300.888 6766.3

-13979.6 -6.14721e-12 759.068
-6.14721e-12 7074.24 297.78
759.068 297.78 6905.34

-12245.5 3.68832e-11 -170.515
3.68832e-11 6454.52 297.78
-170.515 297.78 5791.01

-11732 -754.257 -317.167
-754.257 5438.13 151.129
-317.167 151.129 6293.85

-11800.4 -816.663 -379.573
-816.663 5561.58 253.766
-379.573 253.766 6238.81

-9123.39 -1.22944e-11 5164.59
-1.22944e-11 1370.37 -6.76193e-11
5164.59 -6.76193e-11 7753.02

-10972.8 -2758.11 5013.46
-2758.11 5058.56 151.129
5013.46 151.129 5914.28

-11041.3 -2820.51 4951.05
-2820.51 5182.02 253.766
4951.05 253.766 5859.25

-7256.87 -2916.45 2992.33
-2916.45 6487.84 157.825
2992.33 157.825 769.028

-5426.66 5.53249e-11 3150.15
5.53249e-11 2713.33 0
3150.15 0 2713.33

-5426.66 5.53249e-11 3150.15
5.53249e-11 2713.33 0
3150.15 0 2713.33

-10226.4 5459.24 -4912.7
5459.24 2320.98 596.977
-4912.7 596.977 7905.44

-7359.63 6056.21 -2874.45
6056.21 3679.81 0
-2874.45 0 3679.81

-7359.63 6056.21 -2874.45
6056.21 3679.81 0
-2874.45 0 3679.81

-7481.8 1352.63 -2992.33
1352.63 6937.71 117.876
-2992.33 117.876 544.091

-11266.2 1256.69 -4951.05
1256.69 5631.89 213.817
-4951.05 213.817 5634.32

-10661.7 1742.01 -5436.37
1742.01 5234.37 1120.64
-5436.37 1120.64 5427.29

-13792.5 -771.507 -687.597
-771.507 6722.9 189.468
-687.597 189.468 7069.57

-12025.3 -747.159 379.573
-747.159 6011.46 213.817
379.573 213.817 6013.88

-11420.8 -261.841 -105.745
-261.841 5613.93 1120.64
-105.745 1120.64 5806.85

-10260 1061.42 -93.2732
1061.42 5335.37 1133.11
-93.2732 1133.11 4924.67

-11346.4 685.539 -725.713
685.539 5757 757.228
-725.713 757.228 5589.38

-11750.3 685.539 -725.713
685.539 5652.08 151.352
-725.713 151.352 6098.21

-10260 -1061.42 93.2732
-1061.42 5335.37 1133.11
93.2732 1133.11 4924.67

-11346.4 -685.539 725.713
-685.539 5757 757.228
725.713 757.228 5589.38

-11750.3 -685.539 725.713
-685.539 5652.08 151.352
725.713 151.352 6098.21

-13792.5 771.507 687.597
771.507 6722.9 189.468
687.597 189.468 7069.57

-12025.3 747.159 -379.573
747.159 6011.46 213.817
-379.573 213.817 6013.88

-11420.8 261.841 105.745
261.841 5613.93 1120.64
105.745 1120.64 5806.85

-7481.8 -1352.63 2992.33
-1352.63 6937.71 117.876
2992.33 117.876 544.091

-11266.2 -1256.69 4951.05
-1256.69 5631.89 213.817
4951.05 213.817 5634.32

-10661.7 -1742.01 5436.37
-1742.01 5234.37 1120.64
5436.37 1120.64 5427.29

-10226.4 -5459.24 4912.7
-5459.24 2320.98 596.977
4912.7 596.977 7905.44

-7359.63 -6056.21 2874.45
-6056.21 3679.81 0
2874.45 0 3679.81

-7359.63 -6056.21 2874.45
-6056.21 3679.81 0
2874.45 0 3679.81

-8492.12 -6271.38 587.853
-6271.38 1371.61 -215.169
587.853 -215.169 7120.51

-7359.63 -6056.21 -2874.45
-6056.21 3679.81 0
-2874.45 0 3679.81

-7359.63 -6056.21 -2874.45
-6056.21 3679.81 0
-2874.45 0 3679.81

-7481.8 -1352.63 -2992.33
-1352.63 6937.71 -117.876
-2992.33 -117.876 544.091

-9355.73 -1551.58 90.7177
-1551.58 4882.35 -316.822
90.7177 -316.822 4473.38

-9287.96 -2048.71 587.853
-2048.71 4982.56 -215.169
587.853 -215.169 4305.4

-13999 771.507 -687.597
771.507 6516.38 -351.717
-687.597 -351.717 7482.61

-13661.6 736.613 90.7177
736.613 7035.26 -316.822
90.7177 -316.822 6626.29

-13593.8 239.478 587.853
239.478 7135.48 -215.169
587.853 -215.169 6458.31

-12293 -838.253 587.853
-838.253 6553.17 -215.169
587.853 -215.169 5739.82

-11993 -685.539 -725.713
-685.539 5677.46 -367.883
-725.713 -367.883 6315.54

-11956.8 -685.539 -725.713
-685.539 5445.57 -313.601
-725.713 -313.601 6511.25

-12293 838.253 -587.853
838.253 6553.17 -215.169
-587.853 -215.169 5739.82

-11993 685.539 725.713
685.539 5677.46 -367.883
725.713 -367.883 6315.54

-11956.8 685.539 725.713
685.539 5445.57 -313.601
725.713 -313.601 6511.25

-13999 -771.507 687.597
-771.507 6516.38 -351.717
687.597 -351.717 7482.61

-13661.6 -736.613 -90.7177
-736.613 7035.26 -316.822
-90.7177 -316.822 6626.29

-13593.8 -239.478 -587.853
-239.478 7135.48 -215.169
-587.853 -215.169 6458.31

-7481.8 1352.63 2992.33
1352.63 6937.71 -117.876
2992.33 -117.876 544.091

-9355.73 1551.58 -90.7177
1551.58 4882.35 -316.822
-90.7177 -316.822 4473.38

-9287.96 2048.71 -587.853
2048.71 4982.56 -215.169
-587.853 -215.169 4305.4

-8492.12 6271.38 -587.853
6271.38 1371.61 -215.169
-587.853 -215.169 7120.51

-7359.63 6056.21 2874.45
6056.21 3679.81 0
2874.45 0 3679.81

-7359.63 6056.21 2874.45
6056.21 3679.81 0
2874.45 0 3679.81

-7256.87 -2916.45 -2992.33
-2916.45 6487.84 -157.825
-2992.33 -157.825 769.028

-5426.66 -1.22944e-11 -3150.15
-1.22944e-11 2713.33 0
-3150.15 0 2713.33

-5426.66 -1.22944e-11 -3150.15
-1.22944e-11 2713.33 0
-3150.15 0 2713.33

-7052.57 -7.37665e-12 355.641
-7.37665e-12 376.136 4.91777e-12
355.641 4.91777e-12 6676.44

-9368.64 -2850.48 355.641
-2850.48 4592.52 1.1065e-11
355.641 1.1065e-11 4776.12

-9130.79 -3115.4 90.7177
-3115.4 4432.48 -356.772
90.7177 -356.772 4698.32

-14465.1 -5.40954e-11 355.641
-5.40954e-11 7910.9 3.0736e-11
355.641 3.0736e-11 6554.17

-13674.5 -562.286 355.641
-562.286 6745.43 1.1065e-11
355.641 1.1065e-11 6929.03

-13436.6 -827.209 90.7177
-827.209 6585.39 -356.772
90.7177 -356.772 6851.23

-13774.1 -792.314 -687.597
-792.314 6066.51 -391.666
-687.597 -391.666 7707.55

-14188.2 -6.63898e-11 -759.068
-6.63898e-11 7008.83 -463.137
-759.068 -463.137 7179.34

-14496.9 -4.91777e-11 -759.068
-4.91777e-11 7167.76 2.45888e-11
-759.068 2.45888e-11 7329.17

-13774.1 792.314 687.597
792.314 6066.51 -391.666
687.597 -391.666 7707.55

-14188.2 -1.49992e-10 759.068
-1.49992e-10 7008.83 -463.137
759.068 -463.137 7179.34

-14496.9 -1.29091e-10 759.068
-1.29091e-10 7167.76 2.45888e-11
759.068 2.45888e-11 7329.17

-14465.1 -4.30305e-11 -355.641
-4.30305e-11 7910.9 1.13109e-10
-355.641 1.13109e-10 6554.17

-13674.5 562.286 -355.641
562.286 6745.43 1.25403e-10
-355.641 1.25403e-10 6929.03

-13436.6 827.209 -90.7177
827.209 6585.39 -356.772
-90.7177 -356.772 6851.23

-7052.57 -3.0736e-11 -355.641
-3.0736e-11 376.136 8.60609e-11
-355.641 8.60609e-11 6676.44

-9368.64 2850.48 -355.641
2850.48 4592.52 1.25403e-10
-355.641 1.25403e-10 4776.12

-9130.79 3115.4 -90.7177
3115.4 4432.48 -356.772
-90.7177 -356.772 4698.32

-7256.87 2916.45 2992.33
2916.45 6487.84 -157.825
2992.33 -157.825 769.028

-5426.66 5.65543e-11 3150.15
5.65543e-11 2713.33 0
3150.15 0 2713.33

-5426.66 5.53249e-11 3150.15
5.53249e-11 2713.33 0
3150.15 0 2713.33

-7052.57 -7.37665e-12 355.641
-7.37665e-12 376.136 4.91777e-12
355.641 4.91777e-12 6676.44

-5426.66 -1.22944e-11 -3150.15
-1.22944e-11 2713.33 0
-3150.15 0 2713.33

-5426.66 -1.22944e-11 -3150.15
-1.22944e-11 2713.33 0
-3150.15 0 2713.33

-7256.87 2916.45 -2992.33
2916.45 6487.84 157.825
-2992.33 157.825 769.028

-9130.79 3115.4 90.7177
3115.4 4432.48 356.772
90.7177 356.772 4698.32

-9368.64 2850.48 355.641
2850.48 4592.52 1.72122e-11
355.641 1.72122e-11 4776.12

-13774.1 792.314 -687.597
792.314 6066.51 391.666
-687.597 391.666 7707.55

-13436.6 827.209 90.7177
827.209 6585.39 356.772
90.7177 356.772 6851.23

-13674.5 562.286 355.641
562.286 6745.43 1.84416e-11
355.641 1.84416e-11 6929.03

-14465.1 -9.34376e-11 355.641
-9.34376e-11 7910.9 -4.30305e-11
355.641 -4.30305e-11 6554.17

-14496.9 -8.72904e-11 -759.068
-8.72904e-11 7167.76 -4.91777e-11
-759.068 -4.91777e-11 7329.17

-14188.2 4.30305e-11 -759.068
4.30305e-11 7008.83 463.137
-759.068 463.137 7179.34

-14465.1 -7.99137e-11 -355.641
-7.99137e-11 7910.9 3.93421e-11
-355.641 3.93421e-11 6554.17

-14496.9 -1.68434e-10 759.068
-1.68434e-10 7167.76 -4.91777e-11
759.068 -4.91777e-11 7329.17

-14188.2 -3.44244e-11 759.068
-3.44244e-11 7008.83 463.137
759.068 463.137 7179.34

-13774.1 -792.314 687.597
-792.314 6066.51 391.666
687.597 391.666 7707.55

-13436.6 -827.209 -90.7177
-827.209 6585.39 356.772
-90.7177 356.772 6851.23

-13674.5 -562.286 -355.641
-562.286 6745.43 4.67188e-11
-355.641 4.67188e-11 6929.03

-7256.87 -2916.45 2992.33
-2916.45 6487.84 157.825
2992.33 157.825 769.028

-9130.79 -3115.4 -90.7177
-3115.4 4432.48 356.772
-90.7177 356.772 4698.32

-9368.64 -2850.48 -355.641
-2850.48 4592.52 4.91777e-11
-355.641 4.91777e-11 4776.12

-7052.57 -3.0736e-11 -355.641
-3.0736e-11 376.136 8.60609e-11
-355.641 8.60609e-11 6676.44

-5426.66 5.53249e-11 3150.15
5.53249e-11 2713.33 0
3150.15 0 2713.33

-5426.66 5.53249e-11 3150.15
5.53249e-11 2713.33 0
3150.15 0 2713.33

-7481.8 1352.63 -2992.33
1352.63 6937.71 117.876
-2992.33 117.876 544.091

-7359.63 6056.21 -2874.45
6056.21 3679.81 0
-2874.45 0 3679.81

-7359.63 6056.21 -2874.45
6056.21 3679.81 0
-2874.45 0 3679.81

-8492.12 6271.38 587.853
6271.38 1371.61 215.169
587.853 215.169 7120.51

-9287.96 2048.71 587.853
2048.71 4982.56 215.169
587.853 215.169 4305.4

-9355.73 1551.58 90.7177
1551.58 4882.35 316.822
90.7177 316.822 4473.38

-12293 838.253 587.853
838.253 6553.17 215.169
587.853 215.169 5739.82

-13593.8 -239.478 587.853
-239.478 7135.48 215.169
587.853 215.169 6458.31

-13661.6 -736.613 90.7177
-736.613 7035.26 316.822
90.7177 316.822 6626.29

-13999 -771.507 -687.597
-771.507 6516.38 351.717
-687.597 351.717 7482.61

-11956.8 685.539 -725.713
685.539 5445.57 313.601
-725.713 313.601 6511.25

-11993 685.539 -725.713
685.539 5677.46 367.883
-725.713 367.883 6315.54

-13999 771.507 687.597
771.507 6516.38 351.717
687.597 351.717 7482.61

-11956.8 -685.539 725.713
-685.539 5445.57 313.601
725.713 313.601 6511.25

-11993 -685.539 725.713
-685.539 5677.46 367.883
725.713 367.883 6315.54

-12293 -838.253 -587.853
-838.253 6553.17 215.169
-587.853 215.169 5739.82

-13593.8 239.478 -587.853
239.478 7135.48 215.169
-587.853 215.169 6458.31

-13661.6 736.613 -90.7177
736.613 7035.26 316.822
-90.7177 316.822 6626.29

-8492.12 -6271.38 -587.853
-6271.38 1371.61 215.169
-587.853 215.169 7120.51

-9287.96 -2048.71 -587.853
-2048.71 4982.56 215.169
-587.853 215.169 4305.4

-9355.73 -1551.58 -90.7177
-1551.58 4882.35 316.822
-90.7177 316.822 4473.38

-7481.8 -1352.63 2992.33
-1352.63 6937.71 117.876
2992.33 117.876 544.091

-7359.63 -6056.21 2874.45
-6056.21 3679.81 0
2874.45 0 3679.81

-7359.63 -6056.21 2874.45
-6056.21 3679.81 0
2874.45 0 3679.81

-7481.8 -1352.63 2992.33
-1352.63 6937.71 117.876
2992.33 117.876 544.091

-7359.63 -6056.21 2874.45
-6056.21 3679.81 0
2874.45 0 3679.81

-7359.63 -6056.21 2874.45
-6056.21 3679.81 0
2874.45 0 3679.81

-8492.12 -6271.38 -587.853
-6271.38 1371.61 215.169
-587.853 215.169 7120.51

-9287.96 -2048.71 -587.853
-2048.71 4982.56 215.169
-587.853 215.169 4305.4

-9355.73 -1551.58 -90.7177
-1551.58 4882.35 316.822
-90.7177 316.822 4473.38

-12293 -838.253 -587.853
-838.253 6553.17 215.169
-587.853 215.169 5739.82

-13593.8 239.478 -587.853
239.478 7135.48 215.169
-587.853 215.169 6458.31

-13661.6 736.613 -90.7177
736.613 7035.26 316.822
-90.7177 316.822 6626.29

-13999 771.507 687.597
771.507 6516.38 351.717
687.597 351.717 7482.61

-11956.8 -685.539 725.713
-685.539 5445.57 313.601
725.713 313.601 6511.25

-11993 -685.539 725.713
-685.539 5677.46 367.883
725.713 367.883 6315.54

-13999 -771.507 -687.597
-771.507 6516.38 351.717
-687.597 351.717 7482.61

-11956.8 685.539 -725.713
685.539 5445.57 313.601
-725.713 313.601 6511.25

-11993 685.539 -725.713
685.539 5677.46 367.883
-725.713 367.883 6315.54

-12293 838.253 587.853
838.253 6553.17 215.169
587.853 215.169 5739.82

-13593.8 -239.478 587.853
-239.478 7135.48 215.169
587.853 215.169 6458.31

-13661.6 -736.613 90.7177
-736.613 7035.26 316.822
90.7177 316.822 6626.29

-8492.12 6271.38 587.853
6271.38 1371.61 215.169
587.853 215.169 7120.51

-9287.96 2048.71 587.853
2048.71 4982.56 215.169
587.853 215.169 4305.4

-9355.73 1551.58 90.7177
1551.58 4882.35 316.822
90.7177 316.822 4473.38

-7481.8 1352.63 -2992.33
1352.63 6937.71 117.876
-2992.33 117.876 544.091

-7359.63 6056.21 -2874.45
6056.21 3679.81 0
-2874.45 0 3679.81

-7359.63 6056.21 -2874.45
6056.21 3679.81 0
-2874.45 0 3679.81

-7052.57 -6.14721e-12 -355.641
-6.14721e-12 376.136 -6.14721e-12
-355.641 -6.14721e-12 6676.44

-5426.66 -1.22944e-11 3150.15
-1.22944e-11 2713.33 0
3150.15 0 2713.33

-5426.66 -1.22944e-11 3150.15
-1.22944e-11 2713.33 0
3150.15 0 2713.33

-7256.87 -2916.45 2992.33
-2916.45 6487.84 157.825
2992.33 157.825 769.028

-9130.79 -3115.4 -90.7177
-3115.4 4432.48 356.772
-90.7177 356.772 4698.32

-9368.64 -2850.48 -355.641
-2850.48 4592.52 1.22944e-12
-355.641 1.22944e-12 4776.12

-13774.1 -792.314 687.597
-792.314 6066.51 391.666
687.597 391.666 7707.55

-13436.6 -827.209 -90.7177
-827.209 6585.39 356.772
-90.7177 356.772 6851.23

-13674.5 -562.286 -355.641
-562.286 6745.43 0
-355.641 0 6929.03

-14465.1 -5.65543e-11 -355.641
-5.65543e-11 7910.9 1.84416e-11
-355.641 1.84416e-11 6554.17

-14496.9 -3.68832e-11 759.068
-3.68832e-11 7167.76 3.68832e-11
759.068 3.68832e-11 7329.17

-14188.2 3.68832e-11 759.068
3.68832e-11 7008.83 463.137
759.068 463.137 7179.34

-14465.1 -4.30305e-11 355.641
-4.30305e-11 7910.9 -4.91777e-11
355.641 -4.91777e-11 6554.17

-14496.9 -1.26632e-10 -759.068
-1.26632e-10 7167.76 3.44244e-11
-759.068 3.44244e-11 7329.17

-14188.2 -5.2866e-11 -759.068
-5.2866e-11 7008.83 463.137
-759.068 463.137 7179.34

-13774.1 792.314 -687.597
792.314 6066.51 391.666
-687.597 391.666 7707.55

-13436.6 827.209 90.7177
827.209 6585.39 356.772
90.7177 356.772 6851.23

-13674.5 562.286 355.641
562.286 6745.43 -3.68832e-11
355.641 -3.68832e-11 6929.03

-7256.87 2916.45 -2992.33
2916.45 6487.84 157.825
-2992.33 157.825 769.028

-9130.79 3115.4 90.7177
3115.4 4432.48 356.772
90.7177 356.772 4698.32

-9368.64 2850.48 355.641
2850.48 4592.52 -3.68832e-11
355.641 -3.68832e-11 4776.12

-7052.57 -3.0736e-11 355.641
-3.0736e-11 376.136 -7.37665e-11
355.641 -7.37665e-11 6676.44

-5426.66 4.30305e-11 -3150.15
4.30305e-11 2713.33 0
-3150.15 0 2713.33

-5426.66 4.30305e-11 -3150.15
4.30305e-11 2713.33 0
-3150.15 0 2713.33

-7256.87 2916.45 2992.33
2916.45 6487.84 -157.825
2992.33 -157.825 769.028

-5426.66 -1.22944e-11 3150.15
-1.22944e-11 2713.33 0
3150.15 0 2713.33

-5426.66 -1.22944e-11 3150.15
-1.22944e-11 2713.33 0
3150.15 0 2713.33

-7052.57 -6.14721e-12 -355.641
-6.14721e-12 376.136 -6.14721e-12
-355.641 -6.14721e-12 6676.44

-9368.64 2850.48 -355.641
2850.48 4592.52 6.14721e-12
-355.641 6.14721e-12 4776.12

-9130.79 3115.4 -90.7177
3115.4 4432.48 -356.772
-90.7177 -356.772 4698.32

-14465.1 -9.34376e-11 -355.641
-9.34376e-11 7910.9 -5.53249e-11
-355.641 -5.53249e-11 6554.17

-13674.5 562.286 -355.641
562.286 6745.43 3.68832e-12
-355.641 3.68832e-12 6929.03

-13436.6 827.209 -90.7177
827.209 6585.39 -356.772
-90.7177 -356.772 6851.23

-13774.1 792.314 687.597
792.314 6066.51 -391.666
687.597 -391.666 7707.55

-14188.2 -1.22944e-12 759.068
-1.22944e-12 7008.83 -463.137
759.068 -463.137 7179.34

-14496.9 -7.49959e-11 759.068
-7.49959e-11 7167.76 -3.68832e-11
759.068 -3.68832e-11 7329.17

-13774.1 -792.314 -687.597
-792.314 6066.51 -391.666
-687.597 -391.666 7707.55

-14188.2 -8.97492e-11 -759.068
-8.97492e-11 7008.83 -463.137
-759.068 -463.137 7179.34

-14496.9 -1.65975e-10 -759.068
-1.65975e-10 7167.76 -3.68832e-11
-759.068 -3.68832e-11 7329.17

-14465.1 -7.99137e-11 355.641
-7.99137e-11 7910.9 -1.22944e-10
355.641 -1.22944e-10 6554.17

-13674.5 -562.286 355.641
-562.286 6745.43 -1.1065e-10
355.641 -1.1065e-10 6929.03

-13436.6 -827.209 90.7177
-827.209 6585.39 -356.772
90.7177 -356.772 6851.23

-7052.57 -3.0736e-11 355.641
-3.0736e-11 376.136 -7.37665e-11
355.641 -7.37665e-11 6676.44

-9368.64 -2850.48 355.641
-2850.48 4592.52 -1.13109e-10
355.641 -1.13109e-10 4776.12

-9130.79 -3115.4 90.7177
-3115.4 4432.48 -356.772
90.7177 -356.772 4698.32

-7256.87 -2916.45 -2992.33
-2916.45 6487.84 -157.825
-2992.33 -157.825 769.028

-5426.66 4.30305e-11 -3150.15
4.30305e-11 2713.33 0
-3150.15 0 2713.33

-5426.66 4.30305e-11 -3150.15
4.30305e-11 2713.33 0
-3150.15 0 2713.33

-8492.12 6271.38 -587.853
6271.38 1371.61 -215.169
-587.853 -215.169 7120.51

-7359.63 6056.21 2874.45
6056.21 3679.81 0
2874.45 0 3679.81

-7359.63 6056.21 2874.45
6056.21 3679.81 0
2874.45 0 3679.81

-7481.8 1352.63 2992.33
1352.63 6937.71 -117.876
2992.33 -117.876 544.091

-9355.73 1551.58 -90.7177
1551.58 4882.35 -316.822
-90.7177 -316.822 4473.38

-9287.96 2048.71 -587.853
2048.71 4982.56 -215.169
-587.853 -215.169 4305.4

-13999 -771.507 687.597
-771.507 6516.38 -351.717
687.597 -351.717 7482.61

-13661.6 -736.613 -90.7177
-736.613 7035.26 -316.822
-90.7177 -316.822 6626.29

-13593.8 -239.478 -587.853
-239.478 7135.48 -215.169
-587.853 -215.169 6458.31

-12293 838.253 -587.853
838.253 6553.17 -215.169
-587.853 -215.169 5739.82

-11993 685.539 725.713
685.539 5677.46 -367.883
725.713 -367.883 6315.54

-11956.8 685.539 725.713
685.539 5445.57 -313.601
725.713 -313.601 6511.25

-12293 -838.253 587.853
-838.253 6553.17 -215.169
587.853 -215.169 5739.82

-11993 -685.539 -725.713
-685.539 5677.46 -367.883
-725.713 -367.883 6315.54

-11956.8 -685.539 -725.713
-685.539 5445.57 -313.601
-725.713 -313.601 6511.25

-13999 771.507 -687.597
771.507 6516.38 -351.717
-687.597 -351.717 7482.61

-13661.6 736.613 90.7177
736.613 7035.26 -316.822
90.7177 -316.822 6626.29

-13593.8 239.478 587.853
239.478 7135.48 -215.169
587.853 -215.169 6458.31

-7481.8 -1352.63 -2992.33
-1352.63 6937.71 -117.876
-2992.33 -117.876 544.091

-9355.73 -1551.58 90.7177
-1551.58 4882.35 -316.822
90.7177 -316.822 4473.38

-9287.96 -2048.71 587.853
-2048.71 4982.56 -215.169
587.853 -215.169 4305.4

-8492.12 -6271.38 587.853
-6271.38 1371.61 -215.169
587.853 -215.169 7120.51

-7359.63 -6056.21 -2874.45
-6056.21 3679.81 0
-2874.45 0 3679.81

-7359.63 -6056.21 -2874.45
-6056.21 3679.81 0
-2874.45 0 3679.81

-10226.4 -5459.24 4912.7
-5459.24 2320.98 596.977
4912.7 596.977 7905.44

-7359.63 -6056.21 2874.45
-6056.21 3679.81 0
2874.45 0 3679.81

-7359.63 -6056.21 2874.45
-6056.21 3679.81 0
2874.45 0 3679.81

-7481.8 -1352.63 2992.33
-1352.63 6937.71 117.876
2992.33 117.876 544.091

-11266.2 -1256.69 4951.05
-1256.69 5631.89 213.817
4951.05 213.817 5634.32

-10661.7 -1742.01 5436.37
-1742.01 5234.37 1120.64
5436.37 1120.64 5427.29

-13792.5 771.507 687.597
771.507 6722.9 189.468
687.597 189.468 7069.57

-12025.3 747.159 -379.573
747.159 6011.46 213.817
-379.573 213.817 6013.88

-11420.8 261.841 105.745
261.841 5613.93 1120.64
105.745 1120.64 5806.85

-10260 -1061.42 93.2732
-1061.42 5335.37 1133.11
93.2732 1133.11 4924.67

-11346.4 -685.539 725.713
-685.539 5757 757.228
725.713 757.228 5589.38

-11750.3 -685.539 725.713
-685.539 5652.08 151.352
725.713 151.352 6098.21

-10260 1061.42 -93.2732
1061.42 5335.37 1133.11
-93.2732 1133.11 4924.67

-11346.4 685.539 -725.713
685.539 5757 757.228
-725.713 757.228 5589.38

-11750.3 685.539 -725.713
685.539 5652.08 151.352
-725.713 151.352 6098.21

-13792.5 -771.507 -687.597
-771.507 6722.9 189.468
-687.597 189.468 7069.57

-12025.3 -747.159 379.573
-747.159 6011.46 213.817
379.573 213.817 6013.88

-11420.8 -261.841 -105.745
-261.841 5613.93 1120.64
-105.745 1120.64 5806.85

-7481.8 1352.63 -2992.33
1352.63 6937.71 117.876
-2992.33 117.876 544.091

-11266.2 1256.69 -4951.05
1256.69 5631.89 213.817
-4951.05 213.817 5634.32

-10661.7 1742.01 -5436.37
1742.01 5234.37 1120.64
-5436.37 1120.64 5427.29

-10226.4 5459.24 -4912.7
5459.24 2320.98 596.977
-4912.7 596.977 7905.44

-7359.63 6056.21 -2874.45
6056.21 3679.81 0
-2874.45 0 3679.81

-7359.63 6056.21 -2874.45
6056.21 3679.81 0
-2874.45 0 3679.81

-7256.87 -2916.45 2992.33
-2916.45 6487.84 157.825
2992.33 157.825 769.028

-5426.66 -1.22944e-11 3150.15
-1.22944e-11 2713.33 0
3150.15 0 2713.33

-5426.66 -1.22944e-11 3150.15
-1.22944e-11 2713.33 0
3150.15 0 2713.33

-9123.39 -1.96711e-11 5164.59
-1.96711e-11 1370.37 -7.37665e-12
5164.59 -7.37665e-12 7753.02

-10972.8 -2758.11 5013.46
-2758.11 5058.56 151.129
5013.46 151.129 5914.28

-11041.3 -2820.51 4951.05
-2820.51 5182.02 253.766
4951.05 253.766 5859.25

-12245.5 1.84416e-11 -170.515
1.84416e-11 6454.52 297.78
-170.515 297.78 5791.01

-11732 -754.257 -317.167
-754.257 5438.13 151.129
-317.167 151.129 6293.85

-11800.4 -816.663 -379.573
-816.663 5561.58 253.766
-379.573 253.766 6238.81

-13567.5 -792.314 687.597
-792.314 6273.03 229.417
687.597 229.417 7294.51

-13981.7 3.56538e-11 759.068
3.56538e-11 7215.35 300.888
759.068 300.888 6766.3

-13979.6 6.76193e-11 759.068
6.76193e-11 7074.24 297.78
759.068 297.78 6905.34

-13567.5 792.314 -687.597
792.314 6273.03 229.417
-687.597 229.417 7294.51

-13981.7 -5.77838e-11 -759.068
-5.77838e-11 7215.35 300.888
-759.068 300.888 6766.3

-13979.6 -2.45888e-11 -759.068
-2.45888e-11 7074.24 297.78
-759.068 297.78 6905.34

-12245.5 7.37665e-12 170.515
7.37665e-12 6454.52 297.78
170.515 297.78 5791.01

-11732 754.257 317.167
754.257 5438.13 151.129
317.167 151.129 6293.85

-11800.4 816.663 379.573
816.663 5561.58 253.766
379.573 253.766 6238.81

-9123.39 6.76193e-11 -5164.59
6.76193e-11 1370.37 -2.45888e-11
-5164.59 -2.45888e-11 7753.02

-10972.8 2758.11 -5013.46
2758.11 5058.56 151.129
-5013.46 151.129 5914.28

-11041.3 2820.51 -4951.05
2820.51 5182.02 253.766
-4951.05 253.766 5859.25

-7256.87 2916.45 -2992.33
2916.45 6487.84 157.825
-2992.33 157.825 769.028

-5426.66 4.42599e-11 -3150.15
4.42599e-11 2713.33 0
-3150.15 0 2713.33

-5426.66 4.30305e-11 -3150.15
4.30305e-11 2713.33 0
-3150.15 0 2713.33

-9123.39 -1.72122e-11 5164.59
-1.72122e-11 1370.37 -4.91777e-12
5164.59 -4.91777e-12 7753.02

-5426.66 -1.22944e-11 3150.15
-1.22944e-11 2713.33 0
3150.15 0 2713.33

-5426.66 -1.22944e-11 3150.15
-1.22944e-11 2713.33 0
3150.15 0 2713.33

-7256.87 2916.45 2992.33
2916.45 6487.84 -157.825
2992.33 -157.825 769.028

-11041.3 2820.51 4951.05
2820.51 5182.02 -253.766
4951.05 -253.766 5859.25

-10972.8 2758.11 5013.46
2758.11 5058.56 -151.129
5013.46 -151.129 5914.28

-13567.5 792.314 687.597
792.314 6273.03 -229.417
687.597 -229.417 7294.51

-11800.4 816.663 -379.573
816.663 5561.58 -253.766
-379.573 -253.766 6238.81

-11732 754.257 -317.167
754.257 5438.13 -151.129
-317.167 -151.129 6293.85

-12245.5 1.84416e-11 -170.515
1.84416e-11 6454.52 -297.78
-170.515 -297.78 5791.01

-13979.6 6.76193e-11 759.068
6.76193e-11 7074.24 -297.78
759.068 -297.78 6905.34

-13981.7 -1.22944e-12 759.068
-1.22944e-12 7215.35 -300.888
759.068 -300.888 6766.3

-12245.5 2.45888e-12 170.515
2.45888e-12 6454.52 -297.78
170.515 -297.78 5791.01

-13979.6 -2.70477e-11 -759.068
-2.70477e-11 7074.24 -297.78
-759.068 -297.78 6905.34

-13981.7 -8.97492e-11 -759.068
-8.97492e-11 7215.35 -300.888
-759.068 -300.888 6766.3

-13567.5 -792.314 -687.597
-792.314 6273.03 -229.417
-687.597 -229.417 7294.51

-11800.4 -816.663 379.573
-816.663 5561.58 -253.766
379.573 -253.766 6238.81

-11732 -754.257 317.167
-754.257 5438.13 -151.129
317.167 -151.129 6293.85

-7256.87 -2916.45 -2992.33
-2916.45 6487.84 -157.825
-2992.33 -157.825 769.028

-11041.3 -2820.51 -4951.05
-2820.51 5182.02 -253.766
-4951.05 -253.766 5859.25

-10972.8 -2758.11 -5013.46
-2758.11 5058.56 -151.129
-5013.46 -151.129 5914.28

-9123.39 6.76193e-11 -5164.59
6.76193e-11 1370.37 -2.45888e-11
-5164.59 -2.45888e-11 7753.02

-5426.66 4.30305e-11 -3150.15
4.30305e-11 2713.33 0
-3150.15 0 2713.33

-5426.66 4.30305e-11 -3150.15
4.30305e-11 2713.33 0
-3150.15 0 2713.33

-7481.8 1352.63 2992.33
1352.63 6937.71 -117.876
2992.33 -117.876 544.091

-7359.63 6056.21 2874.45
6056.21 3679.81 0
2874.45 0 3679.81

-7359.63 6056.21 2874.45
6056.21 3679.81 0
2874.45 0 3679.81

-10226.4 5459.24 4912.7
5459.24 2320.98 -596.977
4912.7 -596.977 7905.44

-10661.7 1742.01 5436.37
1742.01 5234.37 -1120.64
5436.37 -1120.64 5427.29

-11266.2 1256.69 4951.05
1256.69 5631.89 -213.817
4951.05 -213.817 5634.32

-10260 1061.42 93.2732
1061.42 5335.37 -1133.11
93.2732 -1133.11 4924.67

-11420.8 -261.841 105.745
-261.841 5613.93 -1120.64
105.745 -1120.64 5806.85

-12025.3 -747.159 -379.573
-747.159 6011.46 -213.817
-379.573 -213.817 6013.88

-13792.5 -771.507 687.597
-771.507 6722.9 -189.468
687.597 -189.468 7069.57

-11750.3 685.539 725.713
685.539 5652.08 -151.352
725.713 -151.352 6098.21

-11346.4 685.539 725.713
685.539 5757 -757.228
725.713 -757.228 5589.38

-13792.5 771.507 -687.597
771.507 6722.9 -189.468
-687.597 -189.468 7069.57

-11750.3 -685.539 -725.713
-685.539 5652.08 -151.352
-725.713 -151.352 6098.21

-11346.4 -685.539 -725.713
-685.539 5757 -757.228
-725.713 -757.228 5589.38

-10260 -1061.42 -93.2732
-1061.42 5335.37 -1133.11
-93.2732 -1133.11 4924.67

-11420.8 261.841 -105.745
261.841 5613.93 -1120.64
-105.745 -1120.64 5806.85

-12025.3 747.159 379.573
747.159 6011.46 -213.817
379.573 -213.817 6013.88

-10226.4 -5459.24 -4912.7
-5459.24 2320.98 -596.977
-4912.7 -596.977 7905.44

-10661.7 -1742.01 -5436.37
-1742.01 5234.37 -1120.64
-5436.37 -1120.64 5427.29

-11266.2 -1256.69 -4951.05
-1256.69 5631.89 -213.817
-4951.05 -213.817 5634.32

-7481.8 -1352.63 -2992.33
-1352.63 6937.71 -117.876
-2992.33 -117.876 544.091

-7359.63 -6056.21 -2874.45
-6056.21 3679.81 0
-2874.45 0 3679.81

-7359.63 -6056.21 -2874.45
-6056.21 3679.81 0
-2874.45 0 3679.81


