# vtk DataFile Version 3.0
vtk output at time 1
ASCII
DATASET UNSTRUCTURED_GRID
POINTS 527 float
0 0 0 0 0 0.05 0 0 0.1 
0 0 0.15 0 0 0.2 0 0.05 0 
0 0.05 0.05 0 0.05 0.1 0 0.05 0.15 
0 0.05 0.2 0 0.1 0 0 0.1 0.05 
0 0.1 0.1 0 0.1 0.15 0 0.1 0.2 
0 0.15 0 0 0.15 0.05 0 0.15 0.1 
0 0.15 0.15 0 0.15 0.2 0 0.2 0 
0 0.2 0.05 0 0.2 0.1 0 0.2 0.15 
0 0.2 0.2 0.0332306 -0.00943593 -0.0096346 0.0386139 -0.00920128 0.0450421 
0.0397814 -0.00955159 0.099874 0.0388611 -0.00962892 0.154682 0.0328545 -0.00991133 0.209505 
0.0381061 0.0456818 -0.00964413 0.038404 0.0451528 0.209624 0.0398667 0.10049 -0.00927653 
0.0393006 0.0998407 0.209421 0.0403666 0.155567 -0.00919784 0.0400138 0.154958 0.209726 
0.0333801 0.210021 -0.0089435 0.0386783 0.209311 0.0455615 0.0402485 0.209286 0.100371 
0.0391933 0.209342 0.155102 0.0332707 0.209665 0.209579 0.0749254 -0.0119866 -0.0129829 
0.0759144 -0.0137461 0.0424706 0.0760509 -0.0135805 0.0996634 0.0743316 -0.0144694 0.156829 
0.0746254 -0.0129166 0.212903 0.0745794 0.0429404 -0.0138741 0.0747036 0.0425037 0.214292 
0.0758088 0.100237 -0.0138336 0.076327 0.0998593 0.214289 0.0754718 0.157927 -0.0146601 
0.075842 0.15697 0.21496 0.0751802 0.213643 -0.0124172 0.0755477 0.214501 0.043507 
0.0772382 0.213718 0.100573 0.0749003 0.213736 0.157663 0.0753722 0.212404 0.213846 
0.117391 -0.0106306 -0.0102195 0.112003 -0.0104959 0.0449338 0.109818 -0.0100323 0.100127 
0.111533 -0.0102039 0.154568 0.116981 -0.0113793 0.209428 0.111607 0.0452352 -0.0113245 
0.11155 0.0442095 0.211211 0.109321 0.100372 -0.0105227 0.110376 0.0992878 0.210636 
0.110418 0.15533 -0.0102815 0.111299 0.153988 0.210735 0.117193 0.209929 -0.00959544 
0.112823 0.210239 0.0455242 0.111318 0.210251 0.100499 0.112293 0.209977 0.155148 
0.117386 0.209177 0.210209 0.15 0 0 0.15 0 0.05 
0.15 0 0.1 0.15 0 0.15 0.15 0 0.2 
0.15 0.05 0 0.15 0.05 0.05 0.15 0.05 0.1 
0.15 0.05 0.15 0.15 0.05 0.2 0.15 0.1 0 
0.15 0.1 0.05 0.15 0.1 0.1 0.15 0.1 0.15 
0.15 0.1 0.2 0.15 0.15 0 0.15 0.15 0.05 
0.15 0.15 0.1 0.15 0.15 0.15 0.15 0.15 0.2 
0.15 0.2 0 0.15 0.2 0.05 0.15 0.2 0.1 
0.15 0.2 0.15 0.15 0.2 0.2 0 0.025 0 
0.0152776 -0.00557445 -0.00819357 0.0202997 -0.00746942 0.0201271 0 0 0.025 
0 0.025 0.025 0.0210162 -0.0073851 0.046921 0 0.025 0.05 
0 0.025 0.075 0 0 0.075 0 0.025 0.1 
0.0208462 -0.00766193 0.0734698 0.0212547 -0.00704505 0.100091 0.0210263 -0.00739028 0.126685 
0 0 0.125 0.0211236 -0.00721599 0.153007 0 0.025 0.175 
0 0.025 0.15 0 0 0.175 0 0.025 0.125 
0.0203577 -0.00757695 0.179714 0 0.025 0.2 0.0150903 -0.00576739 0.208103 
0.0213676 0.0199256 0.0204661 0 0.05 0.025 0.017494 0.0211684 -0.00722169 
0.0194804 0.047451 -0.00631742 0.0214115 0.0749795 -0.00720105 0 0.075 0.025 
0 0.075 0 0.0215415 0.0201169 0.0472127 0 0.05 0.075 
0 0.075 0.05 0.0424788 0.0728791 0.0171695 0.0222374 0.0744328 0.020024 
0.0402208 0.0454413 0.017729 0.0207894 0.0473361 0.0203325 0.0414139 0.0177571 0.0724881 
0.0403249 0.0181719 0.0450491 0 0.075 0.075 0.0435738 0.0727393 0.0442689 
0.0414408 0.0176814 0.0997374 0.0219855 0.019835 0.0736448 0.0222142 0.0201792 0.12655 
0.0429104 0.0168744 0.127579 0.0220089 0.0198416 0.100092 0 0.05 0.125 
0 0.075 0.125 0 0.075 0.1 0 0.05 0.175 
0.0218296 0.0201945 0.152919 0.021974 0.0738893 0.180135 0.0211604 0.0470642 0.179728 
0.0415722 0.0723662 0.182466 0 0.075 0.15 0.0406018 0.0449762 0.182202 
0.0421262 0.0172405 0.155072 0.0214023 0.0198217 0.179554 0.0212196 0.0744636 0.207451 
0.0197784 0.0471377 0.206415 0.0175318 0.0209737 0.207218 0 0.075 0.175 
0 0.075 0.2 0 0.125 0 0.021346 0.101026 -0.00728741 
0 0.1 0.025 0.0433847 0.100464 0.0169946 0 0.125 0.025 
0 0.125 0.05 0.0225716 0.126939 0.0204079 0.0223424 0.100759 0.0203079 
0 0.1 0.075 0.0434312 0.127916 0.017179 0 0.125 0.075 
0 0.1 0.125 0.0432255 0.155516 0.12781 0.0426299 0.127652 0.155466 
0.0421505 0.0999901 0.156065 0.0428047 0.155769 0.10016 0.0435607 0.128004 0.0445482 
0.0433273 0.100444 0.044215 0 0.125 0.1 0.0420359 0.0442661 0.0998598 
0.0430977 0.0441867 0.127674 0.0755256 0.100103 0.10009 0.0433353 0.155413 0.155427 
0.042202 0.127536 0.182554 0 0.125 0.175 0 0.125 0.15 
0.0223413 0.12662 0.180028 0.0221022 0.100382 0.180052 0 0.1 0.175 
0 0.125 0.125 0.0416745 0.0998334 0.182585 0.0430703 0.0443913 0.155351 
0.0210662 0.10059 0.207725 0 0.125 0.2 0 0.15 0.025 
0.0213809 0.153249 -0.00606504 0.0183157 0.178667 -0.00673401 0.021513 0.179652 0.0206633 
0.0213624 0.127126 -0.00676056 0 0.175 0.025 0 0.175 0 
0.0221594 0.153234 0.0207975 0.0215858 0.179779 0.0474546 0.0425574 0.155411 0.0178652 
0.041245 0.18233 0.0455233 0 0.175 0.05 0 0.15 0.075 
0.0420026 0.182356 0.0729283 0.0221015 0.17999 0.0738508 0.0422275 0.18223 0.100197 
0.0221925 0.179886 0.100286 0 0.175 0.1 0.0222658 0.179736 0.126707 
0 0.175 0.075 0.0431163 0.182872 0.127863 0 0.15 0.125 
0 0.175 0.125 0.0434025 0.155437 0.0448107 0 0.15 0.175 
0.0220531 0.152944 0.179711 0.0219028 0.179525 0.15302 0.0420853 0.154849 0.182477 
0 0.175 0.15 0.0426282 0.182664 0.155238 0.0215955 0.179472 0.179672 
0.0211781 0.152926 0.206658 0.0181189 0.178411 0.207089 0 0.175 0.175 
0.0210719 0.126799 0.207305 0 0.175 0.2 0.0156327 0.205338 -0.00780782 
0.0204934 0.2072 0.0204867 0 0.2 0.025 0.0211024 0.207275 0.0471379 
0 0.2 0.075 0.0214783 0.206748 0.100328 0.0211882 0.207123 0.126855 
0.0209728 0.207395 0.0737631 0 0.2 0.125 0.0212928 0.206892 0.153287 
0 0.2 0.175 0.0206662 0.206944 0.179829 0.0155012 0.205105 0.208102 
0.0361982 -0.00939612 0.0173422 0.0538482 -0.0110199 -0.0110877 0.0554101 0.0161797 -0.0114647 
0.0366364 0.0180827 -0.0101079 0.0556301 -0.0110729 0.015957 0.0573123 0.016249 0.0157768 
0.0394683 0.0181762 0.0173122 0.0576909 -0.0113322 0.071508 0.0575048 -0.0113548 0.0434785 
0.038991 -0.00948509 0.072314 0.0583565 -0.0115657 0.0998116 0.0390675 -0.00959101 0.127427 
0.0574103 0.0155963 0.184257 0.0552844 -0.0118194 0.183953 0.0570017 -0.012146 0.156008 
0.0581872 -0.0123308 0.128147 0.0395901 0.0176759 0.18259 0.0359993 -0.00976994 0.182464 
0.0553369 0.0155254 0.211426 0.0534563 -0.0117589 0.210986 0.0366651 0.0175549 0.210092 
0.0564459 0.0441509 -0.0118101 0.0390596 0.0729898 -0.00955823 0.0389898 0.0724527 0.20962 
0.0566247 0.0435934 0.21182 0.0579053 0.0719034 -0.0120059 0.0586046 0.10024 -0.0119448 
0.0400555 0.128035 -0.00939691 0.0586124 0.12853 -0.0122378 0.0395574 0.127381 0.209712 
0.0581219 0.0996899 0.211759 0.0576272 0.071485 0.21182 0.05801 0.12778 0.211968 
0.0378897 0.182896 -0.00967873 0.040674 0.182548 0.0179007 0.0582001 0.157111 -0.01169 
0.0405203 0.182133 0.182648 0.0375435 0.182353 0.210249 0.0579971 0.156234 0.212063 
0.0363411 0.209659 0.018039 0.0540897 0.21244 -0.0101905 0.0563864 0.185245 -0.0109377 
0.0582029 0.211491 0.0723426 0.039274 0.209332 0.0728952 0.0560024 0.212217 0.0167624 
0.0586655 0.184858 0.0162195 0.0576251 0.212005 0.044356 0.0591338 0.211502 0.100459 
0.0395751 0.209251 0.127832 0.0365355 0.209411 0.182639 0.0585738 0.184166 0.18458 
0.0576947 0.211865 0.156642 0.056174 0.211531 0.184407 0.0589547 0.211963 0.128579 
0.0540644 0.211411 0.21129 0.0561298 0.18421 0.211685 0.0748949 0.0150142 -0.0132176 
0.0754913 -0.0126475 0.0143121 0.096324 -0.0110942 -0.0117264 0.0951292 -0.0113166 0.015358 
0.0755572 0.0145543 0.0142227 0.0937976 -0.0116149 0.043165 0.0762703 -0.013778 0.0709454 
0.0921083 0.0437487 0.0152412 0.0756014 0.0428769 0.0143971 0.0754952 0.0428519 0.15693 
0.107854 0.0445919 0.127746 0.107852 0.0443953 0.100058 0.0915056 0.0438486 0.0432721 
0.0757811 0.0429334 0.0431072 0.0758124 -0.0144779 0.128193 0.093133 -0.0118665 0.0714065 
0.092592 -0.0124809 0.127893 0.0906399 0.0433375 0.156921 0.0920893 -0.0118633 0.0998516 
0.0746158 0.0140717 0.185798 0.0746426 -0.0133508 0.185322 0.0753577 0.0427818 0.185872 
0.0923289 -0.0120592 0.156221 0.0913448 0.0429357 0.18484 0.0746411 0.0142257 0.213475 
0.0958851 -0.0121813 0.210896 0.0942442 -0.0119414 0.183855 0.0752476 0.0714793 -0.0139783 
0.0948926 0.0159691 -0.0118538 0.0936669 0.0160702 0.015291 0.0938407 0.0437456 -0.0121375 
0.0921153 0.0716622 -0.0124301 0.0943556 0.0149611 0.211428 0.0926125 0.0152703 0.184423 
0.0758045 0.0711637 0.214423 0.0925424 0.0709364 0.212795 0.0937465 0.0428152 0.212107 
0.107631 0.100001 0.0438476 0.0915212 0.099995 -0.0125046 0.0756606 0.129145 -0.0142004 
0.107917 0.127693 0.0441944 0.0913405 0.157133 0.0439305 0.0763264 0.15751 0.0435574 
0.107486 0.0991448 0.183662 0.107543 0.0993732 0.156296 0.106771 0.127125 0.15628 
0.0762673 0.156916 0.185978 0.0758432 0.156582 0.156923 0.0919286 0.156539 0.185018 
0.0909153 0.15641 0.156574 0.10782 0.126755 0.183558 0.0922462 0.0992153 0.213094 
0.0764595 0.128596 0.21461 0.0754117 0.186391 -0.01337 0.075811 0.186499 0.0145679 
0.0929057 0.185187 0.0158575 0.0944926 0.185443 -0.0115191 0.0922416 0.15709 -0.0120275 
0.108789 0.155389 0.0447489 0.091976 0.185123 0.0437679 0.0764177 0.186208 0.0431035 
0.0919584 0.128708 -0.0120175 0.0753728 0.185168 0.186364 0.0753644 0.185272 0.214371 
0.0928369 0.184386 0.184989 0.094781 0.184117 0.212188 0.108774 0.154162 0.183589 
0.0933041 0.155727 0.212837 0.0928913 0.127255 0.21317 0.0755133 0.213988 0.0151235 
0.0952456 0.212497 0.0162299 0.0966018 0.212717 -0.0107326 0.0768266 0.214265 0.0719538 
0.0936301 0.212747 0.0438433 0.0765173 0.213994 0.129124 0.110005 0.183025 0.100327 
0.0934217 0.212748 0.100574 0.109622 0.155883 0.1002 0.0929677 0.212219 0.129007 
0.0936138 0.212898 0.0720416 0.0753098 0.212933 0.186068 0.0924914 0.211628 0.157186 
0.0947978 0.211401 0.184677 0.0967503 0.211378 0.211633 0.114452 -0.0106159 0.0168941 
0.113677 0.0171708 -0.0111751 0.135404 -0.00566896 -0.00916509 0.132654 0.0209345 -0.00857497 
0.11134 0.0171829 0.0166308 0.128263 0.0469055 0.0461554 0.128313 0.0193466 0.0732716 
0.128014 0.0466067 0.0732422 0.110057 0.0448032 0.01693 0.130074 -0.00747411 0.0192673 
0.129143 0.0198837 0.0189371 0.110788 -0.0102748 0.0724838 0.129111 -0.00724689 0.0462894 
0.128607 0.0198517 0.0460966 0.12925 -0.00788406 0.0732281 0.128108 0.0191453 0.0999145 
0.110571 -0.0102504 0.127645 0.127519 0.0454694 0.126528 0.127652 0.0458873 0.100036 
0.10901 0.0447696 0.0445901 0.128891 -0.00741738 0.100001 0.128274 0.0191418 0.126488 
0.128006 0.0467732 0.153454 0.114083 -0.0108594 0.182411 0.128964 -0.00723487 0.1533 
0.12843 0.0198661 0.153499 0.110754 0.0166466 0.183071 0.128993 0.0196505 0.180555 
0.129936 -0.00772869 0.18018 0.109553 0.0439813 0.183026 0.129343 -0.00820208 0.126567 
0.113259 0.0162223 0.210787 0.132395 0.0204623 0.208014 0.135122 -0.00608255 0.20858 
0.110494 0.0729535 -0.010894 0.129569 0.0469218 -0.00786994 0.128336 0.073558 0.019167 
0.128539 0.0466296 0.0191008 0.129475 0.0463528 0.20734 0.128152 0.0730161 0.180354 
0.128337 0.0462291 0.180381 0.110902 0.0718701 0.21093 0.127629 0.100217 0.0458116 
0.127526 0.126642 0.0452241 0.128903 0.0734919 -0.00806703 0.127788 0.0998891 0.0190434 
0.128651 0.0997626 -0.00810743 0.109903 0.128059 -0.0103691 0.128064 0.126504 0.0186356 
0.128638 0.125918 -0.00806698 0.128717 0.124824 0.207776 0.127848 0.125636 0.180467 
0.127957 0.0994556 0.180294 0.128922 0.0728581 0.207622 0.128854 0.098897 0.208014 
0.110976 0.12667 0.210768 0.112888 0.18277 -0.0101872 0.11076 0.182761 0.0171922 
0.128362 0.153391 0.0459342 0.109799 0.182931 0.0448866 0.129915 0.153133 -0.00739482 
0.128819 0.153358 0.0191092 0.129996 0.151982 0.207293 0.113284 0.181779 0.210739 
0.110483 0.181924 0.183336 0.128524 0.152243 0.180597 0.114717 0.209901 0.0175832 
0.135216 0.205952 -0.00904654 0.132596 0.179289 -0.00835768 0.130425 0.207857 0.0193577 
0.129345 0.180362 0.0192137 0.129572 0.207924 0.0465048 0.128548 0.180358 0.0728286 
0.129399 0.207831 0.0734604 0.111651 0.210277 0.0729309 0.128835 0.180277 0.0460348 
0.111373 0.210117 0.127848 0.129384 0.179919 0.100205 0.12934 0.20698 0.100357 
0.12877 0.179349 0.180417 0.129105 0.207028 0.153736 0.128593 0.179132 0.153961 
0.128227 0.178943 0.12745 0.114611 0.209234 0.183081 0.129892 0.206899 0.180634 
0.128829 0.206658 0.127158 0.13253 0.178133 0.208042 0.135061 0.204925 0.209007 
0.15 0.025 0 0.15 0 0.025 0.15 0.025 0.025 
0.15 0.025 0.05 0.15 0.025 0.075 0.15 0 0.075 
0.15 0.025 0.1 0.15 0 0.125 0.15 0.025 0.125 
0.15 0.025 0.15 0.15 0 0.175 0.15 0.025 0.175 
0.15 0.025 0.2 0.15 0.075 0.025 0.15 0.075 0 
0.15 0.05 0.025 0.15 0.075 0.05 0.15 0.05 0.075 
0.15 0.075 0.125 0.15 0.075 0.075 0.15 0.075 0.1 
0.15 0.05 0.125 0.15 0.075 0.15 0.15 0.05 0.175 
0.15 0.075 0.175 0.15 0.075 0.2 0.15 0.1 0.025 
0.15 0.125 0 0.15 0.1 0.075 0.15 0.125 0.025 
0.15 0.125 0.05 0.15 0.125 0.075 0.15 0.1 0.125 
0.15 0.125 0.1 0.15 0.125 0.125 0.15 0.125 0.15 
0.15 0.125 0.175 0.15 0.1 0.175 0.15 0.125 0.2 
0.15 0.175 0 0.15 0.175 0.025 0.15 0.15 0.025 
0.15 0.15 0.075 0.15 0.175 0.05 0.15 0.175 0.125 
0.15 0.15 0.125 0.15 0.175 0.075 0.15 0.175 0.1 
0.15 0.15 0.175 0.15 0.175 0.15 0.15 0.175 0.175 
0.15 0.175 0.2 0.15 0.2 0.025 0.15 0.2 0.075 
0.15 0.2 0.125 0.15 0.2 0.175 

CELLS 236 2596
10 69 93 88 68 452 510 453 449 450 451 
10 28 47 45 44 255 323 256 257 318 319 
10 93 69 88 94 452 453 510 523 454 511 
10 43 49 86 85 308 342 309 310 343 503 
10 5 1 26 6 102 103 120 121 104 127 
10 82 86 81 63 495 493 494 421 422 423 
10 7 11 48 6 136 163 137 128 129 130 
10 37 17 54 38 208 209 285 286 210 290 
10 55 13 12 51 182 171 172 361 183 173 
10 90 86 49 85 505 342 344 504 503 343 
10 37 52 50 36 287 352 288 282 283 284 
10 91 92 65 86 519 433 434 506 507 435 
10 82 65 86 63 436 435 495 421 424 422 
10 25 5 0 26 122 98 99 243 120 100 
10 46 32 6 48 268 131 132 326 269 130 
10 57 46 58 62 327 328 383 384 329 387 
10 26 41 25 46 247 244 243 248 299 245 
10 22 38 39 17 235 291 236 211 210 212 
10 55 49 12 54 345 174 172 373 346 175 
10 26 5 6 30 120 121 127 249 123 133 
10 25 30 26 46 246 249 243 245 264 248 
10 11 15 16 34 164 194 165 166 195 201 
10 82 65 87 86 436 437 496 495 435 508 
10 15 34 36 37 195 276 196 197 277 282 
10 43 85 64 48 310 425 311 312 336 337 
10 1 5 26 0 102 120 103 101 98 100 
10 52 37 50 53 287 288 352 368 289 353 
10 60 80 59 86 404 398 399 405 489 400 
10 48 7 6 43 137 128 130 312 138 134 
10 92 71 96 91 462 463 521 519 464 520 
10 26 7 43 6 139 138 250 127 128 134 
10 6 26 46 42 127 248 132 135 251 303 
10 32 15 10 11 198 160 161 167 164 162 
10 90 71 70 49 465 459 460 344 347 348 
10 28 9 8 3 154 146 147 112 113 114 
10 68 69 50 66 449 354 355 439 440 356 
10 49 90 54 70 344 374 346 348 460 375 
10 28 43 7 44 258 138 140 257 313 141 
10 92 72 71 67 469 466 462 445 446 447 
10 71 56 51 72 381 362 363 466 382 364 
10 50 37 16 53 288 202 203 353 289 204 
10 5 6 30 32 121 133 123 124 131 265 
10 39 19 35 40 224 225 279 292 226 280 
10 12 11 50 48 168 169 176 177 163 338 
10 21 15 37 16 199 197 233 205 194 202 
10 28 4 9 3 117 118 154 112 115 113 
10 80 84 58 85 490 388 389 491 499 390 
10 15 36 20 37 196 230 200 197 282 231 
10 15 20 21 37 200 232 199 197 231 233 
10 19 18 35 13 218 219 225 184 185 186 
10 39 51 35 18 293 281 279 220 221 219 
10 15 34 37 16 195 277 197 194 201 202 
10 19 23 39 18 227 239 224 218 222 220 
10 5 6 32 11 121 131 124 125 129 167 
10 10 5 32 11 126 124 161 162 125 167 
10 19 33 14 13 228 192 193 184 187 188 
10 26 41 46 42 247 299 248 251 300 303 
10 24 19 39 40 229 224 241 242 226 292 
10 51 91 67 65 365 448 366 367 434 438 
10 17 21 37 16 213 233 208 206 205 202 
10 37 22 21 17 237 234 233 208 211 213 
10 49 91 65 86 349 434 350 342 506 435 
10 7 1 26 2 105 103 139 107 106 108 
10 17 55 12 54 214 172 178 209 373 175 
10 19 33 13 35 228 187 184 225 272 186 
10 7 2 26 27 107 108 139 142 109 252 
10 33 9 8 31 155 146 148 266 156 149 
10 55 18 39 17 223 220 294 214 215 212 
10 23 22 39 17 238 236 239 216 211 212 
10 18 23 39 17 222 239 220 215 216 212 
10 26 7 27 43 139 142 252 250 138 253 
10 32 15 11 34 198 164 167 270 195 166 
10 39 19 18 35 224 218 220 279 225 219 
10 23 19 39 24 227 224 239 240 229 241 
10 28 9 31 8 154 156 259 147 146 149 
10 28 4 29 9 117 119 260 154 118 157 
10 51 91 49 71 365 349 351 363 464 347 
10 96 71 90 91 463 465 515 520 464 516 
10 13 55 12 17 182 172 171 189 214 178 
10 92 71 91 67 462 464 519 445 447 448 
10 25 5 26 30 122 120 243 246 123 249 
10 47 61 45 60 331 324 323 332 406 325 
10 33 49 8 13 273 150 148 187 190 151 
10 85 90 64 48 504 426 425 336 339 337 
10 13 9 8 33 158 146 151 187 155 148 
10 78 64 84 83 427 428 484 485 429 497 
10 6 32 11 48 131 167 129 130 269 163 
10 16 37 54 53 202 285 207 204 289 371 
10 47 33 8 31 274 148 152 267 266 149 
10 1 7 26 6 105 139 103 104 128 127 
10 76 80 60 81 479 404 407 480 492 408 
10 90 94 69 95 517 454 455 518 524 456 
10 90 50 70 66 357 358 460 441 356 442 
10 7 2 27 28 107 109 142 140 110 254 
10 29 28 47 45 260 255 261 262 256 323 
10 3 7 8 28 116 143 114 112 140 147 
10 29 28 31 47 260 259 263 261 255 267 
10 47 33 49 8 274 273 333 152 148 150 
10 28 8 31 47 147 149 259 255 152 267 
10 90 70 69 66 460 457 455 441 442 440 
10 71 97 92 96 467 522 462 463 526 521 
10 58 46 64 62 328 330 391 387 329 417 
10 13 9 33 14 158 155 187 188 159 192 
10 39 56 40 51 295 297 292 293 362 298 
10 3 7 28 2 116 140 112 111 107 110 
10 46 57 58 41 327 383 328 299 301 302 
10 90 50 48 70 357 338 339 460 358 340 
10 90 54 70 48 374 375 460 339 341 340 
10 58 43 64 42 314 311 391 304 305 306 
10 28 43 27 7 258 253 254 140 138 142 
10 8 49 47 44 150 333 152 153 320 318 
10 28 8 47 44 147 152 255 257 153 318 
10 43 49 12 44 308 174 179 313 320 180 
10 12 49 13 44 174 190 171 180 320 191 
10 49 8 13 44 150 151 190 320 153 191 
10 12 13 7 44 171 144 145 180 191 141 
10 43 12 7 44 179 145 138 313 180 141 
10 13 8 7 44 151 143 144 191 153 141 
10 7 8 28 44 143 147 140 141 153 257 
10 91 51 49 65 365 351 349 434 367 350 
10 92 87 65 86 509 437 433 507 508 435 
10 63 61 60 82 414 406 409 421 415 410 
10 60 61 77 82 406 416 411 410 415 483 
10 67 51 72 71 366 364 446 447 363 466 
10 91 92 67 65 519 445 448 434 433 438 
10 63 60 81 82 409 408 423 421 410 494 
10 76 60 77 82 407 411 481 482 410 483 
10 60 76 81 82 407 480 408 410 482 494 
10 39 56 51 55 295 362 293 294 379 361 
10 18 35 13 51 219 186 185 221 281 183 
10 55 13 51 18 182 183 361 223 185 221 
10 49 55 12 51 345 172 174 351 361 173 
10 35 33 13 51 272 187 186 281 275 183 
10 33 49 13 51 273 190 187 275 351 183 
10 49 12 13 51 174 171 190 351 173 183 
10 55 13 18 17 182 185 223 214 189 215 
10 71 56 55 51 381 379 380 363 362 361 
10 51 40 39 35 298 292 293 281 280 279 
10 37 36 50 34 282 284 288 277 276 278 
10 47 60 44 65 332 321 318 334 412 322 
10 49 47 44 65 333 318 320 350 334 322 
10 47 61 60 63 331 406 332 335 414 409 
10 43 44 60 65 313 321 315 316 322 412 
10 43 49 44 65 308 320 313 316 350 322 
10 39 51 18 55 293 221 220 294 361 223 
10 54 39 38 17 296 291 290 209 212 210 
10 90 70 95 69 460 461 518 455 457 456 
10 49 12 54 85 174 175 346 343 181 376 
10 71 49 54 70 347 346 377 459 348 375 
10 51 91 71 67 365 464 363 366 448 447 
10 49 55 51 71 345 361 351 347 380 363 
10 6 43 26 42 134 250 127 135 305 251 
10 73 58 78 57 392 393 471 385 383 386 
10 37 22 17 38 237 211 208 286 235 210 
10 43 49 65 86 308 350 316 309 342 435 
10 59 43 60 86 317 315 399 400 309 405 
10 60 43 65 86 315 316 412 405 309 435 
10 63 60 65 86 409 412 424 422 405 435 
10 60 63 81 86 409 423 408 405 422 493 
10 37 17 16 54 208 206 202 285 209 207 
10 71 95 90 70 468 518 465 459 461 460 
10 49 55 71 54 345 380 347 346 373 377 
10 95 71 90 96 468 465 518 525 463 515 
10 88 69 66 89 453 440 443 512 458 444 
10 90 49 54 85 344 346 374 504 343 376 
10 78 64 62 84 427 417 418 484 428 419 
10 90 66 89 64 441 444 513 426 430 431 
10 54 90 85 48 374 504 376 341 339 336 
10 69 68 88 66 449 451 453 440 439 443 
10 9 29 28 31 157 260 154 156 263 259 
10 54 12 50 48 175 176 359 341 177 338 
10 88 69 89 94 453 458 512 511 454 514 
10 78 58 62 57 393 387 418 386 383 384 
10 69 54 50 70 378 359 354 457 375 358 
10 90 86 91 49 505 506 516 344 342 349 
10 12 54 85 48 175 376 181 177 341 336 
10 89 66 88 64 444 443 512 431 430 432 
10 88 84 89 64 500 501 512 432 428 431 
10 69 70 50 66 457 358 354 440 442 356 
10 49 43 12 85 308 179 174 343 310 181 
10 92 72 97 71 469 470 522 462 466 467 
10 90 94 89 69 517 514 513 455 454 458 
10 69 54 53 50 378 371 372 354 359 353 
10 68 69 52 50 449 369 370 355 354 352 
10 48 7 43 12 137 138 312 177 145 179 
10 69 90 66 89 455 441 440 458 513 444 
10 59 43 86 85 317 309 400 401 310 503 
10 60 80 86 81 404 489 405 408 492 493 
10 69 53 52 50 372 368 369 354 353 352 
10 90 71 49 91 465 347 344 516 464 349 
10 50 37 34 16 288 277 278 203 202 201 
10 54 16 53 50 207 204 371 359 203 353 
10 46 32 30 6 268 265 264 132 131 133 
10 32 34 11 50 270 166 167 271 278 169 
10 12 17 54 50 178 209 175 176 217 359 
10 17 16 54 50 206 207 209 217 203 359 
10 11 17 12 50 170 178 168 169 217 176 
10 11 16 17 50 165 206 170 169 203 217 
10 11 34 16 50 166 201 165 169 278 203 
10 11 7 48 12 136 137 163 168 145 177 
10 64 50 90 66 360 357 426 430 356 441 
10 90 89 84 64 513 501 502 426 431 428 
10 85 59 58 80 401 394 390 491 398 389 
10 60 45 47 44 325 323 332 321 319 318 
10 11 32 50 48 167 271 169 163 269 338 
10 50 64 90 48 360 426 357 338 337 339 
10 43 12 85 48 179 181 310 312 177 336 
10 59 43 85 64 317 310 401 402 311 425 
10 30 6 26 46 133 127 249 264 132 248 
10 46 41 58 42 299 302 328 303 300 304 
10 90 84 85 64 502 499 504 426 428 425 
10 84 62 78 79 419 418 484 487 420 486 
10 70 54 50 48 375 359 358 340 341 338 
10 78 74 79 58 473 474 486 393 395 396 
10 58 46 42 64 328 303 304 391 330 306 
10 54 39 17 55 296 212 209 373 294 214 
10 43 6 48 42 134 130 312 305 135 307 
10 84 64 62 58 428 417 419 388 391 387 
10 58 80 75 74 389 477 397 395 475 476 
10 47 60 65 63 332 412 334 335 409 424 
10 58 80 74 79 389 475 395 396 488 474 
10 85 59 64 58 401 402 425 390 394 391 
10 84 85 64 58 499 425 428 388 390 391 
10 60 75 80 76 413 477 404 407 478 479 
10 48 6 46 42 130 132 326 307 135 303 
10 58 43 59 64 314 317 394 391 311 402 
10 64 43 48 42 311 312 337 306 305 307 
10 64 48 46 42 337 326 330 306 307 303 
10 86 59 85 80 400 401 503 489 398 491 
10 59 58 80 75 394 389 398 403 397 477 
10 60 75 59 80 413 403 399 404 477 398 
10 62 84 58 79 419 388 387 420 487 396 
10 88 84 64 83 500 428 432 498 497 429 
10 80 84 79 58 490 487 488 389 388 396 
10 78 58 79 62 393 396 486 418 387 420 
10 78 74 58 73 473 395 393 471 472 392 

CELL_TYPES 236
24
24
24
24
24
24
24
24
24
24
24
24
24
24
24
24
24
24
24
24
24
24
24
24
24
24
24
24
24
24
24
24
24
24
24
24
24
24
24
24
24
24
24
24
24
24
24
24
24
24
24
24
24
24
24
24
24
24
24
24
24
24
24
24
24
24
24
24
24
24
24
24
24
24
24
24
24
24
24
24
24
24
24
24
24
24
24
24
24
24
24
24
24
24
24
24
24
24
24
24
24
24
24
24
24
24
24
24
24
24
24
24
24
24
24
24
24
24
24
24
24
24
24
24
24
24
24
24
24
24
24
24
24
24
24
24
24
24
24
24
24
24
24
24
24
24
24
24
24
24
24
24
24
24
24
24
24
24
24
24
24
24
24
24
24
24
24
24
24
24
24
24
24
24
24
24
24
24
24
24
24
24
24
24
24
24
24
24
24
24
24
24
24
24
24
24
24
24
24
24
24
24
24
24
24
24
24
24
24
24
24
24
24
24
24
24
24
24
24
24
24
24
24
24
24
24
24
24
24
24
24
24
24
24
24
24

POINT_DATA 527
VECTORS displacement float
0 0 0
0 0 0
0 0 0
0 0 0
0 0 0
0 0 0
0 0 0
0 0 0
0 0 0
0 0 0
0 0 0
0 0 0
0 0 0
0 0 0
0 0 0
0 0 0
0 0 0
0 0 0
0 0 0
0 0 0
0 0 0
0 0 0
0 0 0
0 0 0
0 0 0
-0.0167694 -0.00943593 -0.0096346
-0.0113861 -0.00920128 -0.00495785
-0.0102186 -0.00955159 -0.000125994
-0.0111389 -0.00962892 0.00468205
-0.0171455 -0.00991133 0.00950516
-0.0118939 -0.00431821 -0.00964413
-0.011596 -0.00484724 0.00962358
-0.0101333 0.00049048 -0.00927653
-0.0106994 -0.000159292 0.00942058
-0.00963341 0.00556666 -0.00919784
-0.00998615 0.00495781 0.00972589
-0.0166199 0.0100208 -0.0089435
-0.0113217 0.00931055 -0.00443848
-0.00975149 0.0092861 0.00037063
-0.0108067 0.00934232 0.00510211
-0.0167293 0.00966488 0.00957916
-0.0250746 -0.0119866 -0.0129829
-0.0240856 -0.0137461 -0.00752942
-0.0239491 -0.0135805 -0.000336632
-0.0256684 -0.0144694 0.00682942
-0.0253746 -0.0129166 0.0129033
-0.0254206 -0.00705965 -0.0138741
-0.0252964 -0.00749632 0.0142921
-0.0241912 0.000236621 -0.0138336
-0.0236731 -0.000140729 0.0142891
-0.0245282 0.00792725 -0.0146601
-0.024158 0.00697043 0.0149596
-0.0248198 0.0136432 -0.0124172
-0.0244523 0.0145013 -0.00649303
-0.0227618 0.0137184 0.000572576
-0.0250997 0.0137361 0.00766288
-0.0246278 0.0124042 0.0138461
-0.0326095 -0.0106306 -0.0102195
-0.0379974 -0.0104959 -0.0050662
-0.0401824 -0.0100323 0.000126815
-0.0384672 -0.0102039 0.00456784
-0.0330192 -0.0113793 0.00942803
-0.0383933 -0.0047648 -0.0113245
-0.0384495 -0.00579053 0.0112111
-0.0406793 0.000371968 -0.0105227
-0.0396241 -0.000712245 0.0106359
-0.0395825 0.00533038 -0.0102815
-0.038701 0.00398784 0.0107354
-0.0328075 0.00992933 -0.00959544
-0.0371773 0.0102394 -0.00447581
-0.0386819 0.0102508 0.000498554
-0.0377073 0.00997657 0.00514757
-0.0326143 0.00917659 0.0102086
-0.05 0 0
-0.05 0 0
-0.05 0 0
-0.05 0 0
-0.05 0 0
-0.05 0 0
-0.05 0 0
-0.05 0 0
-0.05 0 0
-0.05 0 0
-0.05 0 0
-0.05 0 0
-0.05 0 0
-0.05 0 0
-0.05 0 0
-0.05 0 0
-0.05 0 0
-0.05 0 0
-0.05 0 0
-0.05 0 0
-0.05 0 0
-0.05 0 0
-0.05 0 0
-0.05 0 0
-0.05 0 0
0 0 0
-0.00972245 -0.00557445 -0.00819357
-0.00470032 -0.00746942 -0.00487285
0 0 0
0 0 0
-0.00398378 -0.0073851 -0.00307902
0 0 0
0 0 0
0 0 0
0 0 0
-0.00415378 -0.00766193 -0.00153019
-0.00374531 -0.00704505 9.08443e-05
-0.00397375 -0.00739028 0.00168461
0 0 0
-0.00387642 -0.00721599 0.00300695
0 0 0
0 0 0
0 0 0
0 0 0
-0.00464229 -0.00757695 0.00471363
0 0 0
-0.00990974 -0.00576739 0.00810328
-0.00363239 -0.00507438 -0.00453393
0 0 0
-0.00750595 -0.00383156 -0.00722169
-0.00551964 -0.00254901 -0.00631742
-0.00358854 -2.05066e-05 -0.00720105
0 0 0
0 0 0
-0.0034585 -0.00488313 -0.00278732
0 0 0
0 0 0
-0.00752121 -0.00212095 -0.00783048
-0.00276264 -0.000567159 -0.00497595
-0.00977923 -0.00455873 -0.00727097
-0.00421057 -0.00266389 -0.00466749
-0.00858614 -0.00724288 -0.00251195
-0.00967508 -0.00682812 -0.00495095
0 0 0
-0.00642624 -0.00226071 -0.0057311
-0.00855923 -0.00731856 -0.000262562
-0.00301454 -0.00516497 -0.00135523
-0.00278577 -0.00482082 0.00154969
-0.00708958 -0.00812559 0.00257933
-0.0029911 -0.0051584 9.24165e-05
0 0 0
0 0 0
0 0 0
0 0 0
-0.00317042 -0.00480552 0.00291918
-0.00302602 -0.00111066 0.0051353
-0.00383956 -0.0029358 0.00472775
-0.0084278 -0.00263384 0.00746597
0 0 0
-0.00939818 -0.00502382 0.00720159
-0.00787382 -0.00775949 0.00507244
-0.00359768 -0.00517833 0.00455356
-0.00378037 -0.000536377 0.00745096
-0.00522162 -0.00286233 0.00641514
-0.00746821 -0.00402631 0.00721823
0 0 0
0 0 0
0 0 0
-0.00365398 0.00102593 -0.00728741
0 0 0
-0.0066153 0.000463547 -0.00800544
0 0 0
0 0 0
-0.00242845 0.00193916 -0.00459212
-0.00265756 0.000759141 -0.00469209
0 0 0
-0.00656876 0.00291627 -0.00782097
0 0 0
0 0 0
-0.00677455 0.00551638 0.00280995
-0.00737008 0.0026517 0.0054663
-0.00784948 -9.94687e-06 0.0060645
-0.00719535 0.0057688 0.000159983
-0.00643931 0.00300437 -0.0054518
-0.00667269 0.000444201 -0.00578503
0 0 0
-0.00796407 -0.00573395 -0.000140173
-0.00690232 -0.00581328 0.00267405
-0.0244744 0.000103498 8.99349e-05
-0.00666469 0.0054126 0.00542739
-0.00779803 0.0025362 0.00755412
0 0 0
0 0 0
-0.0026587 0.00162029 0.00502825
-0.0028978 0.000382247 0.00505203
0 0 0
0 0 0
-0.00832552 -0.000166619 0.00758521
-0.00692972 -0.00560873 0.00535109
-0.00393379 0.000590305 0.00772542
0 0 0
0 0 0
-0.00361915 0.00324873 -0.00606504
-0.00668433 0.00366743 -0.00673401
-0.00348702 0.00465245 -0.00433666
-0.00363759 0.00212599 -0.00676056
0 0 0
0 0 0
-0.00284056 0.0032339 -0.00420247
-0.00341419 0.00477876 -0.00254539
-0.00744257 0.00541056 -0.0071348
-0.008755 0.00732956 -0.00447672
0 0 0
0 0 0
-0.00799739 0.00735624 -0.0020717
-0.00289847 0.00499031 -0.00114916
-0.00777245 0.0072297 0.000197194
-0.00280751 0.00488566 0.000286349
0 0 0
-0.00273417 0.00473596 0.00170729
0 0 0
-0.00688368 0.00787173 0.00286289
0 0 0
0 0 0
-0.00659747 0.00543654 -0.00518927
0 0 0
-0.00294693 0.00294371 0.00471126
-0.00309717 0.00452519 0.00301995
-0.0079147 0.00484879 0.00747693
0 0 0
-0.00737181 0.00766434 0.00523807
-0.00340452 0.00447202 0.00467158
-0.0038219 0.00292637 0.00665822
-0.00688109 0.00341093 0.00708851
0 0 0
-0.00392812 0.00179938 0.00730508
0 0 0
-0.00936728 0.00533755 -0.00780782
-0.0045066 0.0072004 -0.00451332
0 0 0
-0.00389762 0.0072754 -0.0028621
0 0 0
-0.00352175 0.00674751 0.000327728
-0.00381179 0.00712263 0.00185548
-0.00402722 0.00739486 -0.00123694
0 0 0
-0.00370722 0.00689191 0.00328691
0 0 0
-0.00433383 0.00694404 0.00482917
-0.0094988 0.00510483 0.00810173
-0.0138018 -0.00939612 -0.00765781
-0.0211518 -0.0110199 -0.0110877
-0.0195899 -0.0088203 -0.0114647
-0.0133636 -0.00691729 -0.0101079
-0.0193699 -0.0110729 -0.00904304
-0.0176877 -0.00875096 -0.00922316
-0.0105317 -0.00682385 -0.00768779
-0.0173091 -0.0113322 -0.00349195
-0.0174952 -0.0113548 -0.00652148
-0.011009 -0.00948509 -0.00268603
-0.0166435 -0.0115657 -0.000188371
-0.0109325 -0.00959101 0.0024265
-0.0175897 -0.00940369 0.00925668
-0.0197156 -0.0118194 0.00895276
-0.0179983 -0.012146 0.00600832
-0.0168128 -0.0123308 0.00314657
-0.0104099 -0.00732405 0.00759011
-0.0140007 -0.00976994 0.0074641
-0.0196631 -0.00947457 0.0114265
-0.0215437 -0.0117589 0.0109863
-0.0133349 -0.00744509 0.0100918
-0.0185541 -0.00584914 -0.0118101
-0.0109404 -0.00201016 -0.00955823
-0.0110102 -0.00254733 0.00961987
-0.0183753 -0.00640662 0.0118201
-0.0170947 -0.00309663 -0.0120059
-0.0163954 0.000240246 -0.0119448
-0.00994446 0.00303539 -0.00939691
-0.0163876 0.00353002 -0.0122378
-0.0104426 0.00238104 0.00971193
-0.0168781 -0.000310082 0.0117594
-0.0173728 -0.00351498 0.0118204
-0.01699 0.00277976 0.0119677
-0.0121103 0.00789597 -0.00967873
-0.00932599 0.00754785 -0.00709931
-0.0167999 0.00711094 -0.01169
-0.0094797 0.00713264 0.0076477
-0.0124565 0.00735288 0.0102494
-0.0170029 0.00623446 0.0120631
-0.0136589 0.00965857 -0.00696096
-0.0209103 0.0124402 -0.0101905
-0.0186136 0.0102454 -0.0109377
-0.0167971 0.0114915 -0.00265744
-0.010726 0.00933204 -0.00210485
-0.0189976 0.0122167 -0.00823763
-0.0163346 0.00985836 -0.00878052
-0.0173749 0.012005 -0.00564396
-0.0158662 0.0115024 0.000459367
-0.0104249 0.00925065 0.0028321
-0.0134645 0.00941077 0.00763858
-0.0164262 0.00916604 0.0095795
-0.0173053 0.0118655 0.00664164
-0.018826 0.0115313 0.00940708
-0.0160453 0.0119627 0.0035794
-0.0209356 0.0114111 0.0112898
-0.0188702 0.00921043 0.0116854
-0.0251051 -0.00998583 -0.0132176
-0.0245087 -0.0126475 -0.0106879
-0.028676 -0.0110942 -0.0117264
-0.0298708 -0.0113166 -0.00964197
-0.0244428 -0.0104457 -0.0107773
-0.0312024 -0.0116149 -0.006835
-0.0237297 -0.013778 -0.00405465
-0.0328917 -0.00625129 -0.00975883
-0.0243986 -0.00712315 -0.0106029
-0.0245048 -0.00714807 0.00692958
-0.0421459 -0.00540808 0.00274614
-0.0421485 -0.00560471 5.76342e-05
-0.0334944 -0.00615144 -0.0067279
-0.0242189 -0.0070666 -0.00689275
-0.0241876 -0.0144779 0.0031926
-0.031867 -0.0118665 -0.00359354
-0.032408 -0.0124809 0.002893
-0.0343601 -0.00666248 0.00692057
-0.0329107 -0.0118633 -0.000148392
-0.0253842 -0.0109283 0.0107982
-0.0253574 -0.0133508 0.0103223
-0.0246423 -0.00721824 0.0108722
-0.0326711 -0.0120592 0.00622086
-0.0336552 -0.00706431 0.00984002
-0.0253589 -0.0107743 0.013475
-0.0291149 -0.0121813 0.010896
-0.0307558 -0.0119414 0.00885501
-0.0247524 -0.00352074 -0.0139783
-0.0301074 -0.00903091 -0.0118538
-0.0313331 -0.00892979 -0.009709
-0.0311593 -0.00625441 -0.0121375
-0.0328847 -0.00333781 -0.0124301
-0.0306444 -0.0100389 0.0114283
-0.0323875 -0.00972974 0.0094234
-0.0241955 -0.00383627 0.0144235
-0.0324576 -0.00406357 0.0127951
-0.0312535 -0.00718482 0.0121067
-0.0423695 9.32826e-07 -0.00615242
-0.0334788 -5.01495e-06 -0.0125046
-0.0243394 0.00414484 -0.0142004
-0.0420834 0.00269266 -0.0058056
-0.0336595 0.00713299 -0.00606954
-0.0236736 0.00750962 -0.0064426
-0.0425138 -0.000855179 0.00866178
-0.0424574 -0.00062679 0.00629619
-0.043229 0.00212482 0.00627967
-0.0237327 0.00691581 0.0109779
-0.0241568 0.00658212 0.00692252
-0.0330714 0.00653898 0.010018
-0.0340847 0.00641031 0.00657356
-0.0421802 0.0017547 0.00855834
-0.0327538 -0.000784703 0.0130945
-0.0235405 0.00359648 0.0146101
-0.0245883 0.0113905 -0.01337
-0.024189 0.0114988 -0.0104321
-0.0320943 0.0101866 -0.00914246
-0.0305074 0.010443 -0.0115191
-0.0327584 0.00708961 -0.0120275
-0.041211 0.00538851 -0.00525107
-0.033024 0.0101232 -0.00623212
-0.0235823 0.0112075 -0.00689645
-0.0330416 0.00370803 -0.0120175
-0.0246272 0.0101681 0.0113643
-0.0246357 0.0102723 0.0143708
-0.0321631 0.00938588 0.00998904
-0.030219 0.00911739 0.0121881
-0.041226 0.00416186 0.00858939
-0.0316959 0.0057265 0.0128374
-0.0321087 0.00225543 0.0131701
-0.0244867 0.0139884 -0.00987651
-0.0297544 0.0124966 -0.00877006
-0.0283982 0.0127165 -0.0107326
-0.0231734 0.0142655 -0.00304618
-0.0313699 0.0127469 -0.00615667
-0.0234827 0.0139939 0.00412413
-0.0399948 0.00802546 0.000327194
-0.0315784 0.0127476 0.000573651
-0.0403783 0.00588328 0.000200334
-0.0320323 0.012219 0.00400719
-0.0313862 0.0128983 -0.00295841
-0.0246902 0.0129329 0.0110679
-0.0325086 0.0116282 0.00718582
-0.0302022 0.0114012 0.0096766
-0.0282497 0.0113781 0.0116328
-0.0355476 -0.0106159 -0.00810588
-0.0363231 -0.00782915 -0.0111751
-0.0395961 -0.00566896 -0.00916509
-0.0423462 -0.00406546 -0.00857497
-0.0386603 -0.00781711 -0.00836915
-0.0467369 -0.00309451 -0.00384462
-0.0466869 -0.00565339 -0.00172837
-0.0469857 -0.00339329 -0.00175776
-0.039943 -0.00519679 -0.00806996
-0.0449257 -0.00747411 -0.00573265
-0.0458568 -0.00511627 -0.00606289
-0.0392123 -0.0102748 -0.0025162
-0.0458886 -0.00724689 -0.00371058
-0.0463931 -0.00514834 -0.00390345
-0.0457502 -0.00788406 -0.0017719
-0.0468916 -0.00585471 -8.55368e-05
-0.0394287 -0.0102504 0.00264459
-0.0474809 -0.00453059 0.00152758
-0.047348 -0.00411271 3.58104e-05
-0.0409897 -0.00523038 -0.00540995
-0.0461088 -0.00741738 1.05814e-06
-0.0467258 -0.00585816 0.00148782
-0.0469943 -0.00322675 0.00345371
-0.0359166 -0.0108594 0.00741102
-0.046036 -0.00723487 0.00329976
-0.0465697 -0.00513391 0.00349942
-0.0392457 -0.00835336 0.00807088
-0.0460066 -0.0053495 0.00555548
-0.0450642 -0.00772869 0.00518043
-0.0404474 -0.00601875 0.00802578
-0.0456565 -0.00820208 0.00156658
-0.0367406 -0.00877772 0.0107871
-0.0426052 -0.00453772 0.00801398
-0.0398782 -0.00608255 0.00857951
-0.039506 -0.00204648 -0.010894
-0.0454307 -0.00307822 -0.00786994
-0.046664 -0.00144203 -0.00583301
-0.0464612 -0.00337042 -0.00589924
-0.0455253 -0.00364722 0.00733969
-0.0468476 -0.00198386 0.0053542
-0.046663 -0.00377088 0.00538056
-0.0390978 -0.00312989 0.01093
-0.0473707 0.00021732 -0.00418844
-0.0474744 0.00164235 -0.00477593
-0.0460974 -0.00150814 -0.00806703
-0.0472125 -0.000110893 -0.00595663
-0.0463492 -0.000237391 -0.00810743
-0.040097 0.00305942 -0.0103691
-0.0469365 0.00150428 -0.00636441
-0.0463619 0.00091768 -0.00806698
-0.0462828 -0.000175721 0.00777632
-0.0471523 0.000636129 0.00546701
-0.0470426 -0.000544384 0.00529398
-0.0460778 -0.00214186 0.00762201
-0.0461455 -0.001103 0.00801387
-0.0390236 0.00167006 0.0107677
-0.0371118 0.00777041 -0.0101872
-0.0392404 0.00776125 -0.00780784
-0.046638 0.00339134 -0.00406576
-0.0402014 0.00793116 -0.0051134
-0.0450846 0.00313305 -0.00739482
-0.046181 0.00335847 -0.00589079
-0.0450035 0.00198189 0.00729311
-0.0367157 0.00677928 0.0107388
-0.0395175 0.00692419 0.00833638
-0.046476 0.00224269 0.00559662
-0.0352826 0.00990145 -0.00741684
-0.0397836 0.00595204 -0.00904654
-0.0424039 0.0042886 -0.00835768
-0.0445748 0.0078573 -0.00564232
-0.0456552 0.00536168 -0.00578634
-0.0454284 0.00792435 -0.00349519
-0.0464522 0.00535784 -0.00217139
-0.0456007 0.00783085 -0.00153957
-0.0383494 0.0102771 -0.00206912
-0.0461648 0.00527743 -0.00396518
-0.0386274 0.010117 0.00284786
-0.0456163 0.00491872 0.000204585
-0.0456598 0.00697959 0.000356539
-0.0462304 0.004349 0.00541728
-0.0458952 0.00702788 0.00373553
-0.0464069 0.00413188 0.00396061
-0.0467726 0.00394298 0.00245049
-0.0353886 0.00923385 0.0080809
-0.0451079 0.00689949 0.0056338
-0.0461711 0.00665813 0.00215806
-0.0424701 0.00313348 0.00804159
-0.0399386 0.00492514 0.00900717
-0.05 0 0
-0.05 0 0
-0.05 0 0
-0.05 0 0
-0.05 0 0
-0.05 0 0
-0.05 0 0
-0.05 0 0
-0.05 0 0
-0.05 0 0
-0.05 0 0
-0.05 0 0
-0.05 0 0
-0.05 0 0
-0.05 0 0
-0.05 0 0
-0.05 0 0
-0.05 0 0
-0.05 0 0
-0.05 0 0
-0.05 0 0
-0.05 0 0
-0.05 0 0
-0.05 0 0
-0.05 0 0
-0.05 0 0
-0.05 0 0
-0.05 0 0
-0.05 0 0
-0.05 0 0
-0.05 0 0
-0.05 0 0
-0.05 0 0
-0.05 0 0
-0.05 0 0
-0.05 0 0
-0.05 0 0
-0.05 0 0
-0.05 0 0
-0.05 0 0
-0.05 0 0
-0.05 0 0
-0.05 0 0
-0.05 0 0
-0.05 0 0
-0.05 0 0
-0.05 0 0
-0.05 0 0
-0.05 0 0
-0.05 0 0
-0.05 0 0
-0.05 0 0
-0.05 0 0
-0.05 0 0
-0.05 0 0
-0.05 0 0

CELL_DATA 236
TENSORS stress float
-9718.58 404.075 -978.199
404.075 -2576.74 659.129
-978.199 659.129 528.9

-9314.39 123.186 -47.1712
123.186 -1631.54 669.941
-47.1712 669.941 -554.566

-12219.5 -1301.43 1135.64
-1301.43 -7939.68 -1911.52
1135.64 -1911.52 -8973.8

-7011.11 102.949 -968.489
102.949 411.703 655.497
-968.489 655.497 1028.8

-10935.5 -1507.17 -1253.07
-1507.17 -4865.07 1344.79
-1253.07 1344.79 -6568.78

-13326.2 554.201 -681.427
554.201 -10679 -629.434
-681.427 -629.434 -9685.25

-14695.6 255.322 102.652
255.322 -9082.31 -118.568
102.652 -118.568 -9496.73

-8422.73 -477.402 225.276
-477.402 -475.346 -146.269
225.276 -146.269 -151.553

-9699.48 540.768 469.285
540.768 -1772.49 -29.1991
469.285 -29.1991 -2275.33

-18642 -344.262 109.293
-344.262 -15536.6 -58.7686
109.293 -58.7686 -15745.2

-7825.72 -758.763 452.984
-758.763 1198.67 260.751
452.984 260.751 520.853

-9425.86 -331.194 -2181.76
-331.194 -7062.07 -156.179
-2181.76 -156.179 -4174.62

-7780.38 481.893 -1788.74
481.893 -1977.16 -566.227
-1788.74 -566.227 1096.48

-9833.46 282.312 1123.2
282.312 -2712.22 -307.417
1123.2 -307.417 181.368

-8000.32 564.275 889.215
564.275 2141.48 -162.287
889.215 -162.287 -444.914

-7871.69 -891.867 -695.449
-891.867 3030.88 -119.57
-695.449 -119.57 2194.58

-7954.91 378.046 446.842
378.046 772.492 -212.01
446.842 -212.01 478.346

-8915.84 876.562 233.493
876.562 -532.733 337.707
233.493 337.707 -3127.26

-10171.3 449.238 363.979
449.238 -1686.94 513.569
363.979 513.569 -1380.49

-9249.51 -1150.06 -856.824
-1150.06 -1866.75 609.215
-856.824 609.215 -2797.59

-7998.07 632.274 891.975
632.274 2682.21 88.6317
891.975 88.6317 1476.1

-13660 397.205 -770.42
397.205 -12165.8 -317.013
-770.42 -317.013 -11127

-12446.8 218.466 -1488.54
218.466 -10711.2 -593.55
-1488.54 -593.55 -6727.65

-8756.17 -435.632 390.564
-435.632 -3509.26 -366.073
390.564 -366.073 -647.302

-8634.73 -227.594 39.6463
-227.594 254.006 -491.627
39.6463 -491.627 316.008

-12298.6 -1369.02 -1034.97
-1369.02 -7870.66 1770.76
-1034.97 1770.76 -9579.41

-8215.37 -248.021 -51.5395
-248.021 1439.93 559.724
-51.5395 559.724 2313.29

-11253.6 249.461 -359.856
249.461 -5257 655.725
-359.856 655.725 -5923.1

-8534.1 -45.9702 -253.625
-45.9702 -600.024 -589.508
-253.625 -589.508 -1112.52

-10763.8 -1521.24 -1691.1
-1521.24 -5883.91 1148.58
-1691.1 1148.58 -7243.8

-10008.3 20.3051 -280.473
20.3051 -1891.02 -290.121
-280.473 -290.121 -2712.01

-7928.61 -259.154 -65.5065
-259.154 1844.79 390.722
-65.5065 390.722 1446.38

-10586 409.613 -1747.64
409.613 -8405.94 -369.97
-1747.64 -369.97 -5058

-10088.6 -180.739 -279.111
-180.739 -2866.52 -637.584
-279.111 -637.584 -2370.6

-9393.37 -1912.01 1464.6
-1912.01 -3549.45 -1373.64
1464.6 -1373.64 -5202.71

-7639.11 1051.17 -655.46
1051.17 3413.35 272.762
-655.46 272.762 2244.87

-9623.39 23.0497 -288.172
23.0497 -849.903 -66.5889
-288.172 -66.5889 -847.383

-6897.39 710.02 827.812
710.02 -338.045 -457.691
827.812 -457.691 2633.25

-8775.29 506.641 643.036
506.641 -2164.31 -98.2997
643.036 -98.2997 70.2662

-7710.05 453.995 343.277
453.995 904.644 -558.725
343.277 -558.725 688.171

-8264.27 -220.684 -349.899
-220.684 937.867 -339.839
-349.899 -339.839 980.154

-9703.74 14.5912 -452.611
14.5912 -2286.37 -706.858
-452.611 -706.858 -2138.84

-8871.42 -446.641 -354.737
-446.641 -3629.41 177.012
-354.737 177.012 -722.975

-6401.21 340.353 -1123.73
340.353 1763.26 333.513
-1123.73 333.513 1504.58

-10518.9 1500.55 -1258.77
1500.55 -4143.15 -1058.3
-1258.77 -1058.3 -5741.04

-12685.4 -1273.93 915.296
-1273.93 -8346.45 -1779.7
915.296 -1779.7 -10166.8

-9495.5 933.849 677.72
933.849 -4860.14 17.3425
677.72 17.3425 -5195.56

-9868.52 -264.344 983.486
-264.344 -2426.02 176.395
983.486 176.395 -324.191

-12310.1 1290.21 -956.961
1290.21 -7634.7 -1404.84
-956.961 -1404.84 -9562.87

-14604.2 271.38 604.585
271.38 -13370.6 309.002
604.585 309.002 -12073.6

-8336.64 388.172 458.14
388.172 -554.638 651.293
458.14 651.293 -450.126

-6303.27 1444.78 -1776.25
1444.78 -215.181 -772.486
-1776.25 -772.486 827.353

-9068.07 1770.75 1577.11
1770.75 -3068.87 1156.79
1577.11 1156.79 -4355.07

-8874.86 -193.133 -2133.03
-193.133 -6632.68 -9.16346
-2133.03 -9.16346 -4292.52

-10394.8 133.731 -1986.4
133.731 -8500.17 -348.268
-1986.4 -348.268 -4844.81

-11338.5 233.901 1632.62
233.901 -9338 309.434
1632.62 309.434 -5649.37

-8098.35 -164.135 134.122
-164.135 853.831 -540.852
134.122 -540.852 1481.19

-9914.13 -251.21 -1045.73
-251.21 -2640.54 -266.927
-1045.73 -266.927 -296.141

-8850.03 -201.805 435.424
-201.805 -83.9493 68.8329
435.424 68.8329 -982.1

-12717.5 1505.8 -350.542
1505.8 -9440.8 -506.481
-350.542 -506.481 -11581.4

-9899.66 2245.5 -508.834
2245.5 -4685.84 -430.271
-508.834 -430.271 -7685.01

-10753.6 -68.1225 128.294
-68.1225 -3371.15 2.77374
128.294 2.77374 -3850.9

-10493 -2155.95 -573.25
-2155.95 -5191.93 490.932
-573.25 490.932 -8484.8

-8451.11 738.351 664.372
738.351 -1685.37 338.31
664.372 338.31 -215.18

-8049.24 583.977 1097.12
583.977 -2641.1 171.93
1097.12 171.93 612.574

-9407.37 -733.661 -155.096
-733.661 -977.209 424.693
-155.096 424.693 -3671.82

-9865.33 -339.137 414.346
-339.137 -3133.59 739.363
414.346 739.363 -2332.12

-9220.76 -645.837 318.375
-645.837 -2217.8 -282.668
318.375 -282.668 -792.182

-9918.54 2157.62 731.683
2157.62 -4972.33 582.172
731.683 582.172 -7769.79

-9876.26 1973.18 856.96
1973.18 -6023.68 660.287
856.96 660.287 -7961.1

-8814.71 391.015 12.2041
391.015 -541.82 -24.3674
12.2041 -24.3674 -453.016

-7621.94 735.968 -1128.1
735.968 -2159.27 -148.326
-1128.1 -148.326 743.268

-7137.14 1230.75 1679.07
1230.75 -1088.63 654.66
1679.07 654.66 97.127

-12547.2 1233.5 1001.59
1233.5 -8194.13 1485.77
1001.59 1485.77 -9805.52

-9560.75 -986.069 705.054
-986.069 -2544.3 -757.575
705.054 -757.575 -3163.67

-9854.5 278.334 -1206.24
278.334 -2805.62 346.697
-1206.24 346.697 133.488

-9478.09 -9.87037 -270.472
-9.87037 -3799.87 -1548.84
-270.472 -1548.84 -2104.18

-11838.7 -1201.1 -824.309
-1201.1 -6371.8 680.635
-824.309 680.635 -8416.61

-14663 358.654 328.323
358.654 -10616.2 118.591
328.323 118.591 -10428.7

-9754.89 -498.438 -736.122
-498.438 -2859.06 455.203
-736.122 455.203 -3112.13

-9196.9 359.441 701.396
359.441 -2516.42 172.403
701.396 172.403 -525.936

-7573.53 -623.573 260.187
-623.573 1093.37 245.211
260.187 245.211 742.967

-11174.4 -78.0162 -1.53708
-78.0162 -4736.52 72.4359
-1.53708 72.4359 -5051.56

-14243.3 -11.2757 -141.774
-11.2757 -6952.03 -206.002
-141.774 -206.002 -7862.44

-10223.4 -373.239 1896.52
-373.239 -7894 -28.1254
1896.52 -28.1254 -5574.85

-11678.8 24.5659 1720.53
24.5659 -10034 345.586
1720.53 345.586 -6489.13

-8884.75 142.392 160.599
142.392 -790.573 -178.221
160.599 -178.221 -2364.22

-8791.57 -434.201 -101.458
-434.201 -1665.87 -105.342
-101.458 -105.342 283.121

-8985.63 -62.1307 -736.714
-62.1307 -583.591 240.545
-736.714 240.545 -819.521

-12760 -1470.44 -414.447
-1470.44 -9125.84 540.086
-414.447 540.086 -11340.7

-8864.36 2364.34 -1006.61
2364.34 -3137.96 -281.403
-1006.61 -281.403 -4738

-12201.2 -1749.44 483.098
-1749.44 -7359.85 -419.565
483.098 -419.565 -10170.9

-8075.15 -398.195 340.283
-398.195 1314.78 -102.894
340.283 -102.894 780.852

-9255 -819.32 172.938
-819.32 -596.022 -170.229
172.938 -170.229 -3488.41

-7926.04 514.881 -411.507
514.881 1161.29 300.45
-411.507 300.45 482.543

-8803.94 -2189.36 885.326
-2189.36 -4337.37 -671.899
885.326 -671.899 -6514.7

-7909.37 765.897 -967.097
765.897 2838.51 -39.3512
-967.097 -39.3512 1677.19

-7904.02 45.6731 -537.956
45.6731 2409.38 56.5096
-537.956 56.5096 399.198

-8458.35 -592.368 114.025
-592.368 -61.1558 -684.604
114.025 -684.604 618.507

-10112.2 36.9953 99.1761
36.9953 -3109.83 -127.627
99.1761 -127.627 -2859.55

-11575 -1383.83 -1413.18
-1383.83 -7269.06 1711.57
-1413.18 1711.57 -8046.69

-8800.31 -468.346 -496.811
-468.346 921.451 -71.1705
-496.811 -71.1705 623.149

-10836.6 -54.575 1965.08
-54.575 -9041.99 261.626
1965.08 261.626 -5111.64

-7821.06 -708.646 -406.106
-708.646 1051.42 -210.652
-406.106 -210.652 339.881

-10208.6 -2086.02 621.174
-2086.02 -5088.16 -552.572
621.174 -552.572 -8322.75

-7695.81 -568.203 -118.677
-568.203 1031.31 -114.393
-118.677 -114.393 791.383

-9527.24 -198.448 187.781
-198.448 -2204.99 302.053
187.781 302.053 -2225.03

-9636.75 -234.637 212.804
-234.637 -1111.34 -87.4606
212.804 -87.4606 -871.146

-8881.07 -77.892 42.248
-77.892 911.458 44.8432
42.248 44.8432 2115.64

-8309.42 377.467 54.4478
377.467 -34.2705 -704.414
54.4478 -704.414 595.326

-9343.42 -23.2701 -96.6143
-23.2701 -1181.63 105.09
-96.6143 105.09 -2120.75

-8299.49 513.022 -1203.13
513.022 -401.556 785.525
-1203.13 785.525 70.7669

-10033.2 -393.523 306.629
-393.523 -1348.86 -103.091
306.629 -103.091 -1200.52

-9156.64 -455.985 530.289
-455.985 -607.087 423.881
530.289 423.881 -1845.13

-6970.43 -629.876 -153.421
-629.876 987.102 905.199
-153.421 905.199 -86.0556

-15388.9 -288.446 193.916
-288.446 -11420.1 35.0418
193.916 35.0418 -11143.5

-7486.24 -789.933 1100.6
-789.933 546.031 -516.495
1100.6 -516.495 2573.95

-15029.7 -22.7783 -68.4608
-22.7783 -10132.7 217.258
-68.4608 217.258 -9837.3

-9499.27 676.476 104.413
676.476 -2484.68 579.417
104.413 579.417 -787.123

-6784.18 54.977 1001.44
54.977 3630.94 -781.426
1001.44 -781.426 2878.14

-11847.1 87.4591 -1903.91
87.4591 -10392.3 -576.517
-1903.91 -576.517 -6140.72

-9109.08 -147.206 334.303
-147.206 -3413.37 -263.983
334.303 -263.983 -1060.39

-9723.96 -153.634 1149.03
-153.634 -2620.48 462.901
1149.03 462.901 258.063

-7679.21 861.215 836.947
861.215 3824.52 -688.75
836.947 -688.75 2139.68

-9766.3 -326.527 -767.514
-326.527 -3759.94 -454.507
-767.514 -454.507 -2213.29

-8300.31 1260.12 -1449.69
1260.12 -2319.02 -1097.19
-1449.69 -1097.19 -859.055

-12559.3 1312.72 -980.027
1312.72 -8412.13 -1853.97
-980.027 -1853.97 -9728.67

-10307 1886.66 -1583.44
1886.66 -5593.4 -1388.32
-1583.44 -1388.32 -6050.26

-8768.88 -283.86 170.319
-283.86 151.171 -379.637
170.319 -379.637 1118.95

-9020.39 341.031 245.909
341.031 -1025.69 -20.7601
245.909 -20.7601 -625.363

-8026.86 594.366 342.079
594.366 -397.286 -541.596
342.079 -541.596 -1048.83

-9415.61 166.163 252.678
166.163 -590.868 -184.126
252.678 -184.126 -217.414

-8908 312.09 -617.412
312.09 -558.723 -86.256
-617.412 -86.256 -1038.89

-6914.4 302.023 38.2511
302.023 4056.66 151.164
38.2511 151.164 1738.7

-9123.49 410.703 609.447
410.703 -147.729 -414.35
609.447 -414.35 -1719.75

-13354.4 375.823 353.847
375.823 -8742.37 13.4627
353.847 13.4627 -8723.97

-8247.62 157.566 180.481
157.566 844.12 -399.615
180.481 -399.615 1802.94

-7656.07 -1163.11 -1058.47
-1163.11 2838.87 245.399
-1058.47 245.399 2107.1

-7814.88 -1088.18 1008.02
-1088.18 2568.88 -197.267
1008.02 -197.267 1747.76

-8398.87 -363.211 657.827
-363.211 1414.25 509.008
657.827 509.008 1595.48

-7853.06 245.92 -226.075
245.92 6304.43 -212.835
-226.075 -212.835 5095.06

-7431.25 -777.677 962.519
-777.677 3557.61 221.637
962.519 221.637 2765.51

-8304.55 75.7868 -384.306
75.7868 2536.41 435.969
-384.306 435.969 3756.39

-9384.3 -7.03005 10.7194
-7.03005 -295.682 -341.761
10.7194 -341.761 -442.777

-8317.87 -726.198 -736.793
-726.198 -94.6499 -632.985
-736.793 -632.985 75.2631

-8036.99 -437.887 75.6871
-437.887 -234.176 678.818
75.6871 678.818 482.115

-9458.17 -957.992 286.328
-957.992 -35.8859 -179.029
286.328 -179.029 -1944.68

-9554.42 182.071 -138.456
182.071 -344.276 589.349
-138.456 589.349 -168.65

-8980.8 165.19 -162.836
165.19 -30.0783 414.516
-162.836 414.516 1908.43

-8133.1 208.005 93.4076
208.005 2291.72 -97.7951
93.4076 -97.7951 170.76

-6825.08 -687.187 -511.226
-687.187 5209.92 706.299
-511.226 706.299 6748.7

-9272.6 203.969 -174.129
203.969 -1737.47 -231.51
-174.129 -231.51 -398.04

-9759.62 -214.03 -1174.74
-214.03 -2743.89 -725.434
-1174.74 -725.434 527.927

-9073.7 788.617 -12.1412
788.617 -749.838 -389
-12.1412 -389 -3292.85

-9210.77 -466.086 5.53652
-466.086 -536.6 11.1216
5.53652 11.1216 -747.377

-8591.78 -244.927 -15.8844
-244.927 839.955 408.206
-15.8844 408.206 816.444

-8712.71 248.779 -423.155
248.779 -1355.18 -348.819
-423.155 -348.819 -345.092

-9848.44 389.696 -278.059
389.696 -3890.76 -67.0799
-278.059 -67.0799 -2485.33

-7189.88 920.075 -1504.18
920.075 -156.552 -1195.67
-1504.18 -1195.67 318.41

-10020.8 -465.512 -97.9566
-465.512 -2382.7 313.227
-97.9566 313.227 -2240.95

-10006.8 -1129.21 -355.747
-1129.21 -565.48 -585.182
-355.747 -585.182 -3340.14

-8309.93 -316.913 -336.435
-316.913 2406.35 540.327
-336.435 540.327 4132.1

-12178.8 -1629.29 -652.422
-1629.29 -7569.35 722.415
-652.422 722.415 -10042.1

-9476.42 -746.089 872.697
-746.089 -3073.71 -555.087
872.697 -555.087 -3019.88

-9283.95 -535.494 -919.406
-535.494 -972.016 -478.092
-919.406 -478.092 145.046

-7358.39 153.626 2164.28
153.626 -1819.05 228.689
2164.28 228.689 1430.36

-10828.8 -548.233 586.462
-548.233 -5866.11 309.133
586.462 309.133 -5865.07

-9176.94 -292.378 474.75
-292.378 -782.307 698.156
474.75 698.156 -143.676

-8823.85 414.609 -599.048
414.609 -2545.64 -131.503
-599.048 -131.503 -450.023

-9149.91 370.203 -699.856
370.203 -2729.68 -185.046
-699.856 -185.046 -475.126

-9810.53 252.725 -210.205
252.725 -1644.97 -259.128
-210.205 -259.128 -901.002

-10876.9 -1693.09 1577.02
-1693.09 -6044.29 -1299.76
1577.02 -1299.76 -7253.07

-8841.59 -318.621 -389.803
-318.621 -2492.85 64.4413
-389.803 64.4413 -191.451

-9403.95 355.285 -24.3143
355.285 -1226.39 -244.745
-24.3143 -244.745 -357.972

-14337.5 -166.664 3.22386
-166.664 -8976.95 -194.485
3.22386 -194.485 -9098.84

-9685.17 179.778 -8.14084
179.778 -613.397 -972.24
-8.14084 -972.24 -874.271

-8620.55 -610.27 967.787
-610.27 -1209.46 549.705
967.787 549.705 -1148.25

-10728.7 -501.743 2252.96
-501.743 -8608.1 -415.021
2252.96 -415.021 -6306.48

-8317.12 472.415 -30.1386
472.415 2708.15 62.8445
-30.1386 62.8445 2812.14

-9744.15 -55.7032 21.3855
-55.7032 -987.274 -1094.69
21.3855 -1094.69 -687.503

-9880.53 380.848 1112.6
380.848 -2547.38 -523.552
1112.6 -523.552 346.939

-10621.9 -1753.26 992.541
-1753.26 -5081.87 -644.308
992.541 -644.308 -7224.1

-6931.44 -561.599 706.625
-561.599 6959.74 -19.9584
706.625 -19.9584 8303.1

-7790.1 629.91 -174.155
629.91 1446.78 314.91
-174.155 314.91 977.003

-8938.73 -522.769 -563.06
-522.769 -1949.44 -708.595
-563.06 -708.595 -652.37

-7372 -1508.77 984.701
-1508.77 -242.409 -340.471
984.701 -340.471 -617.864

-13069.5 -140.906 -114.345
-140.906 -6248.65 -142.764
-114.345 -142.764 -5131.84

-11605.8 1187.97 -871.09
1187.97 -9082.8 -183.425
-871.09 -183.425 -9355.04

-8671.14 104.921 53.1077
104.921 -251.958 748.926
53.1077 748.926 760.732

-7478.77 -528.397 -667.437
-528.397 445.856 -14.999
-667.437 -14.999 17.4589

-8201.33 319.795 -422.667
319.795 -1130.37 -304.449
-422.667 -304.449 -921.123

-9697.7 84.6109 -138.646
84.6109 -3375.31 42.9207
-138.646 42.9207 -2543.73

-9016.45 248.98 787.409
248.98 -501.66 -324.445
787.409 -324.445 -1164.1

-8396.53 233.977 737.308
233.977 304.914 200.586
737.308 200.586 -1440.03

-9290.4 491.025 -379.733
491.025 -2189.13 309.097
-379.733 309.097 -908.441

-6948.82 -120.324 -581.905
-120.324 162.485 1028.65
-581.905 1028.65 515.607

-12677.7 387.06 -606.236
387.06 -8128.46 50.7223
-606.236 50.7223 -8078.97

-13450 60.5233 -385.096
60.5233 -8070.81 245.707
-385.096 245.707 -8616.43

-7724.08 81.9135 -176.703
81.9135 1304.57 303.61
-176.703 303.61 114.563

-14614 -210.685 -434.113
-210.685 -9760.29 11.7329
-434.113 11.7329 -10114.8

-9622.63 -169.98 -9.39851
-169.98 -396.527 162.792
-9.39851 162.792 -1001.96

-8818.86 -767.247 2190.19
-767.247 -6190.12 -576.625
2190.19 -576.625 -5003.81

-8417.37 1083.44 -16.3679
1083.44 -2788.01 -453.785
-16.3679 -453.785 -3723.52

-7432.36 78.9213 3.32913
78.9213 2841.94 872.75
3.32913 872.75 3778.74

-7637.1 88.0492 656.826
88.0492 1552.01 -133.016
656.826 -133.016 -1080.8

-7664.94 142.03 61.797
142.03 4296.94 540.394
61.797 540.394 1790.2

-9474.55 -32.1556 -138.017
-32.1556 24.7502 1099.27
-138.017 1099.27 -112.256

-8779.52 187.366 -8.82698
187.366 -1470.09 -178.219
-8.82698 -178.219 -473.357

-8357.31 -766.487 -269.771
-766.487 84.3782 463.382
-269.771 463.382 897.466

-8535.99 101.584 227.477
101.584 85.1106 -503.868
227.477 -503.868 813.76

-16260.3 -218.942 752.494
-218.942 -16614.7 -235.111
752.494 -235.111 -15894

-14040.3 329.694 477.2
329.694 -11211.6 472.244
477.2 472.244 -10009.8

-8711.08 -68.9001 366.465
-68.9001 2169.96 -929.605
366.465 -929.605 3740.51

-10720.8 1752.24 1697.41
1752.24 -6489.82 1346.73
1697.41 1346.73 -6464.45

-8979.87 -425.775 -333.049
-425.775 293.376 -169.746
-333.049 -169.746 508.876

-7605.11 -621.782 513.05
-621.782 -1055.94 325.073
513.05 325.073 2006.78

-8773.28 -149.637 -52.7476
-149.637 240.71 27.0495
-52.7476 27.0495 1073.96

-9983.09 94.9302 162.03
94.9302 -3693.38 -232.567
162.03 -232.567 -2343.75

-11222 2099.98 598.33
2099.98 -6288.22 389.649
598.33 389.649 -8959.95

-8673.61 -304.067 796.142
-304.067 970.602 313.72
796.142 313.72 419.819

-8696.12 2329.59 1110.29
2329.59 -2684.88 480.81
1110.29 480.81 -3900.22

-9542.26 340.637 139.614
340.637 -2404.79 -437.01
139.614 -437.01 -2066.57

-8246.96 132.94 1012.02
132.94 -2214.77 -39.0847
1012.02 -39.0847 -1235.99

-11400 2039.39 -540.874
2039.39 -6190.84 -174.647
-540.874 -174.647 -9421.66

-9563.4 190.081 106.149
190.081 -1672.28 -198.602
106.149 -198.602 -2193.44

-9075.01 -327.689 -173.045
-327.689 76.7942 83.939
-173.045 83.939 1143.41

-9818.46 -1.57124 97.8024
-1.57124 -1104.35 567.169
97.8024 567.169 -881.82

-7487.13 18.443 445.896
18.443 6370.17 251.261
445.896 251.261 5636.45

-12246.6 1083.57 -446.274
1083.57 -9993.85 -276.375
-446.274 -276.375 -10752.5

-8744.97 1162.2 19.2205
1162.2 -602.917 206.368
19.2205 206.368 -2484.52

-7839.62 1273.67 -99.1078
1273.67 582.25 -544.996
-99.1078 -544.996 -1651.63

-6740.54 943.98 1764.3
943.98 -523.525 797.95
1764.3 797.95 191.273

-10061.1 -166.718 2527.42
-166.718 -8258.19 -56.1897
2527.42 -56.1897 -4286.05

-11846.7 1061.47 808.142
1061.47 -8475.91 247.471
808.142 247.471 -8552.3

-8645.43 1039.65 1473.29
1039.65 -2563.73 817.716
1473.29 817.716 -1001.07

-12317 1310.66 1166.57
1310.66 -8344.67 1858.37
1166.57 1858.37 -8965.29

