# vtk DataFile Version 3.0
vtk output at time 0.8
ASCII
DATASET UNSTRUCTURED_GRID
POINTS 527 float
0 0 0 0 0 0.05 0 0 0.1 
0 0 0.15 0 0 0.2 0 0.05 0 
0 0.05 0.05 0 0.05 0.1 0 0.05 0.15 
0 0.05 0.2 0 0.1 0 0 0.1 0.05 
0 0.1 0.1 0 0.1 0.15 0 0.1 0.2 
0 0.15 0 0 0.15 0.05 0 0.15 0.1 
0 0.15 0.15 0 0.15 0.2 0 0.2 0 
0 0.2 0.05 0 0.2 0.1 0 0.2 0.15 
0 0.2 0.2 0.0369807 -0.00806261 -0.00810198 0.0407514 -0.00771252 0.0458995 
0.0417821 -0.00807141 0.0999268 0.0409859 -0.00812845 0.154001 0.0366815 -0.00838496 0.208138 
0.0405366 0.0463248 -0.00812216 0.0407683 0.0459753 0.208141 0.0417567 0.100362 -0.00789411 
0.0412767 0.0998462 0.207958 0.042186 0.154702 -0.00781868 0.0419296 0.154196 0.20826 
0.0369472 0.208619 -0.00762434 0.040774 0.207864 0.0462352 0.0420783 0.207916 0.100291 
0.0412072 0.207981 0.154347 0.0368598 0.208303 0.208217 0.0799529 -0.0100212 -0.0107265 
0.0807411 -0.0114211 0.0438173 0.0808399 -0.011305 0.0997293 0.0793311 -0.0119505 0.155599 
0.0797388 -0.0107098 0.21071 0.0796976 0.0441397 -0.0114905 0.0798112 0.0438647 0.211906 
0.0805947 0.100158 -0.0115862 0.0810757 0.099923 0.211926 0.0801192 0.156547 -0.0121996 
0.0805329 0.155738 0.212456 0.0801283 0.211355 -0.0103439 0.0803358 0.212127 0.0445926 
0.0816179 0.211468 0.100442 0.0796149 0.211418 0.156262 0.0802422 0.210333 0.211442 
0.123482 -0.00909667 -0.00861172 0.119675 -0.00888084 0.0457837 0.117965 -0.00847353 0.100134 
0.119221 -0.00857492 0.153845 0.123161 -0.00965179 0.207997 0.119241 0.0459356 -0.00957485 
0.119232 0.0451767 0.209527 0.117515 0.100289 -0.00893925 0.118383 0.0994855 0.209028 
0.118205 0.154475 -0.0086697 0.119037 0.153475 0.209038 0.123295 0.208496 -0.00804334 
0.120266 0.208615 0.046327 0.119077 0.20857 0.100393 0.11976 0.208536 0.15419 
0.123416 0.208 0.208524 0.16 0 0 0.16 0 0.05 
0.16 0 0.1 0.16 0 0.15 0.16 0 0.2 
0.16 0.05 0 0.16 0.05 0.05 0.16 0.05 0.1 
0.16 0.05 0.15 0.16 0.05 0.2 0.16 0.1 0 
0.16 0.1 0.05 0.16 0.1 0.1 0.16 0.1 0.15 
0.16 0.1 0.2 0.16 0.15 0 0.16 0.15 0.05 
0.16 0.15 0.1 0.16 0.15 0.15 0.16 0.15 0.2 
0.16 0.2 0 0.16 0.2 0.05 0.16 0.2 0.1 
0.16 0.2 0.15 0.16 0.2 0.2 0 0.025 0 
0.0175514 -0.00473283 -0.00705168 0.0213267 -0.00630367 0.0208746 0 0 0.025 
0 0.025 0.025 0.0218629 -0.00628184 0.047437 0 0.025 0.05 
0 0.025 0.075 0 0 0.075 0 0.025 0.1 
0.0217035 -0.0065258 0.0737554 0.022018 -0.00598553 0.100107 0.0218444 -0.00629429 0.12645 
0 0 0.125 0.0219435 -0.00613232 0.15259 0 0.025 0.175 
0 0.025 0.15 0 0 0.175 0 0.025 0.125 
0.0213774 -0.00636821 0.179064 0 0.025 0.2 0.0173826 -0.0048525 0.207059 
0.0221041 0.020731 0.0212023 0 0.05 0.025 0.0192232 0.0217109 -0.00610354 
0.0206641 0.0478172 -0.00534339 0.0221312 0.0749247 -0.00616681 0 0.075 0.025 
0 0.075 0 0.0221916 0.0208725 0.0477009 0 0.05 0.075 
0 0.075 0.05 0.0438435 0.073223 0.0184035 0.0227563 0.0745157 0.0207451 
0.0420179 0.0461619 0.0189321 0.0216065 0.0477377 0.0210575 0.0429777 0.0189375 0.0729458 
0.0420544 0.0193147 0.045904 0 0.075 0.075 0.0447314 0.0731032 0.0451703 
0.0429904 0.0188724 0.0998013 0.0225531 0.0206249 0.0739171 0.0227389 0.0208839 0.126336 
0.0442436 0.0181347 0.127196 0.0225831 0.0206206 0.100114 0 0.05 0.125 
0 0.075 0.125 0 0.075 0.1 0 0.05 0.175 
0.0224388 0.0209273 0.152497 0.0225385 0.0740857 0.179374 0.0218992 0.0475481 0.178998 
0.0431256 0.0728433 0.181294 0 0.075 0.15 0.0423314 0.0458433 0.181047 
0.0435932 0.0184919 0.15427 0.022144 0.0206645 0.178885 0.0219825 0.0745334 0.206375 
0.0208952 0.0476126 0.205441 0.0192383 0.0215941 0.206165 0 0.075 0.175 
0 0.075 0.2 0 0.125 0 0.0221065 0.100832 -0.00621803 
0 0.1 0.025 0.0446583 0.100395 0.0181775 0 0.125 0.025 
0 0.125 0.05 0.0230332 0.126633 0.0210451 0.0228402 0.100619 0.0209835 
0 0.1 0.075 0.0446217 0.127432 0.0183284 0 0.125 0.075 
0 0.1 0.125 0.0443135 0.154645 0.127354 0.0438962 0.127248 0.154626 
0.0434465 0.100012 0.15508 0.0439253 0.154833 0.100115 0.0446401 0.127505 0.0453854 
0.0444404 0.100365 0.0451266 0 0.125 0.1 0.0433989 0.0452433 0.0998836 
0.0442863 0.0451342 0.127237 0.0803279 0.100112 0.100074 0.0445073 0.154594 0.154596 
0.043581 0.12714 0.181397 0 0.125 0.175 0 0.125 0.15 
0.0228451 0.126386 0.179313 0.0226343 0.100336 0.179308 0 0.1 0.175 
0 0.125 0.125 0.0431862 0.0998921 0.181406 0.0443477 0.0453145 0.154515 
0.0218815 0.100499 0.206601 0 0.125 0.2 0 0.15 0.025 
0.0220904 0.152751 -0.00517827 0.0197506 0.178177 -0.00572295 0.0222059 0.178937 0.021332 
0.0221006 0.126782 -0.00576599 0 0.175 0.025 0 0.175 0 
0.0226833 0.152733 0.0213997 0.0222048 0.179061 0.0478614 0.0438973 0.154557 0.0189529 
0.0427578 0.18115 0.0462259 0 0.175 0.05 0 0.15 0.075 
0.0433969 0.181204 0.0732572 0.0226348 0.179271 0.0740446 0.0435416 0.181106 0.10015 
0.022699 0.179195 0.100249 0 0.175 0.1 0.022771 0.17909 0.12646 
0 0.175 0.075 0.0443535 0.181715 0.127415 0 0.15 0.125 
0 0.175 0.125 0.0445713 0.154573 0.0455873 0 0.15 0.175 
0.0226001 0.1525 0.179029 0.0224772 0.178884 0.152581 0.0435064 0.154093 0.181325 
0 0.175 0.15 0.0439663 0.181514 0.154425 0.0222724 0.178804 0.178988 
0.0219448 0.152481 0.205692 0.0195992 0.17796 0.206068 0 0.175 0.175 
0.0218671 0.126533 0.206241 0 0.175 0.2 0.0176862 0.204573 -0.00676306 
0.0214389 0.206112 0.0211481 0 0.2 0.025 0.0219086 0.206214 0.047573 
0 0.2 0.075 0.0221596 0.205783 0.100277 0.0219457 0.20612 0.126581 
0.0217755 0.20634 0.0739572 0 0.2 0.125 0.0220533 0.205906 0.15281 
0 0.2 0.175 0.0215735 0.205902 0.179144 0.0175761 0.204375 0.207056 
0.0391577 -0.00798515 0.018607 0.0583232 -0.00927938 -0.00926045 0.0594773 0.0176048 -0.00957605 
0.0395105 0.0191231 -0.00850434 0.0596071 -0.00928079 0.0175199 0.0608341 0.0176965 0.017337 
0.0415799 0.0192501 0.0185766 0.0610473 -0.00946348 0.072128 0.0609166 -0.00946563 0.0446184 
0.0411209 -0.00800889 0.0727946 0.0616186 -0.00968186 0.0998644 0.0411896 -0.00813028 0.127069 
0.060898 0.0172027 0.182775 0.059325 -0.00987944 0.182537 0.0604513 -0.010159 0.155033 
0.0614827 -0.0103738 0.127643 0.0416708 0.018879 0.181418 0.0390097 -0.00827084 0.181377 
0.0594159 0.0171518 0.209627 0.0580228 -0.00981404 0.20931 0.0395269 0.0187778 0.208573 
0.0601719 0.045075 -0.00986468 0.0412158 0.0732722 -0.00811378 0.04116 0.0728871 0.208161 
0.0603211 0.0447118 0.20993 0.0612799 0.0723715 -0.0100888 0.0617735 0.100172 -0.0100957 
0.0419803 0.127541 -0.00802584 0.0617809 0.127908 -0.0103764 0.0415697 0.127018 0.208263 
0.0614005 0.0997592 0.209881 0.0610769 0.0721131 0.209943 0.0613055 0.127314 0.210101 
0.0403778 0.181722 -0.00822711 0.0424639 0.181378 0.0189834 0.0613697 0.15597 -0.00985016 
0.0423175 0.181047 0.181492 0.0401083 0.181252 0.208738 0.0612746 0.155231 0.210159 
0.0391523 0.208266 0.0190834 0.0584246 0.210514 -0.00862144 0.0601065 0.183632 -0.00923807 
0.0613645 0.209657 0.0727492 0.0412882 0.207942 0.0732057 0.0597938 0.210309 0.0180749 
0.061768 0.183275 0.017635 0.0609284 0.210084 0.0452452 0.0621239 0.209698 0.100353 
0.0415153 0.207919 0.127379 0.039305 0.208077 0.181533 0.0616613 0.182697 0.18304 
0.0608868 0.210005 0.155549 0.0598886 0.209745 0.182926 0.0619472 0.210129 0.127974 
0.0583829 0.209632 0.209575 0.0599156 0.18274 0.20987 0.079942 0.01669 -0.0109135 
0.0804059 -0.0105276 0.0162207 0.101823 -0.00936201 -0.00978036 0.101012 -0.00950491 0.0170281 
0.0804903 0.0163246 0.0161169 0.100101 -0.00973057 0.044376 0.0810049 -0.0114545 0.0716628 
0.0988176 0.0448052 0.0168821 0.0804847 0.044053 0.0162205 0.0804571 0.0440705 0.155757 
0.116563 0.0455526 0.12732 0.116562 0.0453508 0.100078 0.098395 0.0448783 0.0444338 
0.0806397 0.0441025 0.0442967 0.0805687 -0.0120357 0.127598 0.0996008 -0.00993573 0.0720542 
0.0991501 -0.0104346 0.127395 0.097793 0.0445165 0.155789 0.0987848 -0.00990309 0.0999005 
0.0796792 0.0160155 0.183962 0.0796956 -0.0110158 0.18351 0.0802933 0.0440961 0.184042 
0.0988197 -0.0100177 0.155142 0.0982152 0.0441894 0.183246 0.0797522 0.016114 0.211196 
0.101483 -0.0101908 0.209146 0.100277 -0.00994159 0.182352 0.0801735 0.0720553 -0.0116434 
0.100766 0.0174256 -0.00990649 0.099988 0.0175324 0.0169413 0.100046 0.0447341 -0.0101393 
0.0987668 0.0721984 -0.0103835 0.100349 0.0166703 0.209606 0.0991221 0.0169395 0.182874 
0.0806748 0.0718837 0.21203 0.0991343 0.0716941 0.210755 0.100003 0.0440491 0.210182 
0.116367 0.100004 0.0448538 0.0983045 0.0999643 -0.0104731 0.0804173 0.128417 -0.0118419 
0.116566 0.127234 0.0451545 0.0982429 0.155947 0.0449765 0.0809991 0.156267 0.044639 
0.116068 0.0993441 0.182313 0.1162 0.0995229 0.155265 0.11557 0.126822 0.155273 
0.0808897 0.155752 0.184122 0.080619 0.155535 0.155725 0.0986697 0.155556 0.183296 
0.0978634 0.155405 0.155442 0.116347 0.126533 0.182212 0.0989523 0.099412 0.210989 
0.0811228 0.127984 0.212184 0.0802278 0.184445 -0.0111215 0.0805182 0.184597 0.0163495 
0.0992224 0.183468 0.0174053 0.100377 0.183682 -0.00960115 0.0986554 0.155879 -0.0100263 
0.117262 0.154486 0.0456515 0.098621 0.183427 0.0448318 0.0809551 0.184335 0.0442903 
0.098583 0.128071 -0.0100401 0.0801025 0.183419 0.18442 0.0802124 0.183509 0.211914 
0.0992 0.182879 0.183259 0.100611 0.182668 0.210132 0.117231 0.153563 0.182159 
0.0996361 0.154861 0.210733 0.099357 0.126965 0.211054 0.0803321 0.211681 0.0167961 
0.101037 0.210451 0.0177467 0.101995 0.210654 -0.00897596 0.0813061 0.211914 0.0724314 
0.0998494 0.210611 0.044901 0.0809263 0.211679 0.128331 0.118095 0.181689 0.100266 
0.0997302 0.210638 0.100453 0.117808 0.154904 0.100165 0.0993476 0.210229 0.128306 
0.0998486 0.210758 0.072545 0.0800818 0.210744 0.184098 0.0988068 0.20968 0.155921 
0.100604 0.209593 0.182964 0.102076 0.20963 0.20969 0.121335 -0.00905276 0.0182011 
0.120701 0.018347 -0.00946071 0.142994 -0.00483439 -0.00792141 0.14087 0.0214914 -0.00727562 
0.119061 0.0183886 0.0179431 0.137651 0.0473812 0.0467378 0.137677 0.0201687 0.0735522 
0.137472 0.0470807 0.073508 0.118102 0.0455907 0.0182011 0.138937 -0.00632416 0.0201441 
0.138254 0.0206775 0.0198749 0.118728 -0.00869203 0.0729297 0.138224 -0.00615554 0.0468828 
0.137891 0.0206461 0.0467024 0.138369 -0.00675389 0.0735204 0.137542 0.0199803 0.0999438 
0.11851 -0.00866766 0.12724 0.137058 0.0460796 0.126292 0.137208 0.0464652 0.100043 
0.117345 0.0455909 0.0454636 0.138141 -0.00635194 0.10003 0.137624 0.0199809 0.126282 
0.137443 0.0472967 0.152966 0.121014 -0.00918393 0.181267 0.138083 -0.00609538 0.152808 
0.13773 0.0206877 0.152978 0.118575 0.0180127 0.181859 0.138119 0.020513 0.179709 
0.138801 -0.00649468 0.179408 0.117694 0.0449786 0.181821 0.138421 -0.00702178 0.12636 
0.120388 0.0176336 0.209173 0.140691 0.0211327 0.206814 0.14278 -0.00514989 0.207426 
0.118394 0.0732286 -0.00923397 0.13858 0.0473863 -0.00667578 0.137681 0.0737722 0.020029 
0.137819 0.047151 0.0200036 0.138534 0.0469599 0.206241 0.137529 0.0733645 0.179578 
0.137661 0.0468563 0.17958 0.118749 0.072429 0.209302 0.137192 0.10017 0.0463818 
0.137051 0.126376 0.0458546 0.138069 0.0736919 -0.00687062 0.137252 0.0998861 0.0198777 
0.13785 0.0998029 -0.00692228 0.117898 0.127573 -0.00878903 0.137451 0.126274 0.019553 
0.137848 0.125814 -0.00687839 0.137937 0.124941 0.206632 0.137293 0.125579 0.179657 
0.1374 0.0995982 0.179501 0.138096 0.0732294 0.206489 0.138011 0.0991321 0.206813 
0.118808 0.126504 0.209113 0.120049 0.181549 -0.00856126 0.118552 0.181509 0.0184754 
0.137741 0.152886 0.0465154 0.117896 0.181638 0.0457421 0.138818 0.152673 -0.00626176 
0.138039 0.152855 0.0200018 0.138956 0.151767 0.206172 0.12039 0.180863 0.208996 
0.118348 0.180933 0.181928 0.137857 0.151957 0.179738 0.121496 0.208401 0.0188319 
0.142795 0.205076 -0.00777443 0.140771 0.178713 -0.00706009 0.139177 0.206642 0.0202384 
0.138406 0.179536 0.0201193 0.138557 0.206741 0.047078 0.137855 0.179563 0.0731702 
0.138479 0.206684 0.0737233 0.119345 0.208631 0.0733106 0.138055 0.179483 0.0466595 
0.119087 0.208581 0.127284 0.138599 0.179099 0.100164 0.138459 0.205894 0.100295 
0.137955 0.178758 0.179534 0.138188 0.206016 0.153091 0.137881 0.178562 0.153332 
0.137618 0.178376 0.127069 0.121369 0.20799 0.181689 0.138791 0.20589 0.179704 
0.138022 0.205684 0.126786 0.140747 0.177831 0.206772 0.142684 0.20429 0.207701 
0.16 0.025 0 0.16 0 0.025 0.16 0.025 0.025 
0.16 0.025 0.05 0.16 0.025 0.075 0.16 0 0.075 
0.16 0.025 0.1 0.16 0 0.125 0.16 0.025 0.125 
0.16 0.025 0.15 0.16 0 0.175 0.16 0.025 0.175 
0.16 0.025 0.2 0.16 0.075 0.025 0.16 0.075 0 
0.16 0.05 0.025 0.16 0.075 0.05 0.16 0.05 0.075 
0.16 0.075 0.125 0.16 0.075 0.075 0.16 0.075 0.1 
0.16 0.05 0.125 0.16 0.075 0.15 0.16 0.05 0.175 
0.16 0.075 0.175 0.16 0.075 0.2 0.16 0.1 0.025 
0.16 0.125 0 0.16 0.1 0.075 0.16 0.125 0.025 
0.16 0.125 0.05 0.16 0.125 0.075 0.16 0.1 0.125 
0.16 0.125 0.1 0.16 0.125 0.125 0.16 0.125 0.15 
0.16 0.125 0.175 0.16 0.1 0.175 0.16 0.125 0.2 
0.16 0.175 0 0.16 0.175 0.025 0.16 0.15 0.025 
0.16 0.15 0.075 0.16 0.175 0.05 0.16 0.175 0.125 
0.16 0.15 0.125 0.16 0.175 0.075 0.16 0.175 0.1 
0.16 0.15 0.175 0.16 0.175 0.15 0.16 0.175 0.175 
0.16 0.175 0.2 0.16 0.2 0.025 0.16 0.2 0.075 
0.16 0.2 0.125 0.16 0.2 0.175 

CELLS 236 2596
10 69 93 88 68 452 510 453 449 450 451 
10 28 47 45 44 255 323 256 257 318 319 
10 93 69 88 94 452 453 510 523 454 511 
10 43 49 86 85 308 342 309 310 343 503 
10 5 1 26 6 102 103 120 121 104 127 
10 82 86 81 63 495 493 494 421 422 423 
10 7 11 48 6 136 163 137 128 129 130 
10 37 17 54 38 208 209 285 286 210 290 
10 55 13 12 51 182 171 172 361 183 173 
10 90 86 49 85 505 342 344 504 503 343 
10 37 52 50 36 287 352 288 282 283 284 
10 91 92 65 86 519 433 434 506 507 435 
10 82 65 86 63 436 435 495 421 424 422 
10 25 5 0 26 122 98 99 243 120 100 
10 46 32 6 48 268 131 132 326 269 130 
10 57 46 58 62 327 328 383 384 329 387 
10 26 41 25 46 247 244 243 248 299 245 
10 22 38 39 17 235 291 236 211 210 212 
10 55 49 12 54 345 174 172 373 346 175 
10 26 5 6 30 120 121 127 249 123 133 
10 25 30 26 46 246 249 243 245 264 248 
10 11 15 16 34 164 194 165 166 195 201 
10 82 65 87 86 436 437 496 495 435 508 
10 15 34 36 37 195 276 196 197 277 282 
10 43 85 64 48 310 425 311 312 336 337 
10 1 5 26 0 102 120 103 101 98 100 
10 52 37 50 53 287 288 352 368 289 353 
10 60 80 59 86 404 398 399 405 489 400 
10 48 7 6 43 137 128 130 312 138 134 
10 92 71 96 91 462 463 521 519 464 520 
10 26 7 43 6 139 138 250 127 128 134 
10 6 26 46 42 127 248 132 135 251 303 
10 32 15 10 11 198 160 161 167 164 162 
10 90 71 70 49 465 459 460 344 347 348 
10 28 9 8 3 154 146 147 112 113 114 
10 68 69 50 66 449 354 355 439 440 356 
10 49 90 54 70 344 374 346 348 460 375 
10 28 43 7 44 258 138 140 257 313 141 
10 92 72 71 67 469 466 462 445 446 447 
10 71 56 51 72 381 362 363 466 382 364 
10 50 37 16 53 288 202 203 353 289 204 
10 5 6 30 32 121 133 123 124 131 265 
10 39 19 35 40 224 225 279 292 226 280 
10 12 11 50 48 168 169 176 177 163 338 
10 21 15 37 16 199 197 233 205 194 202 
10 28 4 9 3 117 118 154 112 115 113 
10 80 84 58 85 490 388 389 491 499 390 
10 15 36 20 37 196 230 200 197 282 231 
10 15 20 21 37 200 232 199 197 231 233 
10 19 18 35 13 218 219 225 184 185 186 
10 39 51 35 18 293 281 279 220 221 219 
10 15 34 37 16 195 277 197 194 201 202 
10 19 23 39 18 227 239 224 218 222 220 
10 5 6 32 11 121 131 124 125 129 167 
10 10 5 32 11 126 124 161 162 125 167 
10 19 33 14 13 228 192 193 184 187 188 
10 26 41 46 42 247 299 248 251 300 303 
10 24 19 39 40 229 224 241 242 226 292 
10 51 91 67 65 365 448 366 367 434 438 
10 17 21 37 16 213 233 208 206 205 202 
10 37 22 21 17 237 234 233 208 211 213 
10 49 91 65 86 349 434 350 342 506 435 
10 7 1 26 2 105 103 139 107 106 108 
10 17 55 12 54 214 172 178 209 373 175 
10 19 33 13 35 228 187 184 225 272 186 
10 7 2 26 27 107 108 139 142 109 252 
10 33 9 8 31 155 146 148 266 156 149 
10 55 18 39 17 223 220 294 214 215 212 
10 23 22 39 17 238 236 239 216 211 212 
10 18 23 39 17 222 239 220 215 216 212 
10 26 7 27 43 139 142 252 250 138 253 
10 32 15 11 34 198 164 167 270 195 166 
10 39 19 18 35 224 218 220 279 225 219 
10 23 19 39 24 227 224 239 240 229 241 
10 28 9 31 8 154 156 259 147 146 149 
10 28 4 29 9 117 119 260 154 118 157 
10 51 91 49 71 365 349 351 363 464 347 
10 96 71 90 91 463 465 515 520 464 516 
10 13 55 12 17 182 172 171 189 214 178 
10 92 71 91 67 462 464 519 445 447 448 
10 25 5 26 30 122 120 243 246 123 249 
10 47 61 45 60 331 324 323 332 406 325 
10 33 49 8 13 273 150 148 187 190 151 
10 85 90 64 48 504 426 425 336 339 337 
10 13 9 8 33 158 146 151 187 155 148 
10 78 64 84 83 427 428 484 485 429 497 
10 6 32 11 48 131 167 129 130 269 163 
10 16 37 54 53 202 285 207 204 289 371 
10 47 33 8 31 274 148 152 267 266 149 
10 1 7 26 6 105 139 103 104 128 127 
10 76 80 60 81 479 404 407 480 492 408 
10 90 94 69 95 517 454 455 518 524 456 
10 90 50 70 66 357 358 460 441 356 442 
10 7 2 27 28 107 109 142 140 110 254 
10 29 28 47 45 260 255 261 262 256 323 
10 3 7 8 28 116 143 114 112 140 147 
10 29 28 31 47 260 259 263 261 255 267 
10 47 33 49 8 274 273 333 152 148 150 
10 28 8 31 47 147 149 259 255 152 267 
10 90 70 69 66 460 457 455 441 442 440 
10 71 97 92 96 467 522 462 463 526 521 
10 58 46 64 62 328 330 391 387 329 417 
10 13 9 33 14 158 155 187 188 159 192 
10 39 56 40 51 295 297 292 293 362 298 
10 3 7 28 2 116 140 112 111 107 110 
10 46 57 58 41 327 383 328 299 301 302 
10 90 50 48 70 357 338 339 460 358 340 
10 90 54 70 48 374 375 460 339 341 340 
10 58 43 64 42 314 311 391 304 305 306 
10 28 43 27 7 258 253 254 140 138 142 
10 8 49 47 44 150 333 152 153 320 318 
10 28 8 47 44 147 152 255 257 153 318 
10 43 49 12 44 308 174 179 313 320 180 
10 12 49 13 44 174 190 171 180 320 191 
10 49 8 13 44 150 151 190 320 153 191 
10 12 13 7 44 171 144 145 180 191 141 
10 43 12 7 44 179 145 138 313 180 141 
10 13 8 7 44 151 143 144 191 153 141 
10 7 8 28 44 143 147 140 141 153 257 
10 91 51 49 65 365 351 349 434 367 350 
10 92 87 65 86 509 437 433 507 508 435 
10 63 61 60 82 414 406 409 421 415 410 
10 60 61 77 82 406 416 411 410 415 483 
10 67 51 72 71 366 364 446 447 363 466 
10 91 92 67 65 519 445 448 434 433 438 
10 63 60 81 82 409 408 423 421 410 494 
10 76 60 77 82 407 411 481 482 410 483 
10 60 76 81 82 407 480 408 410 482 494 
10 39 56 51 55 295 362 293 294 379 361 
10 18 35 13 51 219 186 185 221 281 183 
10 55 13 51 18 182 183 361 223 185 221 
10 49 55 12 51 345 172 174 351 361 173 
10 35 33 13 51 272 187 186 281 275 183 
10 33 49 13 51 273 190 187 275 351 183 
10 49 12 13 51 174 171 190 351 173 183 
10 55 13 18 17 182 185 223 214 189 215 
10 71 56 55 51 381 379 380 363 362 361 
10 51 40 39 35 298 292 293 281 280 279 
10 37 36 50 34 282 284 288 277 276 278 
10 47 60 44 65 332 321 318 334 412 322 
10 49 47 44 65 333 318 320 350 334 322 
10 47 61 60 63 331 406 332 335 414 409 
10 43 44 60 65 313 321 315 316 322 412 
10 43 49 44 65 308 320 313 316 350 322 
10 39 51 18 55 293 221 220 294 361 223 
10 54 39 38 17 296 291 290 209 212 210 
10 90 70 95 69 460 461 518 455 457 456 
10 49 12 54 85 174 175 346 343 181 376 
10 71 49 54 70 347 346 377 459 348 375 
10 51 91 71 67 365 464 363 366 448 447 
10 49 55 51 71 345 361 351 347 380 363 
10 6 43 26 42 134 250 127 135 305 251 
10 73 58 78 57 392 393 471 385 383 386 
10 37 22 17 38 237 211 208 286 235 210 
10 43 49 65 86 308 350 316 309 342 435 
10 59 43 60 86 317 315 399 400 309 405 
10 60 43 65 86 315 316 412 405 309 435 
10 63 60 65 86 409 412 424 422 405 435 
10 60 63 81 86 409 423 408 405 422 493 
10 37 17 16 54 208 206 202 285 209 207 
10 71 95 90 70 468 518 465 459 461 460 
10 49 55 71 54 345 380 347 346 373 377 
10 95 71 90 96 468 465 518 525 463 515 
10 88 69 66 89 453 440 443 512 458 444 
10 90 49 54 85 344 346 374 504 343 376 
10 78 64 62 84 427 417 418 484 428 419 
10 90 66 89 64 441 444 513 426 430 431 
10 54 90 85 48 374 504 376 341 339 336 
10 69 68 88 66 449 451 453 440 439 443 
10 9 29 28 31 157 260 154 156 263 259 
10 54 12 50 48 175 176 359 341 177 338 
10 88 69 89 94 453 458 512 511 454 514 
10 78 58 62 57 393 387 418 386 383 384 
10 69 54 50 70 378 359 354 457 375 358 
10 90 86 91 49 505 506 516 344 342 349 
10 12 54 85 48 175 376 181 177 341 336 
10 89 66 88 64 444 443 512 431 430 432 
10 88 84 89 64 500 501 512 432 428 431 
10 69 70 50 66 457 358 354 440 442 356 
10 49 43 12 85 308 179 174 343 310 181 
10 92 72 97 71 469 470 522 462 466 467 
10 90 94 89 69 517 514 513 455 454 458 
10 69 54 53 50 378 371 372 354 359 353 
10 68 69 52 50 449 369 370 355 354 352 
10 48 7 43 12 137 138 312 177 145 179 
10 69 90 66 89 455 441 440 458 513 444 
10 59 43 86 85 317 309 400 401 310 503 
10 60 80 86 81 404 489 405 408 492 493 
10 69 53 52 50 372 368 369 354 353 352 
10 90 71 49 91 465 347 344 516 464 349 
10 50 37 34 16 288 277 278 203 202 201 
10 54 16 53 50 207 204 371 359 203 353 
10 46 32 30 6 268 265 264 132 131 133 
10 32 34 11 50 270 166 167 271 278 169 
10 12 17 54 50 178 209 175 176 217 359 
10 17 16 54 50 206 207 209 217 203 359 
10 11 17 12 50 170 178 168 169 217 176 
10 11 16 17 50 165 206 170 169 203 217 
10 11 34 16 50 166 201 165 169 278 203 
10 11 7 48 12 136 137 163 168 145 177 
10 64 50 90 66 360 357 426 430 356 441 
10 90 89 84 64 513 501 502 426 431 428 
10 85 59 58 80 401 394 390 491 398 389 
10 60 45 47 44 325 323 332 321 319 318 
10 11 32 50 48 167 271 169 163 269 338 
10 50 64 90 48 360 426 357 338 337 339 
10 43 12 85 48 179 181 310 312 177 336 
10 59 43 85 64 317 310 401 402 311 425 
10 30 6 26 46 133 127 249 264 132 248 
10 46 41 58 42 299 302 328 303 300 304 
10 90 84 85 64 502 499 504 426 428 425 
10 84 62 78 79 419 418 484 487 420 486 
10 70 54 50 48 375 359 358 340 341 338 
10 78 74 79 58 473 474 486 393 395 396 
10 58 46 42 64 328 303 304 391 330 306 
10 54 39 17 55 296 212 209 373 294 214 
10 43 6 48 42 134 130 312 305 135 307 
10 84 64 62 58 428 417 419 388 391 387 
10 58 80 75 74 389 477 397 395 475 476 
10 47 60 65 63 332 412 334 335 409 424 
10 58 80 74 79 389 475 395 396 488 474 
10 85 59 64 58 401 402 425 390 394 391 
10 84 85 64 58 499 425 428 388 390 391 
10 60 75 80 76 413 477 404 407 478 479 
10 48 6 46 42 130 132 326 307 135 303 
10 58 43 59 64 314 317 394 391 311 402 
10 64 43 48 42 311 312 337 306 305 307 
10 64 48 46 42 337 326 330 306 307 303 
10 86 59 85 80 400 401 503 489 398 491 
10 59 58 80 75 394 389 398 403 397 477 
10 60 75 59 80 413 403 399 404 477 398 
10 62 84 58 79 419 388 387 420 487 396 
10 88 84 64 83 500 428 432 498 497 429 
10 80 84 79 58 490 487 488 389 388 396 
10 78 58 79 62 393 396 486 418 387 420 
10 78 74 58 73 473 395 393 471 472 392 

CELL_TYPES 236
24
24
24
24
24
24
24
24
24
24
24
24
24
24
24
24
24
24
24
24
24
24
24
24
24
24
24
24
24
24
24
24
24
24
24
24
24
24
24
24
24
24
24
24
24
24
24
24
24
24
24
24
24
24
24
24
24
24
24
24
24
24
24
24
24
24
24
24
24
24
24
24
24
24
24
24
24
24
24
24
24
24
24
24
24
24
24
24
24
24
24
24
24
24
24
24
24
24
24
24
24
24
24
24
24
24
24
24
24
24
24
24
24
24
24
24
24
24
24
24
24
24
24
24
24
24
24
24
24
24
24
24
24
24
24
24
24
24
24
24
24
24
24
24
24
24
24
24
24
24
24
24
24
24
24
24
24
24
24
24
24
24
24
24
24
24
24
24
24
24
24
24
24
24
24
24
24
24
24
24
24
24
24
24
24
24
24
24
24
24
24
24
24
24
24
24
24
24
24
24
24
24
24
24
24
24
24
24
24
24
24
24
24
24
24
24
24
24
24
24
24
24
24
24
24
24
24
24
24
24
24
24
24
24
24
24

POINT_DATA 527
VECTORS displacement float
0 0 0
0 0 0
0 0 0
0 0 0
0 0 0
0 0 0
0 0 0
0 0 0
0 0 0
0 0 0
0 0 0
0 0 0
0 0 0
0 0 0
0 0 0
0 0 0
0 0 0
0 0 0
0 0 0
0 0 0
0 0 0
0 0 0
0 0 0
0 0 0
0 0 0
-0.0130193 -0.00806261 -0.00810198
-0.00924864 -0.00771252 -0.00410053
-0.00821794 -0.00807141 -7.31853e-05
-0.00901405 -0.00812845 0.00400101
-0.0133185 -0.00838496 0.0081377
-0.00946343 -0.00367521 -0.00812216
-0.00923167 -0.00402474 0.0081406
-0.00824331 0.000362425 -0.00789411
-0.00872329 -0.000153755 0.00795765
-0.00781398 0.0047022 -0.00781868
-0.00807038 0.0041957 0.00825972
-0.0130528 0.00861891 -0.00762434
-0.00922604 0.00786387 -0.00376476
-0.0079217 0.00791594 0.000291111
-0.00879277 0.0079809 0.00434691
-0.0131402 0.00830269 0.00821703
-0.0200471 -0.0100212 -0.0107265
-0.0192589 -0.0114211 -0.00618265
-0.0191601 -0.011305 -0.000270688
-0.0206689 -0.0119505 0.0055993
-0.0202612 -0.0107098 0.0107098
-0.0203024 -0.00586032 -0.0114905
-0.0201888 -0.00613534 0.0119057
-0.0194054 0.000157589 -0.0115862
-0.0189243 -7.70451e-05 0.0119263
-0.0198808 0.00654665 -0.0121996
-0.0194671 0.00573814 0.0124555
-0.0198717 0.011355 -0.0103439
-0.0196642 0.0121272 -0.00540741
-0.0183821 0.0114683 0.000441717
-0.0203851 0.0114179 0.00626158
-0.0197578 0.010333 0.0114418
-0.0265178 -0.00909667 -0.00861172
-0.0303246 -0.00888084 -0.00421631
-0.032035 -0.00847353 0.000133841
-0.0307792 -0.00857492 0.00384514
-0.0268386 -0.00965179 0.00799656
-0.0307593 -0.00406444 -0.00957485
-0.030768 -0.00482334 0.009527
-0.0324854 0.000288746 -0.00893925
-0.0316174 -0.000514454 0.00902803
-0.0317953 0.0044749 -0.0086697
-0.0309635 0.00347466 0.00903781
-0.0267046 0.00849584 -0.00804334
-0.0297341 0.00861461 -0.00367302
-0.0309225 0.00856986 0.000393314
-0.0302403 0.00853562 0.0041903
-0.0265844 0.00799978 0.00852419
-0.04 0 0
-0.04 0 0
-0.04 0 0
-0.04 0 0
-0.04 0 0
-0.04 0 0
-0.04 0 0
-0.04 0 0
-0.04 0 0
-0.04 0 0
-0.04 0 0
-0.04 0 0
-0.04 0 0
-0.04 0 0
-0.04 0 0
-0.04 0 0
-0.04 0 0
-0.04 0 0
-0.04 0 0
-0.04 0 0
-0.04 0 0
-0.04 0 0
-0.04 0 0
-0.04 0 0
-0.04 0 0
0 0 0
-0.00744857 -0.00473283 -0.00705168
-0.00367326 -0.00630367 -0.00412544
0 0 0
0 0 0
-0.00313711 -0.00628184 -0.00256304
0 0 0
0 0 0
0 0 0
0 0 0
-0.00329646 -0.0065258 -0.00124459
-0.00298201 -0.00598553 0.000107399
-0.00315559 -0.00629429 0.00145009
0 0 0
-0.00305646 -0.00613232 0.00259036
0 0 0
0 0 0
0 0 0
0 0 0
-0.00362263 -0.00636821 0.00406384
0 0 0
-0.00761738 -0.0048525 0.00705868
-0.00289592 -0.00426903 -0.00379774
0 0 0
-0.0057768 -0.00328906 -0.00610354
-0.00433595 -0.00218276 -0.00534339
-0.00286883 -7.5265e-05 -0.00616681
0 0 0
0 0 0
-0.00280842 -0.00412747 -0.0022991
0 0 0
0 0 0
-0.00615647 -0.001777 -0.00659649
-0.00224368 -0.00048434 -0.00425494
-0.0079821 -0.00383812 -0.00606789
-0.00339352 -0.0022623 -0.00394253
-0.0070223 -0.00606248 -0.00205422
-0.00794557 -0.00568526 -0.004096
0 0 0
-0.00526857 -0.00189678 -0.00482971
-0.00700963 -0.00612756 -0.000198735
-0.00244692 -0.00437514 -0.00108286
-0.00226107 -0.0041161 0.00133607
-0.00575638 -0.00686529 0.00219581
-0.0024169 -0.00437941 0.000114387
0 0 0
0 0 0
0 0 0
0 0 0
-0.00256121 -0.00407271 0.00249725
-0.00246149 -0.000914294 0.00437387
-0.0031008 -0.00245192 0.00399826
-0.0068744 -0.0021567 0.00629429
0 0 0
-0.00766859 -0.00415666 0.00604664
-0.0064068 -0.00650806 0.00427008
-0.00285595 -0.00433549 0.0038848
-0.00301752 -0.000466552 0.00637504
-0.00410479 -0.00238735 0.00544074
-0.00576166 -0.00340588 0.00616483
0 0 0
0 0 0
0 0 0
-0.00289352 0.000832403 -0.00621803
0 0 0
-0.00534168 0.000394748 -0.00682252
0 0 0
0 0 0
-0.00196678 0.00163301 -0.00395486
-0.00215976 0.000618997 -0.00401649
0 0 0
-0.00537826 0.00243215 -0.00667163
0 0 0
0 0 0
-0.00568653 0.00464464 0.00235371
-0.0061038 0.00224801 0.00462632
-0.00655352 1.23298e-05 0.00507968
-0.00607473 0.00483335 0.000114704
-0.00535989 0.00250502 -0.00461461
-0.00555963 0.00036471 -0.00487339
0 0 0
-0.00660113 -0.0047567 -0.000116375
-0.00571375 -0.00486583 0.00223711
-0.0196721 0.000111637 7.41323e-05
-0.00549265 0.00459375 0.00459606
-0.00641902 0.00214034 0.00639663
0 0 0
0 0 0
-0.00215485 0.00138637 0.00431341
-0.00236569 0.00033553 0.00430814
0 0 0
0 0 0
-0.00681383 -0.000107934 0.00640573
-0.00565228 -0.00468554 0.00451488
-0.00311846 0.000498982 0.00660144
0 0 0
0 0 0
-0.00290957 0.00275074 -0.00517827
-0.00524944 0.00317659 -0.00572295
-0.00279412 0.00393656 -0.00366796
-0.00289937 0.00178211 -0.00576599
0 0 0
0 0 0
-0.00231672 0.00273305 -0.00360026
-0.00279522 0.00406063 -0.00213858
-0.00610273 0.00455655 -0.00604712
-0.00724221 0.00615041 -0.0037741
0 0 0
0 0 0
-0.00660308 0.00620425 -0.00174284
-0.00236523 0.00427143 -0.000955423
-0.00645843 0.00610646 0.000150259
-0.00230095 0.00419542 0.000249369
0 0 0
-0.00222904 0.00409006 0.00145982
0 0 0
-0.00564653 0.00671469 0.00241506
0 0 0
0 0 0
-0.00542872 0.00457307 -0.00441269
0 0 0
-0.00239994 0.00249958 0.00402917
-0.00252279 0.00388437 0.00258143
-0.00649363 0.00409343 0.00632527
0 0 0
-0.00603366 0.00651362 0.00442531
-0.00272762 0.00380357 0.00398812
-0.0030552 0.00248066 0.00569179
-0.00540084 0.00296002 0.00606798
0 0 0
-0.00313291 0.00153262 0.00624087
0 0 0
-0.00731377 0.00457313 -0.00676306
-0.00356109 0.00611173 -0.0038519
0 0 0
-0.00309136 0.00621428 -0.00242697
0 0 0
-0.00284037 0.00578339 0.000277079
-0.0030543 0.00612047 0.00158098
-0.0032245 0.00634031 -0.00104283
0 0 0
-0.00294673 0.00590615 0.00281042
0 0 0
-0.00342653 0.00590231 0.00414408
-0.00742389 0.00437508 0.00705579
-0.0108423 -0.00798515 -0.00639302
-0.0166768 -0.00927938 -0.00926045
-0.0155227 -0.00739523 -0.00957605
-0.0104895 -0.00587689 -0.00850434
-0.0153929 -0.00928079 -0.00748009
-0.0141659 -0.00730354 -0.00766296
-0.00842008 -0.00574989 -0.0064234
-0.0139527 -0.00946348 -0.00287198
-0.0140834 -0.00946563 -0.0053816
-0.00887905 -0.00800889 -0.00220538
-0.0133814 -0.00968186 -0.000135611
-0.00881044 -0.00813028 0.00206874
-0.014102 -0.00779734 0.00777539
-0.015675 -0.00987944 0.00753683
-0.0145488 -0.010159 0.0050327
-0.0135173 -0.0103738 0.00264295
-0.0083292 -0.00612101 0.00641758
-0.0109903 -0.00827084 0.0063765
-0.0155841 -0.00784824 0.00962676
-0.0169772 -0.00981404 0.0093104
-0.0104731 -0.00622219 0.00857271
-0.0148281 -0.00492499 -0.00986468
-0.00878423 -0.00172778 -0.00811378
-0.00884001 -0.00211292 0.00816058
-0.0146789 -0.00528825 0.00992978
-0.0137201 -0.00262851 -0.0100888
-0.0132265 0.000171555 -0.0100957
-0.00801967 0.00254123 -0.00802584
-0.0132191 0.00290832 -0.0103764
-0.00843026 0.00201805 0.00826303
-0.0135995 -0.000240816 0.00988132
-0.0139231 -0.00288685 0.00994259
-0.0136945 0.00231441 0.0101008
-0.00962225 0.00672208 -0.00822711
-0.00753614 0.00637835 -0.00601657
-0.0136303 0.00597003 -0.00985016
-0.00768247 0.00604655 0.00649163
-0.00989172 0.00625211 0.00873788
-0.0137254 0.00523071 0.0101588
-0.0108477 0.00826612 -0.00591657
-0.0165754 0.010514 -0.00862144
-0.0148935 0.00863165 -0.00923807
-0.0136355 0.00965743 -0.00225079
-0.00871184 0.00794182 -0.00179435
-0.0152062 0.0103087 -0.00692507
-0.013232 0.00827529 -0.00736496
-0.0140716 0.0100838 -0.00475476
-0.0128761 0.00969826 0.000353221
-0.0084847 0.00791886 0.00237911
-0.010695 0.00807705 0.00653328
-0.0133387 0.00769678 0.00804006
-0.0141132 0.0100055 0.00554925
-0.0151114 0.0097446 0.00792612
-0.0130528 0.0101288 0.00297414
-0.0166171 0.00963179 0.00957532
-0.0150844 0.0077397 0.0098703
-0.020058 -0.00830998 -0.0109135
-0.0195941 -0.0105276 -0.00877931
-0.023177 -0.00936201 -0.00978036
-0.0239884 -0.00950491 -0.00797193
-0.0195097 -0.00867543 -0.00888311
-0.0248986 -0.00973057 -0.00562399
-0.0189951 -0.0114545 -0.00333722
-0.0261824 -0.00519476 -0.00811789
-0.0195153 -0.00594704 -0.00877953
-0.0195429 -0.00592946 0.00575748
-0.033437 -0.00444738 0.00231994
-0.0334382 -0.00464919 7.7854e-05
-0.026605 -0.00512172 -0.00556618
-0.0193603 -0.00589754 -0.00570331
-0.0194313 -0.0120357 0.00259786
-0.0253992 -0.00993573 -0.00294579
-0.0258499 -0.0104346 0.00239502
-0.027207 -0.0054835 0.00578929
-0.0262152 -0.00990309 -9.94958e-05
-0.0203208 -0.00898449 0.00896186
-0.0203044 -0.0110158 0.00850952
-0.0197067 -0.0059039 0.00904164
-0.0261803 -0.0100177 0.00514236
-0.0267848 -0.00581064 0.00824599
-0.0202478 -0.00888599 0.0111955
-0.0235166 -0.0101908 0.00914605
-0.0247228 -0.00994159 0.00735181
-0.0198265 -0.00294475 -0.0116434
-0.0242343 -0.00757439 -0.00990649
-0.025012 -0.00746762 -0.00805871
-0.0249539 -0.00526586 -0.0101393
-0.0262332 -0.00280163 -0.0103835
-0.0246506 -0.00832968 0.00960608
-0.0258779 -0.00806054 0.00787449
-0.0193252 -0.0031163 0.0120298
-0.0258657 -0.00330586 0.0107554
-0.0249973 -0.00595095 0.0101825
-0.0336328 3.87802e-06 -0.00514616
-0.0266955 -3.56803e-05 -0.0104731
-0.0195827 0.0034166 -0.0118419
-0.033434 0.00223394 -0.00484549
-0.0267571 0.00594748 -0.00502355
-0.0190009 0.00626669 -0.00536103
-0.0339319 -0.000655931 0.00731319
-0.0337996 -0.000477072 0.00526547
-0.0344299 0.00182161 0.00527279
-0.0191103 0.00575159 0.00912238
-0.019381 0.00553546 0.00572466
-0.0263303 0.00555624 0.00829559
-0.0271366 0.00540464 0.00544221
-0.0336528 0.00153318 0.0072116
-0.0260477 -0.000587996 0.0109891
-0.0188772 0.00298446 0.0121843
-0.0197722 0.00944531 -0.0111215
-0.0194818 0.00959745 -0.00865049
-0.0257776 0.00846838 -0.00759466
-0.0246229 0.00868243 -0.00960115
-0.0263446 0.00587885 -0.0100263
-0.032738 0.00448593 -0.00434852
-0.026379 0.00842748 -0.00516825
-0.0190449 0.00933508 -0.00570975
-0.026417 0.00307136 -0.0100401
-0.0198975 0.008419 0.00941988
-0.0197876 0.0085095 0.0119142
-0.0258 0.00787862 0.00825913
-0.0243891 0.00766759 0.010132
-0.032769 0.00356294 0.00715887
-0.0253639 0.00486063 0.0107331
-0.025643 0.00196524 0.0110541
-0.0196679 0.0116809 -0.00820386
-0.0239631 0.0104511 -0.00725335
-0.0230052 0.0106539 -0.00897596
-0.0186939 0.0119145 -0.00256865
-0.0251506 0.0106109 -0.00509897
-0.0190737 0.0116793 0.00333064
-0.0319049 0.00668941 0.000266129
-0.0252698 0.0106384 0.000453346
-0.032192 0.00490394 0.000164956
-0.0256524 0.0102288 0.00330552
-0.0251514 0.0107582 -0.00245499
-0.0199182 0.0107441 0.00909832
-0.0261932 0.00967991 0.0059208
-0.0243963 0.00959283 0.0079636
-0.0229235 0.00962979 0.00968996
-0.0286654 -0.00905276 -0.00679889
-0.0292993 -0.00665301 -0.00946071
-0.0320059 -0.00483439 -0.00792141
-0.0341295 -0.00350856 -0.00727562
-0.030939 -0.00661143 -0.00705686
-0.0373486 -0.00261884 -0.00326221
-0.0373228 -0.00483131 -0.0014478
-0.0375275 -0.00291926 -0.00149205
-0.031898 -0.00440932 -0.00679892
-0.0360634 -0.00632416 -0.00485593
-0.0367462 -0.00432247 -0.00512514
-0.0312724 -0.00869203 -0.00207031
-0.0367764 -0.00615554 -0.00311724
-0.0371087 -0.00435391 -0.00329757
-0.0366306 -0.00675389 -0.00147964
-0.0374578 -0.0050197 -5.62127e-05
-0.0314898 -0.00866766 0.00224002
-0.0379418 -0.00392037 0.00129233
-0.0377917 -0.00353485 4.31548e-05
-0.0326554 -0.00440912 -0.00453635
-0.0368593 -0.00635194 2.97133e-05
-0.0373763 -0.00501906 0.00128204
-0.0375575 -0.00270331 0.0029659
-0.0289859 -0.00918393 0.00626727
-0.0369174 -0.00609538 0.0028079
-0.0372699 -0.00431227 0.00297837
-0.0314247 -0.00698734 0.00685868
-0.0368812 -0.00448697 0.00470884
-0.0361993 -0.00649468 0.0044077
-0.0323061 -0.00502139 0.0068215
-0.0365789 -0.00702178 0.00135997
-0.0296117 -0.00736636 0.00917331
-0.0343085 -0.00386726 0.00681362
-0.0322204 -0.00514989 0.00742594
-0.0316062 -0.00177144 -0.00923397
-0.0364202 -0.0026137 -0.00667578
-0.0373189 -0.0012278 -0.00497105
-0.0371805 -0.00284902 -0.00499638
-0.0364657 -0.00304011 0.00624113
-0.037471 -0.00163555 0.00457816
-0.0373388 -0.00314371 0.00458014
-0.0312505 -0.00257096 0.00930226
-0.0378082 0.000169934 -0.00361817
-0.0379494 0.00137578 -0.00414545
-0.0369314 -0.00130815 -0.00687062
-0.0377479 -0.000113853 -0.00512233
-0.0371498 -0.000197073 -0.00692228
-0.0321021 0.00257261 -0.00878903
-0.0375486 0.00127374 -0.005447
-0.0371522 0.000814325 -0.00687839
-0.0370632 -5.89888e-05 0.0066317
-0.0377071 0.000578842 0.0046565
-0.0375996 -0.000401814 0.00450144
-0.0369043 -0.00177055 0.00648871
-0.0369885 -0.000867902 0.00681284
-0.0311917 0.00150447 0.00911337
-0.0299513 0.00654948 -0.00856126
-0.0314484 0.00650899 -0.00652464
-0.0372586 0.00288587 -0.00348456
-0.0321044 0.00663826 -0.00425789
-0.0361824 0.00267255 -0.00626176
-0.0369614 0.00285452 -0.00499823
-0.0360439 0.001767 0.00617187
-0.0296097 0.00586337 0.0089958
-0.031652 0.00593286 0.00692809
-0.0371434 0.00195691 0.00473788
-0.028504 0.00840119 -0.00616813
-0.0322046 0.00507564 -0.00777443
-0.0342289 0.00371275 -0.00706009
-0.0358231 0.00664224 -0.00476156
-0.0365941 0.00453554 -0.00488069
-0.0364434 0.00674137 -0.00292202
-0.0371448 0.00456281 -0.00182979
-0.0365207 0.00668433 -0.00127671
-0.0306552 0.00863092 -0.00168941
-0.0369452 0.00448311 -0.00334051
-0.0309133 0.0085812 0.00228372
-0.0364007 0.00409881 0.000163883
-0.0365412 0.0058942 0.000294634
-0.0370454 0.00375778 0.00453398
-0.0368116 0.0060164 0.00309124
-0.0371185 0.00356162 0.0033315
-0.0373819 0.00337555 0.00206922
-0.0286315 0.00798964 0.0066885
-0.0362088 0.00589031 0.00470421
-0.0369783 0.00568395 0.00178579
-0.0342525 0.00283112 0.00677194
-0.0323161 0.00428954 0.00770107
-0.04 0 0
-0.04 0 0
-0.04 0 0
-0.04 0 0
-0.04 0 0
-0.04 0 0
-0.04 0 0
-0.04 0 0
-0.04 0 0
-0.04 0 0
-0.04 0 0
-0.04 0 0
-0.04 0 0
-0.04 0 0
-0.04 0 0
-0.04 0 0
-0.04 0 0
-0.04 0 0
-0.04 0 0
-0.04 0 0
-0.04 0 0
-0.04 0 0
-0.04 0 0
-0.04 0 0
-0.04 0 0
-0.04 0 0
-0.04 0 0
-0.04 0 0
-0.04 0 0
-0.04 0 0
-0.04 0 0
-0.04 0 0
-0.04 0 0
-0.04 0 0
-0.04 0 0
-0.04 0 0
-0.04 0 0
-0.04 0 0
-0.04 0 0
-0.04 0 0
-0.04 0 0
-0.04 0 0
-0.04 0 0
-0.04 0 0
-0.04 0 0
-0.04 0 0
-0.04 0 0
-0.04 0 0
-0.04 0 0
-0.04 0 0
-0.04 0 0
-0.04 0 0
-0.04 0 0
-0.04 0 0
-0.04 0 0
-0.04 0 0

CELL_DATA 236
TENSORS stress float
-9216.91 60.1652 -422.512
60.1652 -2106.49 401.506
-422.512 401.506 383.815

-8738.75 33.9561 83.3598
33.9561 -1439.89 549.092
83.3598 549.092 -656.167

-11146.8 -1593.71 1368.57
-1593.71 -6901.31 -1387.24
1368.57 -1387.24 -7667.14

-6865.39 79.2181 -847.952
79.2181 -30.2553 515.686
-847.952 515.686 526.131

-9739.83 -1607.3 -1271.55
-1607.3 -4398.86 997.8
-1271.55 997.8 -5751.43

-12093.6 643.167 -960.525
643.167 -9395.9 -461.772
-960.525 -461.772 -8582.85

-13652.3 174.987 -76.3926
174.987 -8916.7 -147.067
-76.3926 -147.067 -9230.66

-7767.4 -285.486 167.763
-285.486 -439.377 -102.201
167.763 -102.201 -360.318

-9377.77 483.114 487.469
483.114 -2050.5 -15.6565
487.469 -15.6565 -2458.57

-17590.1 -305.92 -61.1098
-305.92 -14507.7 -33.6122
-61.1098 -33.6122 -14599.1

-7197.94 -511.848 255.91
-511.848 863.03 212.365
255.91 212.365 387.34

-8583.12 -333.59 -2105.34
-333.59 -6301.61 -95.3885
-2105.34 -95.3885 -4038.07

-7095.48 467.532 -1752.47
467.532 -1715.06 -408.963
-1752.47 -408.963 613.987

-9302.32 -23.5596 559.085
-23.5596 -2184.69 -135.48
559.085 -135.48 132.964

-7480.28 412.377 631.772
412.377 1517.95 -169.956
631.772 -169.956 -424.388

-7290.51 -603.314 -447.401
-603.314 2430.12 -128.32
-447.401 -128.32 1820.19

-7301.27 230.908 260.398
230.908 530.256 -175.767
260.398 -175.767 329.806

-8114.47 960.532 230.384
960.532 -738.564 276.971
230.384 276.971 -2743.49

-9895.31 396.529 306.923
396.529 -1646.17 298.999
306.923 298.999 -1325.81

-8499.77 -1146.9 -1006.61
-1146.9 -1743.34 392.661
-1006.61 392.661 -2439.05

-7442.63 337.459 582.818
337.459 2010.56 61.7546
582.818 61.7546 1109.17

-12309.9 499.594 -960.96
499.594 -10586.2 -229.562
-960.96 -229.562 -9729.01

-11122.8 261.277 -1744.7
261.277 -9112.29 -435.79
-1744.7 -435.79 -6003.18

-8103.47 -206.013 121.521
-206.013 -2873.79 -283.173
121.521 -283.173 -685.09

-8267.07 -163.971 62.3036
-163.971 -49.3183 -372.24
62.3036 -372.24 40.5174

-11137 -1587.24 -1190.42
-1587.24 -6911.73 1319.43
-1190.42 1319.43 -8182.1

-7576.45 -89.6208 -145.64
-89.6208 1086.32 445.125
-145.64 445.125 1709.66

-10430.4 407.264 -364.804
407.264 -5138.92 558.308
-364.804 558.308 -5565.19

-8038.7 -86.6403 -233.548
-86.6403 -817.472 -526.305
-233.548 -526.305 -1235.49

-9740.11 -1586.01 -1677.3
-1586.01 -5305.74 837.364
-1677.3 837.364 -6481.27

-9229.45 -196.181 -291.63
-196.181 -1873.44 -260.67
-291.63 -260.67 -2705.09

-7371.05 -353.749 -246.12
-353.749 1396.91 359.477
-246.12 359.477 1093.25

-9364.8 430.054 -1873.97
430.054 -7087.78 -254.283
-1873.97 -254.283 -4470.04

-9635.47 -285.752 -256.026
-285.752 -2729.58 -482.155
-256.026 -482.155 -2419.77

-8415.81 -1892.48 1454.75
-1892.48 -3398.78 -1009.29
1454.75 -1009.29 -4662.95

-7076.29 657.511 -391.732
657.511 2714.6 262.524
-391.732 262.524 1834.91

-9165.98 -51.3517 -227.237
-51.3517 -951.302 -75.3468
-227.237 -75.3468 -1024.16

-6604.74 592.297 611.557
592.297 -435.922 -377.014
611.557 -377.014 1856.44

-8197.4 193.949 302.686
193.949 -1772.75 -105.59
302.686 -105.59 -204.1

-7079.39 319.648 163.327
319.648 629.939 -449.428
163.327 -449.428 509.127

-7695.84 -75.1553 -434.925
-75.1553 696.805 -316.82
-434.925 -316.82 686.456

-8836.33 -92.299 -649.228
-92.299 -1964.04 -610.659
-649.228 -610.659 -1858.44

-8258.6 -231.515 -95.9128
-231.515 -2983.01 132.857
-95.9128 132.857 -771.653

-6433.74 265.883 -1030.07
265.883 863.107 239.284
-1030.07 239.284 860.909

-9354.12 1590.51 -1283.55
1590.51 -3815.7 -794.361
-1283.55 -794.361 -5092.59

-11459.1 -1520.79 1119.72
-1520.79 -7317.35 -1340.23
1119.72 -1340.23 -8640.58

-8965.17 889.731 634.908
889.731 -4930.5 -29.5787
634.908 -29.5787 -5190.41

-9285.07 35.0724 508.298
35.0724 -2006.86 31.4388
508.298 31.4388 -258.93

-11094.4 1504.91 -1122.18
1504.91 -6704.92 -1057.82
-1122.18 -1057.82 -8185.61

-13288.4 382.387 847.17
382.387 -11728.1 228.003
847.17 228.003 -10648.8

-7795.25 389.36 462.384
389.36 -613.41 495.624
462.384 495.624 -505.148

-5683.4 1339.21 -1679.14
1339.21 -193.874 -502.983
-1679.14 -502.983 637.146

-8086.23 1774.84 1558.35
1774.84 -2970.38 852.862
1558.35 852.862 -3980.62

-8135.74 -192.131 -2022.77
-192.131 -5954.23 12.3444
-2022.77 12.3444 -4099.96

-9195.17 124.319 -2071.27
124.319 -7134.77 -243.742
-2071.27 -243.742 -4278.81

-10138.8 273.918 1814.68
273.918 -7943.96 221.907
1814.68 221.907 -5036.16

-7289.84 -225.168 6.56326
-225.168 798.673 -440.51
6.56326 -440.51 1190.33

-9343.72 33.6614 -532.288
33.6614 -2196.26 -123.529
-532.288 -123.529 -220.599

-8195.72 -222.883 202.715
-222.883 -250.627 42.2745
202.715 42.2745 -822.665

-11679.4 1553.23 -388.558
1553.23 -8461.15 -377.895
-388.558 -377.895 -10184.2

-8938.07 2257.77 -498.741
2257.77 -4248.4 -311.677
-498.741 -311.677 -6588.28

-9621.41 -90.1229 -52.6953
-90.1229 -2998.39 11.5013
-52.6953 11.5013 -3302.6

-9460.97 -2200.35 -552.904
-2200.35 -4672.96 346.435
-552.904 346.435 -7232.95

-8158.47 711.486 593.835
711.486 -1805.43 331.191
593.835 331.191 -731.252

-7318.31 559.479 1138.09
559.479 -2372.87 117.609
1138.09 117.609 185.708

-8581.44 -840.535 -137.15
-840.535 -1140.33 348.494
-137.15 348.494 -3295.7

-8991.08 -391.953 613.655
-391.953 -2749.95 642.436
613.655 642.436 -2064.37

-8237.25 -329.425 337.458
-329.425 -2064.18 -258.009
337.458 -258.009 -1017.11

-8903.63 2179.36 730.07
2179.36 -4452.19 428.143
730.07 428.143 -6632.68

-8856.25 1933.27 854.146
1933.27 -5225.5 494.3
854.146 494.3 -6781.88

-8149 224.769 -6.00297
224.769 -510.53 -44.2766
-6.00297 -44.2766 -648.829

-6842.45 687.856 -1171.2
687.856 -1843.91 -91.5526
-1171.2 -91.5526 374.441

-6427.88 1176.73 1621.85
1176.73 -889.068 435.094
1621.85 435.094 17.3178

-11289.2 1444.36 1193.83
1444.36 -7170.17 1122.86
1193.83 1122.86 -8394.64

-8699.46 -1039.32 887.488
-1039.32 -2224.75 -543.679
887.488 -543.679 -2714.08

-9357.33 -29.0206 -622.532
-29.0206 -2287.22 182.517
-622.532 182.517 93.8565

-9360.32 -128.521 -228.128
-128.521 -3567.17 -1282.32
-228.128 -1282.32 -2337.06

-10828.5 -1297.21 -871.842
-1297.21 -5993.95 498.188
-871.842 498.188 -7635.15

-14239.5 378.3 327.543
378.3 -10516.9 115.021
327.543 115.021 -10418.1

-8881.04 -689.086 -926.568
-689.086 -2488.2 289.36
-926.568 289.36 -2847.41

-8548.43 147.807 334.352
147.807 -2081.58 128.989
334.352 128.989 -595.909

-6966.44 -453.888 116.334
-453.888 782.29 225.513
116.334 225.513 551.068

-10362.2 -124.789 203.638
-124.789 -4472.24 63.8432
203.638 63.8432 -4575.53

-13189.3 -59.3446 28.2947
-59.3446 -6938.28 -187.817
28.2947 -187.817 -7437.33

-9404.11 -358.691 1845.67
-358.691 -7092.39 -15.4111
1845.67 -15.4111 -5251.03

-10470.7 85.7568 1963.88
85.7568 -8528.03 251.602
1963.88 251.602 -5824.57

-7965.48 93.0666 -34.1566
93.0666 -997.228 -189.348
-34.1566 -189.348 -2141.03

-8164.25 -237.823 -136.438
-237.823 -1566.66 -47.6607
-136.438 -47.6607 -108.727

-8318.02 -117.053 -439.207
-117.053 -777.825 210.342
-439.207 210.342 -836.513

-11656.1 -1541.4 -453.411
-1541.4 -8181.15 396.341
-453.411 396.341 -9943.43

-7894.8 2303.34 -992.948
2303.34 -2951.94 -128.583
-992.948 -128.583 -4148.39

-11055.7 -1911.76 534.828
-1911.76 -6512.35 -278.919
534.828 -278.919 -8699.49

-7592.38 -487.316 380.096
-487.316 869.708 -134.947
380.096 -134.947 516.39

-8422.49 -926.567 173.934
-926.567 -820.831 -146.574
173.934 -146.574 -3052.8

-7311.21 321.245 -225.153
321.245 844.959 254.585
-225.153 254.585 307.286

-7969.56 -2084.35 867.445
-2084.35 -3931.93 -503.303
867.445 -503.303 -5638.14

-7358.19 438.555 -636.097
438.555 2203.39 -19.326
-636.097 -19.326 1311.72

-7204.16 -6.40608 -315.601
-6.40608 1808.76 43.4746
-315.601 43.4746 395.302

-7852.88 -627.124 245.533
-627.124 -102.365 -561.555
245.533 -561.555 421.094

-9374.22 -138.82 143.349
-138.82 -2628.97 -114.8
143.349 -114.8 -2564.82

-10450.9 -1579.85 -1537.8
-1579.85 -6315.37 1254.91
-1537.8 1254.91 -6957.46

-8109.4 -314.577 -325.278
-314.577 813.955 -40.6707
-325.278 -40.6707 694.666

-9677.21 -47.299 2072.5
-47.299 -7658.66 203.147
2072.5 203.147 -4566.93

-7203.96 -496.463 -198.806
-496.463 764.241 -187.05
-198.806 -187.05 226.705

-9146.77 -2133.24 641.085
-2133.24 -4543.83 -413.952
641.085 -413.952 -7034.37

-7080.47 -411.749 21.9039
-411.749 748.474 -107.648
21.9039 -107.648 575.33

-9178.18 -270.794 215.868
-270.794 -2097.3 273.303
215.868 273.303 -2120.21

-9150.89 -278.373 142.46
-278.373 -1061.38 -16.3604
142.46 -16.3604 -956.786

-8379.81 2.36749 89.9145
2.36749 496.723 -6.78547
89.9145 -6.78547 1326.54

-7607.05 182.106 52.728
182.106 -77.9225 -608.61
52.728 -608.61 292.232

-9089.79 -32.6482 -43.6454
-32.6482 -1570.13 158.485
-43.6454 158.485 -2308.06

-7875.92 371.703 -918.288
371.703 -668.332 646.256
-918.288 646.256 -253.142

-9689.7 -383.035 295.45
-383.035 -1074.41 -2.24731
295.45 -2.24731 -946.185

-8860.74 -417.759 550.448
-417.759 -1159.86 310.667
550.448 310.667 -2049.66

-6676.12 -526.327 -60.3824
-526.327 480.164 771.925
-60.3824 771.925 -362.1

-14538.6 -364.873 232.372
-364.873 -10906.3 15.3885
232.372 15.3885 -10718.2

-7270.95 -746.987 913.55
-746.987 -36.3282 -495.836
913.55 -495.836 1426.81

-13784.6 -207.952 71.1104
-207.952 -9597.13 201.136
71.1104 201.136 -9414.6

-8352.63 291.928 162.698
291.928 -2077.7 482.14
162.698 482.14 -940.964

-6542.44 9.98977 746.131
9.98977 2558.47 -586.318
746.131 -586.318 1966.71

-10523.3 78.015 -2074.36
78.015 -8746.43 -422.718
-2074.36 -422.718 -5428.19

-8599.06 71.0319 78.3481
71.0319 -2924.89 -158.126
78.3481 -158.126 -1199.76

-9192.48 195.652 579.814
195.652 -2142.39 260.608
579.814 260.608 225.881

-7138.4 474.612 546.581
474.612 2959.45 -608.041
546.581 -608.041 1713.45

-8900.85 -356.24 -944.73
-356.24 -3161.4 -371.18
-944.73 -371.18 -2032.15

-7536.35 1238.28 -1455.78
1238.28 -2016.49 -782.149
-1455.78 -782.149 -906.032

-11345 1599.5 -1239.09
1599.5 -7288.65 -1384.78
-1239.09 -1384.78 -8245.29

-9260.22 1898.53 -1610.16
1898.53 -5045.31 -1012.06
-1610.16 -1012.06 -5377.35

-8406.35 -193.082 254.409
-193.082 -384.955 -329.942
254.409 -329.942 306.2

-8291.22 346.767 439.601
346.767 -1277.59 -22.7385
439.601 -22.7385 -809.184

-7575.62 549.952 366.586
549.952 -653.999 -499.315
366.586 -499.315 -1176.94

-9101.56 156.424 276.796
156.424 -903.801 -174.106
276.796 -174.106 -492.028

-8192.64 281.705 -378.078
281.705 -599.846 -60.4795
-378.078 -60.4795 -914.733

-6352 232.026 84.7424
232.026 3102.26 132.551
84.7424 132.551 1445.77

-8537.04 368.272 640.435
368.272 -571.438 -294.094
640.435 -294.094 -1716.11

-12398.6 463.125 394.931
463.125 -8321.46 -17.1319
394.931 -17.1319 -8325.42

-7414.65 71.6804 95.0942
71.6804 1052.36 -339.527
95.0942 -339.527 1668.67

-7150.3 -775.574 -703.016
-775.574 2276 179.781
-703.016 179.781 1706.19

-7331.79 -681.46 695.352
-681.46 2010.44 -155.914
695.352 -155.914 1351.9

-7804.35 -214.948 459.117
-214.948 1022.95 425.351
459.117 425.351 1150.12

-7103.64 213.158 -235.152
213.158 5500.74 -147.614
-235.152 -147.614 4730.38

-6844.93 -476.565 683.398
-476.565 2871.94 231.335
683.398 231.335 2261.71

-7765.25 222.82 -407.235
222.82 1760.81 439.737
-407.235 439.737 2625.42

-9378.56 74.9148 -76.6915
74.9148 -691.43 -157.514
-76.6915 -157.514 -704.882

-7821.65 -608.903 -595.829
-608.903 -379.279 -552.898
-595.829 -552.898 -226.084

-7365.41 -234.076 68.3263
-234.076 -219.545 576.191
68.3263 576.191 231.484

-8828.71 -1038.53 278.168
-1038.53 -550.473 -223.056
278.168 -223.056 -2090.7

-9292.45 158.574 -106.664
158.574 -666.616 388.334
-106.664 388.334 -558.813

-8629.54 75.9343 -188.082
75.9343 -150.017 338.879
-188.082 338.879 1226.16

-7673.16 -83.7649 -100.824
-83.7649 1493.85 -58.2972
-100.824 -58.2972 -165.177

-6189.06 -599.444 -493.623
-599.444 4731.37 457.298
-493.623 457.298 5981.42

-8618.48 57.9428 -189.259
57.9428 -1589.29 -228.495
-189.259 -228.495 -660.006

-9270.57 123.051 -567.624
123.051 -2227.32 -452.343
-567.624 -452.343 416.046

-8278.06 877.911 -26.4022
877.911 -925.529 -322.927
-26.4022 -322.927 -2949.23

-8745.43 -526.314 63.6821
-526.314 -882.147 116.12
63.6821 116.12 -1015.4

-8034.19 -124.428 -40.0277
-124.428 459.66 396.132
-40.0277 396.132 276.203

-8214.66 304.729 -461.007
304.729 -1215.81 -308.689
-461.007 -308.689 -441.189

-9234.58 434.301 -389.67
434.301 -3625.91 -36.8786
-389.67 -36.8786 -2489.19

-6797 858.683 -1415.1
858.683 -588.346 -847.073
-1415.1 -847.073 -234.442

-9191.05 -150.809 -137.159
-150.809 -2255.65 269.559
-137.159 269.559 -2352.42

-9243.96 -1266.82 -384.413
-1266.82 -882.324 -419.336
-384.413 -419.336 -3023.62

-7935.18 -408.273 -375.062
-408.273 1718.19 239.502
-375.062 239.502 3155.97

-11071.9 -1713.23 -685.796
-1713.23 -6786.73 531.763
-685.796 531.763 -8758.29

-8642.66 -840.58 1027.46
-840.58 -2742.92 -351.817
1027.46 -351.817 -2740.44

-9023.82 -514.565 -762.514
-514.565 -1462.71 -348.063
-762.514 -348.063 -527.413

-6688.69 179.799 2057.77
179.799 -1584.52 134.454
2057.77 134.454 953.534

-9974.02 -569.163 641.99
-569.163 -5161.72 314.653
641.99 314.653 -5268.5

-8828.76 -316.728 371.717
-316.728 -1187.05 542.169
371.717 542.169 -659.711

-8208.44 197.662 -300.176
197.662 -2192.7 -65.3819
-300.176 -65.3819 -666.809

-8525.89 160.821 -349.623
160.821 -2268.48 -150.794
-349.623 -150.794 -589.511

-9514.22 244.258 -189.561
244.258 -1444.71 -127.251
-189.561 -127.251 -866.214

-9814.21 -1775.89 1615.05
-1775.89 -5306.26 -923.187
1615.05 -923.187 -6293.69

-8420.02 -65.6144 -110.591
-65.6144 -2224.72 11.9092
-110.591 11.9092 -555.075

-8929.12 222.941 51.7257
222.941 -834.747 -140.175
51.7257 -140.175 -223.212

-13781.9 -163.834 -143.094
-163.834 -9265.66 -146.474
-143.094 -146.474 -9328.66

-9465.73 145.043 -30.4551
145.043 -893.242 -655.045
-30.4551 -655.045 -1077.26

-7812.48 -646.124 1122.07
-646.124 -1187.52 493.803
1122.07 493.803 -1223.84

-9732.65 -505.512 2255.19
-505.512 -7504.02 -314.167
2255.19 -314.167 -5789.35

-7744.99 202.854 126.203
202.854 1805.12 100.841
126.203 100.841 1933.29

-9508.82 -81.0118 36.2197
-81.0118 -1145.91 -751.786
36.2197 -751.786 -938.284

-9363.39 57.5783 542.756
57.5783 -2094.33 -284.597
542.756 -284.597 278.65

-9650.19 -1816.4 1011.37
-1816.4 -4765.74 -448.559
1011.37 -448.559 -6440.5

-6364.3 -471.344 577.738
-471.344 5649.67 -37.9408
577.738 -37.9408 6523.82

-7196.49 450.784 -17.2908
450.784 1039.37 266.454
-17.2908 266.454 680.633

-8648.04 -519.255 -507.202
-519.255 -2013.69 -504.992
-507.202 -504.992 -1004.98

-7137.42 -1340.25 909.429
-1340.25 -902.265 -157.71
909.429 -157.71 -1212.99

-12289.1 -9.27719 -128.481
-9.27719 -6199.66 -102.228
-128.481 -102.228 -5560.01

-10878.3 1159.55 -830.302
1159.55 -8323.98 -67.1315
-830.302 -67.1315 -8521.39

-8076.43 14.2477 146.464
14.2477 -307.503 600.106
146.464 600.106 381.342

-6971.42 -551.164 -645.946
-551.164 108.904 -26.5428
-645.946 -26.5428 -292.63

-7695.99 325.447 -401.454
325.447 -1100.49 -193.971
-401.454 -193.971 -871.059

-9297.58 104.058 -139.388
104.058 -2994.33 41.0606
-139.388 41.0606 -2321.76

-8325.26 131.213 446.958
131.213 -696.296 -308.264
446.958 -308.264 -1114.87

-7692.96 191.485 458.821
191.485 68.0864 178.093
458.821 178.093 -1366.86

-8925.53 501.583 -359.14
501.583 -2355.51 216.098
-359.14 216.098 -1375.46

-6575.26 -50.2848 -529.606
-50.2848 -91.9712 891.22
-529.606 891.22 144.299

-12149.2 382.697 -590.969
382.697 -8098.36 37.2468
-590.969 37.2468 -8017.66

-12361.6 155.227 -476.637
155.227 -7719.82 223.626
-476.637 223.626 -8178.42

-6923.87 136.35 -373.267
136.35 797.386 277.42
-373.267 277.42 -80.3419

-14203.5 -216.523 -467.585
-216.523 -10059.6 2.21584
-467.585 2.21584 -10229.7

-8944.62 -230.73 120.793
-230.73 -831.486 171.497
120.793 171.497 -1186.31

-8317.63 -685.52 2026
-685.52 -5864.94 -431.551
2026 -431.551 -5014.33

-7912.69 1018.68 -1.62435
1018.68 -2639.63 -392.828
-1.62435 -392.828 -3341.96

-6705.01 138.864 -34.9744
138.864 2304.59 724.449
-34.9744 724.449 2988.76

-7113.56 68.7355 556.744
68.7355 977.712 -83.4465
556.744 -83.4465 -974.67

-7276.48 58.1511 157.679
58.1511 3110.24 445.918
157.679 445.918 1324.16

-9294.76 -37.8287 -136.884
-37.8287 -417.431 743.094
-136.884 743.094 -520.523

-8336.22 190.406 32.665
190.406 -1335.16 -103.954
32.665 -103.954 -644.537

-7783.16 -748.145 -351.186
-748.145 -57.0071 371.598
-351.186 371.598 665.593

-7911.4 177.21 267.831
177.21 -147.835 -410.093
267.831 -410.093 353.649

-15585.7 -233.949 767.669
-233.949 -15340.8 -192.739
767.669 -192.739 -14750.1

-12888.2 443.11 823.573
443.11 -10032.9 348.703
823.573 348.703 -9067.01

-8508.97 -176.403 403.48
-176.403 1664.94 -599.244
403.48 -599.244 2782.49

-9765.79 1777.6 1707.63
1777.6 -5854.62 967.195
1707.63 967.195 -5865.5

-8311.54 -291.117 -194.087
-291.117 227.127 -121.518
-194.087 -121.518 346.353

-7169.73 -501.396 425.139
-501.396 -1007.51 267.641
425.139 267.641 1350.58

-8378.18 -168.399 -59.4688
-168.399 -207.367 -59.3378
-59.4688 -59.3378 458.219

-9431.46 178.969 271.322
178.969 -3635.14 -212.776
271.322 -212.776 -2535.81

-10139.7 2206.04 615.984
2206.04 -5591.37 239.264
615.984 239.264 -7672.11

-7974.76 -172.898 598.865
-172.898 844.676 252.17
598.865 252.17 472.479

-7840.93 2253.53 1072.85
2253.53 -2659.22 287.473
1072.85 287.473 -3577.17

-8928.92 378.057 187.87
378.057 -2490.55 -379.071
187.87 -379.071 -2205.91

-7741.85 192.052 970.435
192.052 -2326.72 -95.1543
970.435 -95.1543 -1544.89

-10257 2192.77 -578.288
2192.77 -5505.1 -71.5146
-578.288 -71.5146 -8022.42

-9095.37 111.4 32.4659
111.4 -1590.16 -216.032
32.4659 -216.032 -2003.02

-8493.33 -225.745 -78.8295
-225.745 54.4416 69.7709
-78.8295 69.7709 761.313

-9288.94 69.0126 120.424
69.0126 -467.007 391.146
120.424 391.146 -225.598

-6984.23 39.7797 449.038
39.7797 4889.13 110.776
449.038 110.776 4441.75

-11944.5 990.125 -395.508
990.125 -9741.73 -228.684
-395.508 -228.684 -10354.4

-8000.64 1221.43 48.575
1221.43 -847.852 139.564
48.575 139.564 -2295.22

-7110.5 1297.2 -137.96
1297.2 230.245 -456.352
-137.96 -456.352 -1473.88

-6322.49 869.195 1624.68
869.195 -598.472 561.06
1624.68 561.06 -40.1342

-8903.48 -165.521 2601.08
-165.521 -6898.76 -48.3669
2601.08 -48.3669 -3883.5

-10894.6 1071.08 814.374
1071.08 -7698.08 140.54
814.374 140.54 -7741.23

-7923.99 1049.29 1479.77
1049.29 -2247.08 580.639
1479.77 580.639 -1060.18

-11186.1 1571.08 1413.17
1571.08 -7223.64 1374.17
1413.17 1374.17 -7678.85

