# vtk DataFile Version 3.0
vtk output at time 0.3
ASCII
DATASET UNSTRUCTURED_GRID
POINTS 527 float
0 0 0 0 0 0.05 0 0 0.1 
0 0 0.15 0 0 0.2 0 0.05 0 
0 0.05 0.05 0 0.05 0.1 0 0.05 0.15 
0 0.05 0.2 0 0.1 0 0 0.1 0.05 
0 0.1 0.1 0 0.1 0.15 0 0.1 0.2 
0 0.15 0 0 0.15 0.05 0 0.15 0.1 
0 0.15 0.15 0 0.15 0.2 0 0.2 0 
0 0.2 0.05 0 0.2 0.1 0 0.2 0.15 
0 0.2 0.2 0.05 0 0 0.05 0 0.05 
0.05 0 0.1 0.05 0 0.15 0.05 0 0.2 
0.05 0.05 0 0.05 0.05 0.2 0.05 0.1 0 
0.05 0.1 0.2 0.05 0.15 0 0.05 0.15 0.2 
0.05 0.2 0 0.05 0.2 0.05 0.05 0.2 0.1 
0.05 0.2 0.15 0.05 0.2 0.2 0.1 0 0 
0.1 0 0.05 0.1 0 0.1 0.1 0 0.15 
0.1 0 0.2 0.1 0.05 0 0.1 0.05 0.2 
0.1 0.1 0 0.1 0.1 0.2 0.1 0.15 0 
0.1 0.15 0.2 0.1 0.2 0 0.1 0.2 0.05 
0.1 0.2 0.1 0.1 0.2 0.15 0.1 0.2 0.2 
0.15 0 0 0.15 0 0.05 0.15 0 0.1 
0.15 0 0.15 0.15 0 0.2 0.15 0.05 0 
0.15 0.05 0.2 0.15 0.1 0 0.15 0.1 0.2 
0.15 0.15 0 0.15 0.15 0.2 0.15 0.2 0 
0.15 0.2 0.05 0.15 0.2 0.1 0.15 0.2 0.15 
0.15 0.2 0.2 0.2 0 0 0.2 0 0.05 
0.2 0 0.1 0.2 0 0.15 0.2 0 0.2 
0.2 0.05 0 0.2 0.05 0.05 0.2 0.05 0.1 
0.2 0.05 0.15 0.2 0.05 0.2 0.2 0.1 0 
0.2 0.1 0.05 0.2 0.1 0.1 0.2 0.1 0.15 
0.2 0.1 0.2 0.2 0.15 0 0.2 0.15 0.05 
0.2 0.15 0.1 0.2 0.15 0.15 0.2 0.15 0.2 
0.2 0.2 0 0.2 0.2 0.05 0.2 0.2 0.1 
0.2 0.2 0.15 0.2 0.2 0.2 0 0.025 0 
0.025 0 0 0.025 0 0.025 0 0 0.025 
0 0.025 0.025 0.025 0 0.05 0 0.025 0.05 
0 0.025 0.075 0 0 0.075 0 0.025 0.1 
0.025 0 0.075 0.025 0 0.1 0.025 0 0.125 
0 0 0.125 0.025 0 0.15 0 0.025 0.175 
0 0.025 0.15 0 0 0.175 0 0.025 0.125 
0.025 0 0.175 0 0.025 0.2 0.025 0 0.2 
0.025 0.025 0.025 0 0.05 0.025 0.025 0.025 0 
0.025 0.05 0 0.025 0.075 0 0 0.075 0.025 
0 0.075 0 0.025 0.025 0.05 0 0.05 0.075 
0 0.075 0.05 0.05 0.075 0.025 0.025 0.075 0.025 
0.05 0.05 0.025 0.025 0.05 0.025 0.05 0.025 0.075 
0.05 0.025 0.05 0 0.075 0.075 0.05 0.075 0.05 
0.05 0.025 0.1 0.025 0.025 0.075 0.025 0.025 0.125 
0.05 0.025 0.125 0.025 0.025 0.1 0 0.05 0.125 
0 0.075 0.125 0 0.075 0.1 0 0.05 0.175 
0.025 0.025 0.15 0.025 0.075 0.175 0.025 0.05 0.175 
0.05 0.075 0.175 0 0.075 0.15 0.05 0.05 0.175 
0.05 0.025 0.15 0.025 0.025 0.175 0.025 0.075 0.2 
0.025 0.05 0.2 0.025 0.025 0.2 0 0.075 0.175 
0 0.075 0.2 0 0.125 0 0.025 0.1 0 
0 0.1 0.025 0.05 0.1 0.025 0 0.125 0.025 
0 0.125 0.05 0.025 0.125 0.025 0.025 0.1 0.025 
0 0.1 0.075 0.05 0.125 0.025 0 0.125 0.075 
0 0.1 0.125 0.05 0.15 0.125 0.05 0.125 0.15 
0.05 0.1 0.15 0.05 0.15 0.1 0.05 0.125 0.05 
0.05 0.1 0.05 0 0.125 0.1 0.05 0.05 0.1 
0.05 0.05 0.125 0.1 0.1 0.1 0.05 0.15 0.15 
0.05 0.125 0.175 0 0.125 0.175 0 0.125 0.15 
0.025 0.125 0.175 0.025 0.1 0.175 0 0.1 0.175 
0 0.125 0.125 0.05 0.1 0.175 0.05 0.05 0.15 
0.025 0.1 0.2 0 0.125 0.2 0 0.15 0.025 
0.025 0.15 0 0.025 0.175 0 0.025 0.175 0.025 
0.025 0.125 0 0 0.175 0.025 0 0.175 0 
0.025 0.15 0.025 0.025 0.175 0.05 0.05 0.15 0.025 
0.05 0.175 0.05 0 0.175 0.05 0 0.15 0.075 
0.05 0.175 0.075 0.025 0.175 0.075 0.05 0.175 0.1 
0.025 0.175 0.1 0 0.175 0.1 0.025 0.175 0.125 
0 0.175 0.075 0.05 0.175 0.125 0 0.15 0.125 
0 0.175 0.125 0.05 0.15 0.05 0 0.15 0.175 
0.025 0.15 0.175 0.025 0.175 0.15 0.05 0.15 0.175 
0 0.175 0.15 0.05 0.175 0.15 0.025 0.175 0.175 
0.025 0.15 0.2 0.025 0.175 0.2 0 0.175 0.175 
0.025 0.125 0.2 0 0.175 0.2 0.025 0.2 0 
0.025 0.2 0.025 0 0.2 0.025 0.025 0.2 0.05 
0 0.2 0.075 0.025 0.2 0.1 0.025 0.2 0.125 
0.025 0.2 0.075 0 0.2 0.125 0.025 0.2 0.15 
0 0.2 0.175 0.025 0.2 0.175 0.025 0.2 0.2 
0.05 0 0.025 0.075 0 0 0.075 0.025 0 
0.05 0.025 0 0.075 0 0.025 0.075 0.025 0.025 
0.05 0.025 0.025 0.075 0 0.075 0.075 0 0.05 
0.05 0 0.075 0.075 0 0.1 0.05 0 0.125 
0.075 0.025 0.175 0.075 0 0.175 0.075 0 0.15 
0.075 0 0.125 0.05 0.025 0.175 0.05 0 0.175 
0.075 0.025 0.2 0.075 0 0.2 0.05 0.025 0.2 
0.075 0.05 0 0.05 0.075 0 0.05 0.075 0.2 
0.075 0.05 0.2 0.075 0.075 0 0.075 0.1 0 
0.05 0.125 0 0.075 0.125 0 0.05 0.125 0.2 
0.075 0.1 0.2 0.075 0.075 0.2 0.075 0.125 0.2 
0.05 0.175 0 0.05 0.175 0.025 0.075 0.15 0 
0.05 0.175 0.175 0.05 0.175 0.2 0.075 0.15 0.2 
0.05 0.2 0.025 0.075 0.2 0 0.075 0.175 0 
0.075 0.2 0.075 0.05 0.2 0.075 0.075 0.2 0.025 
0.075 0.175 0.025 0.075 0.2 0.05 0.075 0.2 0.1 
0.05 0.2 0.125 0.05 0.2 0.175 0.075 0.175 0.175 
0.075 0.2 0.15 0.075 0.2 0.175 0.075 0.2 0.125 
0.075 0.2 0.2 0.075 0.175 0.2 0.1 0.025 0 
0.1 0 0.025 0.125 0 0 0.125 0 0.025 
0.1 0.025 0.025 0.125 0 0.05 0.1 0 0.075 
0.125 0.05 0.025 0.1 0.05 0.025 0.1 0.05 0.15 
0.15 0.05 0.125 0.15 0.05 0.1 0.125 0.05 0.05 
0.1 0.05 0.05 0.1 0 0.125 0.125 0 0.075 
0.125 0 0.125 0.125 0.05 0.15 0.125 0 0.1 
0.1 0.025 0.175 0.1 0 0.175 0.1 0.05 0.175 
0.125 0 0.15 0.125 0.05 0.175 0.1 0.025 0.2 
0.125 0 0.2 0.125 0 0.175 0.1 0.075 0 
0.125 0.025 0 0.125 0.025 0.025 0.125 0.05 0 
0.125 0.075 0 0.125 0.025 0.2 0.125 0.025 0.175 
0.1 0.075 0.2 0.125 0.075 0.2 0.125 0.05 0.2 
0.15 0.1 0.05 0.125 0.1 0 0.1 0.125 0 
0.15 0.125 0.05 0.125 0.15 0.05 0.1 0.15 0.05 
0.15 0.1 0.175 0.15 0.1 0.15 0.15 0.125 0.15 
0.1 0.15 0.175 0.1 0.15 0.15 0.125 0.15 0.175 
0.125 0.15 0.15 0.15 0.125 0.175 0.125 0.1 0.2 
0.1 0.125 0.2 0.1 0.175 0 0.1 0.175 0.025 
0.125 0.175 0.025 0.125 0.175 0 0.125 0.15 0 
0.15 0.15 0.05 0.125 0.175 0.05 0.1 0.175 0.05 
0.125 0.125 0 0.1 0.175 0.175 0.1 0.175 0.2 
0.125 0.175 0.175 0.125 0.175 0.2 0.15 0.15 0.175 
0.125 0.15 0.2 0.125 0.125 0.2 0.1 0.2 0.025 
0.125 0.2 0.025 0.125 0.2 0 0.1 0.2 0.075 
0.125 0.2 0.05 0.1 0.2 0.125 0.15 0.175 0.1 
0.125 0.2 0.1 0.15 0.15 0.1 0.125 0.2 0.125 
0.125 0.2 0.075 0.1 0.2 0.175 0.125 0.2 0.15 
0.125 0.2 0.175 0.125 0.2 0.2 0.15 0 0.025 
0.15 0.025 0 0.175 0 0 0.175 0.025 0 
0.15 0.025 0.025 0.175 0.05 0.05 0.175 0.025 0.075 
0.175 0.05 0.075 0.15 0.05 0.025 0.175 0 0.025 
0.175 0.025 0.025 0.15 0 0.075 0.175 0 0.05 
0.175 0.025 0.05 0.175 0 0.075 0.175 0.025 0.1 
0.15 0 0.125 0.175 0.05 0.125 0.175 0.05 0.1 
0.15 0.05 0.05 0.175 0 0.1 0.175 0.025 0.125 
0.175 0.05 0.15 0.15 0 0.175 0.175 0 0.15 
0.175 0.025 0.15 0.15 0.025 0.175 0.175 0.025 0.175 
0.175 0 0.175 0.15 0.05 0.175 0.175 0 0.125 
0.15 0.025 0.2 0.175 0.025 0.2 0.175 0 0.2 
0.15 0.075 0 0.175 0.05 0 0.175 0.075 0.025 
0.175 0.05 0.025 0.175 0.05 0.2 0.175 0.075 0.175 
0.175 0.05 0.175 0.15 0.075 0.2 0.175 0.1 0.05 
0.175 0.125 0.05 0.175 0.075 0 0.175 0.1 0.025 
0.175 0.1 0 0.15 0.125 0 0.175 0.125 0.025 
0.175 0.125 0 0.175 0.125 0.2 0.175 0.125 0.175 
0.175 0.1 0.175 0.175 0.075 0.2 0.175 0.1 0.2 
0.15 0.125 0.2 0.15 0.175 0 0.15 0.175 0.025 
0.175 0.15 0.05 0.15 0.175 0.05 0.175 0.15 0 
0.175 0.15 0.025 0.175 0.15 0.2 0.15 0.175 0.2 
0.15 0.175 0.175 0.175 0.15 0.175 0.15 0.2 0.025 
0.175 0.2 0 0.175 0.175 0 0.175 0.2 0.025 
0.175 0.175 0.025 0.175 0.2 0.05 0.175 0.175 0.075 
0.175 0.2 0.075 0.15 0.2 0.075 0.175 0.175 0.05 
0.15 0.2 0.125 0.175 0.175 0.1 0.175 0.2 0.1 
0.175 0.175 0.175 0.175 0.2 0.15 0.175 0.175 0.15 
0.175 0.175 0.125 0.15 0.2 0.175 0.175 0.2 0.175 
0.175 0.2 0.125 0.175 0.175 0.2 0.175 0.2 0.2 
0.2 0.025 0 0.2 0 0.025 0.2 0.025 0.025 
0.2 0.025 0.05 0.2 0.025 0.075 0.2 0 0.075 
0.2 0.025 0.1 0.2 0 0.125 0.2 0.025 0.125 
0.2 0.025 0.15 0.2 0 0.175 0.2 0.025 0.175 
0.2 0.025 0.2 0.2 0.075 0.025 0.2 0.075 0 
0.2 0.05 0.025 0.2 0.075 0.05 0.2 0.05 0.075 
0.2 0.075 0.125 0.2 0.075 0.075 0.2 0.075 0.1 
0.2 0.05 0.125 0.2 0.075 0.15 0.2 0.05 0.175 
0.2 0.075 0.175 0.2 0.075 0.2 0.2 0.1 0.025 
0.2 0.125 0 0.2 0.1 0.075 0.2 0.125 0.025 
0.2 0.125 0.05 0.2 0.125 0.075 0.2 0.1 0.125 
0.2 0.125 0.1 0.2 0.125 0.125 0.2 0.125 0.15 
0.2 0.125 0.175 0.2 0.1 0.175 0.2 0.125 0.2 
0.2 0.175 0 0.2 0.175 0.025 0.2 0.15 0.025 
0.2 0.15 0.075 0.2 0.175 0.05 0.2 0.175 0.125 
0.2 0.15 0.125 0.2 0.175 0.075 0.2 0.175 0.1 
0.2 0.15 0.175 0.2 0.175 0.15 0.2 0.175 0.175 
0.2 0.175 0.2 0.2 0.2 0.025 0.2 0.2 0.075 
0.2 0.2 0.125 0.2 0.2 0.175 

CELLS 236 2596
10 69 93 88 68 452 510 453 449 450 451 
10 28 47 45 44 255 323 256 257 318 319 
10 93 69 88 94 452 453 510 523 454 511 
10 43 49 86 85 308 342 309 310 343 503 
10 5 1 26 6 102 103 120 121 104 127 
10 82 86 81 63 495 493 494 421 422 423 
10 7 11 48 6 136 163 137 128 129 130 
10 37 17 54 38 208 209 285 286 210 290 
10 55 13 12 51 182 171 172 361 183 173 
10 90 86 49 85 505 342 344 504 503 343 
10 37 52 50 36 287 352 288 282 283 284 
10 91 92 65 86 519 433 434 506 507 435 
10 82 65 86 63 436 435 495 421 424 422 
10 25 5 0 26 122 98 99 243 120 100 
10 46 32 6 48 268 131 132 326 269 130 
10 57 46 58 62 327 328 383 384 329 387 
10 26 41 25 46 247 244 243 248 299 245 
10 22 38 39 17 235 291 236 211 210 212 
10 55 49 12 54 345 174 172 373 346 175 
10 26 5 6 30 120 121 127 249 123 133 
10 25 30 26 46 246 249 243 245 264 248 
10 11 15 16 34 164 194 165 166 195 201 
10 82 65 87 86 436 437 496 495 435 508 
10 15 34 36 37 195 276 196 197 277 282 
10 43 85 64 48 310 425 311 312 336 337 
10 1 5 26 0 102 120 103 101 98 100 
10 52 37 50 53 287 288 352 368 289 353 
10 60 80 59 86 404 398 399 405 489 400 
10 48 7 6 43 137 128 130 312 138 134 
10 92 71 96 91 462 463 521 519 464 520 
10 26 7 43 6 139 138 250 127 128 134 
10 6 26 46 42 127 248 132 135 251 303 
10 32 15 10 11 198 160 161 167 164 162 
10 90 71 70 49 465 459 460 344 347 348 
10 28 9 8 3 154 146 147 112 113 114 
10 68 69 50 66 449 354 355 439 440 356 
10 49 90 54 70 344 374 346 348 460 375 
10 28 43 7 44 258 138 140 257 313 141 
10 92 72 71 67 469 466 462 445 446 447 
10 71 56 51 72 381 362 363 466 382 364 
10 50 37 16 53 288 202 203 353 289 204 
10 5 6 30 32 121 133 123 124 131 265 
10 39 19 35 40 224 225 279 292 226 280 
10 12 11 50 48 168 169 176 177 163 338 
10 21 15 37 16 199 197 233 205 194 202 
10 28 4 9 3 117 118 154 112 115 113 
10 80 84 58 85 490 388 389 491 499 390 
10 15 36 20 37 196 230 200 197 282 231 
10 15 20 21 37 200 232 199 197 231 233 
10 19 18 35 13 218 219 225 184 185 186 
10 39 51 35 18 293 281 279 220 221 219 
10 15 34 37 16 195 277 197 194 201 202 
10 19 23 39 18 227 239 224 218 222 220 
10 5 6 32 11 121 131 124 125 129 167 
10 10 5 32 11 126 124 161 162 125 167 
10 19 33 14 13 228 192 193 184 187 188 
10 26 41 46 42 247 299 248 251 300 303 
10 24 19 39 40 229 224 241 242 226 292 
10 51 91 67 65 365 448 366 367 434 438 
10 17 21 37 16 213 233 208 206 205 202 
10 37 22 21 17 237 234 233 208 211 213 
10 49 91 65 86 349 434 350 342 506 435 
10 7 1 26 2 105 103 139 107 106 108 
10 17 55 12 54 214 172 178 209 373 175 
10 19 33 13 35 228 187 184 225 272 186 
10 7 2 26 27 107 108 139 142 109 252 
10 33 9 8 31 155 146 148 266 156 149 
10 55 18 39 17 223 220 294 214 215 212 
10 23 22 39 17 238 236 239 216 211 212 
10 18 23 39 17 222 239 220 215 216 212 
10 26 7 27 43 139 142 252 250 138 253 
10 32 15 11 34 198 164 167 270 195 166 
10 39 19 18 35 224 218 220 279 225 219 
10 23 19 39 24 227 224 239 240 229 241 
10 28 9 31 8 154 156 259 147 146 149 
10 28 4 29 9 117 119 260 154 118 157 
10 51 91 49 71 365 349 351 363 464 347 
10 96 71 90 91 463 465 515 520 464 516 
10 13 55 12 17 182 172 171 189 214 178 
10 92 71 91 67 462 464 519 445 447 448 
10 25 5 26 30 122 120 243 246 123 249 
10 47 61 45 60 331 324 323 332 406 325 
10 33 49 8 13 273 150 148 187 190 151 
10 85 90 64 48 504 426 425 336 339 337 
10 13 9 8 33 158 146 151 187 155 148 
10 78 64 84 83 427 428 484 485 429 497 
10 6 32 11 48 131 167 129 130 269 163 
10 16 37 54 53 202 285 207 204 289 371 
10 47 33 8 31 274 148 152 267 266 149 
10 1 7 26 6 105 139 103 104 128 127 
10 76 80 60 81 479 404 407 480 492 408 
10 90 94 69 95 517 454 455 518 524 456 
10 90 50 70 66 357 358 460 441 356 442 
10 7 2 27 28 107 109 142 140 110 254 
10 29 28 47 45 260 255 261 262 256 323 
10 3 7 8 28 116 143 114 112 140 147 
10 29 28 31 47 260 259 263 261 255 267 
10 47 33 49 8 274 273 333 152 148 150 
10 28 8 31 47 147 149 259 255 152 267 
10 90 70 69 66 460 457 455 441 442 440 
10 71 97 92 96 467 522 462 463 526 521 
10 58 46 64 62 328 330 391 387 329 417 
10 13 9 33 14 158 155 187 188 159 192 
10 39 56 40 51 295 297 292 293 362 298 
10 3 7 28 2 116 140 112 111 107 110 
10 46 57 58 41 327 383 328 299 301 302 
10 90 50 48 70 357 338 339 460 358 340 
10 90 54 70 48 374 375 460 339 341 340 
10 58 43 64 42 314 311 391 304 305 306 
10 28 43 27 7 258 253 254 140 138 142 
10 8 49 47 44 150 333 152 153 320 318 
10 28 8 47 44 147 152 255 257 153 318 
10 43 49 12 44 308 174 179 313 320 180 
10 12 49 13 44 174 190 171 180 320 191 
10 49 8 13 44 150 151 190 320 153 191 
10 12 13 7 44 171 144 145 180 191 141 
10 43 12 7 44 179 145 138 313 180 141 
10 13 8 7 44 151 143 144 191 153 141 
10 7 8 28 44 143 147 140 141 153 257 
10 91 51 49 65 365 351 349 434 367 350 
10 92 87 65 86 509 437 433 507 508 435 
10 63 61 60 82 414 406 409 421 415 410 
10 60 61 77 82 406 416 411 410 415 483 
10 67 51 72 71 366 364 446 447 363 466 
10 91 92 67 65 519 445 448 434 433 438 
10 63 60 81 82 409 408 423 421 410 494 
10 76 60 77 82 407 411 481 482 410 483 
10 60 76 81 82 407 480 408 410 482 494 
10 39 56 51 55 295 362 293 294 379 361 
10 18 35 13 51 219 186 185 221 281 183 
10 55 13 51 18 182 183 361 223 185 221 
10 49 55 12 51 345 172 174 351 361 173 
10 35 33 13 51 272 187 186 281 275 183 
10 33 49 13 51 273 190 187 275 351 183 
10 49 12 13 51 174 171 190 351 173 183 
10 55 13 18 17 182 185 223 214 189 215 
10 71 56 55 51 381 379 380 363 362 361 
10 51 40 39 35 298 292 293 281 280 279 
10 37 36 50 34 282 284 288 277 276 278 
10 47 60 44 65 332 321 318 334 412 322 
10 49 47 44 65 333 318 320 350 334 322 
10 47 61 60 63 331 406 332 335 414 409 
10 43 44 60 65 313 321 315 316 322 412 
10 43 49 44 65 308 320 313 316 350 322 
10 39 51 18 55 293 221 220 294 361 223 
10 54 39 38 17 296 291 290 209 212 210 
10 90 70 95 69 460 461 518 455 457 456 
10 49 12 54 85 174 175 346 343 181 376 
10 71 49 54 70 347 346 377 459 348 375 
10 51 91 71 67 365 464 363 366 448 447 
10 49 55 51 71 345 361 351 347 380 363 
10 6 43 26 42 134 250 127 135 305 251 
10 73 58 78 57 392 393 471 385 383 386 
10 37 22 17 38 237 211 208 286 235 210 
10 43 49 65 86 308 350 316 309 342 435 
10 59 43 60 86 317 315 399 400 309 405 
10 60 43 65 86 315 316 412 405 309 435 
10 63 60 65 86 409 412 424 422 405 435 
10 60 63 81 86 409 423 408 405 422 493 
10 37 17 16 54 208 206 202 285 209 207 
10 71 95 90 70 468 518 465 459 461 460 
10 49 55 71 54 345 380 347 346 373 377 
10 95 71 90 96 468 465 518 525 463 515 
10 88 69 66 89 453 440 443 512 458 444 
10 90 49 54 85 344 346 374 504 343 376 
10 78 64 62 84 427 417 418 484 428 419 
10 90 66 89 64 441 444 513 426 430 431 
10 54 90 85 48 374 504 376 341 339 336 
10 69 68 88 66 449 451 453 440 439 443 
10 9 29 28 31 157 260 154 156 263 259 
10 54 12 50 48 175 176 359 341 177 338 
10 88 69 89 94 453 458 512 511 454 514 
10 78 58 62 57 393 387 418 386 383 384 
10 69 54 50 70 378 359 354 457 375 358 
10 90 86 91 49 505 506 516 344 342 349 
10 12 54 85 48 175 376 181 177 341 336 
10 89 66 88 64 444 443 512 431 430 432 
10 88 84 89 64 500 501 512 432 428 431 
10 69 70 50 66 457 358 354 440 442 356 
10 49 43 12 85 308 179 174 343 310 181 
10 92 72 97 71 469 470 522 462 466 467 
10 90 94 89 69 517 514 513 455 454 458 
10 69 54 53 50 378 371 372 354 359 353 
10 68 69 52 50 449 369 370 355 354 352 
10 48 7 43 12 137 138 312 177 145 179 
10 69 90 66 89 455 441 440 458 513 444 
10 59 43 86 85 317 309 400 401 310 503 
10 60 80 86 81 404 489 405 408 492 493 
10 69 53 52 50 372 368 369 354 353 352 
10 90 71 49 91 465 347 344 516 464 349 
10 50 37 34 16 288 277 278 203 202 201 
10 54 16 53 50 207 204 371 359 203 353 
10 46 32 30 6 268 265 264 132 131 133 
10 32 34 11 50 270 166 167 271 278 169 
10 12 17 54 50 178 209 175 176 217 359 
10 17 16 54 50 206 207 209 217 203 359 
10 11 17 12 50 170 178 168 169 217 176 
10 11 16 17 50 165 206 170 169 203 217 
10 11 34 16 50 166 201 165 169 278 203 
10 11 7 48 12 136 137 163 168 145 177 
10 64 50 90 66 360 357 426 430 356 441 
10 90 89 84 64 513 501 502 426 431 428 
10 85 59 58 80 401 394 390 491 398 389 
10 60 45 47 44 325 323 332 321 319 318 
10 11 32 50 48 167 271 169 163 269 338 
10 50 64 90 48 360 426 357 338 337 339 
10 43 12 85 48 179 181 310 312 177 336 
10 59 43 85 64 317 310 401 402 311 425 
10 30 6 26 46 133 127 249 264 132 248 
10 46 41 58 42 299 302 328 303 300 304 
10 90 84 85 64 502 499 504 426 428 425 
10 84 62 78 79 419 418 484 487 420 486 
10 70 54 50 48 375 359 358 340 341 338 
10 78 74 79 58 473 474 486 393 395 396 
10 58 46 42 64 328 303 304 391 330 306 
10 54 39 17 55 296 212 209 373 294 214 
10 43 6 48 42 134 130 312 305 135 307 
10 84 64 62 58 428 417 419 388 391 387 
10 58 80 75 74 389 477 397 395 475 476 
10 47 60 65 63 332 412 334 335 409 424 
10 58 80 74 79 389 475 395 396 488 474 
10 85 59 64 58 401 402 425 390 394 391 
10 84 85 64 58 499 425 428 388 390 391 
10 60 75 80 76 413 477 404 407 478 479 
10 48 6 46 42 130 132 326 307 135 303 
10 58 43 59 64 314 317 394 391 311 402 
10 64 43 48 42 311 312 337 306 305 307 
10 64 48 46 42 337 326 330 306 307 303 
10 86 59 85 80 400 401 503 489 398 491 
10 59 58 80 75 394 389 398 403 397 477 
10 60 75 59 80 413 403 399 404 477 398 
10 62 84 58 79 419 388 387 420 487 396 
10 88 84 64 83 500 428 432 498 497 429 
10 80 84 79 58 490 487 488 389 388 396 
10 78 58 79 62 393 396 486 418 387 420 
10 78 74 58 73 473 395 393 471 472 392 

CELL_TYPES 236
24
24
24
24
24
24
24
24
24
24
24
24
24
24
24
24
24
24
24
24
24
24
24
24
24
24
24
24
24
24
24
24
24
24
24
24
24
24
24
24
24
24
24
24
24
24
24
24
24
24
24
24
24
24
24
24
24
24
24
24
24
24
24
24
24
24
24
24
24
24
24
24
24
24
24
24
24
24
24
24
24
24
24
24
24
24
24
24
24
24
24
24
24
24
24
24
24
24
24
24
24
24
24
24
24
24
24
24
24
24
24
24
24
24
24
24
24
24
24
24
24
24
24
24
24
24
24
24
24
24
24
24
24
24
24
24
24
24
24
24
24
24
24
24
24
24
24
24
24
24
24
24
24
24
24
24
24
24
24
24
24
24
24
24
24
24
24
24
24
24
24
24
24
24
24
24
24
24
24
24
24
24
24
24
24
24
24
24
24
24
24
24
24
24
24
24
24
24
24
24
24
24
24
24
24
24
24
24
24
24
24
24
24
24
24
24
24
24
24
24
24
24
24
24
24
24
24
24
24
24
24
24
24
24
24
24

POINT_DATA 527
VECTORS displacement float
0 0 0
0 0 0
0 0 0
0 0 0
0 0 0
0 0 0
0 0 0
0 0 0
0 0 0
0 0 0
0 0 0
0 0 0
0 0 0
0 0 0
0 0 0
0 0 0
0 0 0
0 0 0
0 0 0
0 0 0
0 0 0
0 0 0
0 0 0
0 0 0
0 0 0
-0.00456197 -0.00351809 -0.00343764
-0.00351921 -0.00327656 -0.00168515
-0.00308607 -0.00349764 -1.41236e-05
-0.00338383 -0.00347746 0.00172013
-0.0046546 -0.00357564 0.00353317
-0.00344163 -0.00159949 -0.00349013
-0.00336108 -0.00164613 0.00350202
-0.00316734 8.33043e-05 -0.00347512
-0.00334612 -8.47417e-05 0.00341393
-0.00294805 0.00196656 -0.0034043
-0.00300264 0.00177839 0.00354747
-0.0046315 0.00375836 -0.00332665
-0.00351223 0.00334728 -0.00161765
-0.00300642 0.00344817 8.81072e-05
-0.00331763 0.00346939 0.00182898
-0.00464383 0.00362279 0.0035576
-0.00752391 -0.00424348 -0.00445024
-0.00726527 -0.00479131 -0.00250944
-0.00722664 -0.0047962 -9.67052e-05
-0.00780746 -0.00496425 0.0022824
-0.00758339 -0.0044354 0.00447701
-0.00760557 -0.00243553 -0.00479586
-0.00756276 -0.00246643 0.00498257
-0.00732912 1.81096e-05 -0.00494964
-0.00711681 3.02578e-05 0.00501984
-0.00757477 0.00265844 -0.00515202
-0.00736261 0.00237194 0.00520078
-0.00747572 0.00470974 -0.00436412
-0.00744646 0.00507996 -0.00228736
-0.00701399 0.00484873 0.000126784
-0.00777388 0.00478356 0.00247497
-0.0074363 0.00435356 0.00466425
-0.0103117 -0.00392851 -0.00360535
-0.0114821 -0.00379562 -0.00168932
-0.0120371 -0.00363839 8.37868e-05
-0.0116376 -0.0036212 0.00157735
-0.0104184 -0.00408561 0.00341529
-0.0116925 -0.00174686 -0.00405017
-0.0116633 -0.00196064 0.00408644
-0.0122243 9.45321e-05 -0.00385721
-0.0118807 -0.000158984 0.00389186
-0.0120833 0.00184876 -0.003693
-0.0116846 0.0015566 0.00379784
-0.0103662 0.00367913 -0.00339395
-0.0112692 0.00367722 -0.00147879
-0.0116588 0.00365881 0.000120432
-0.0114496 0.00371239 0.00160772
-0.0103498 0.00357767 0.00352365
-0.015 0 0
-0.015 0 0
-0.015 0 0
-0.015 0 0
-0.015 0 0
-0.015 0 0
-0.015 0 0
-0.015 0 0
-0.015 0 0
-0.015 0 0
-0.015 0 0
-0.015 0 0
-0.015 0 0
-0.015 0 0
-0.015 0 0
-0.015 0 0
-0.015 0 0
-0.015 0 0
-0.015 0 0
-0.015 0 0
-0.015 0 0
-0.015 0 0
-0.015 0 0
-0.015 0 0
-0.015 0 0
0 0 0
-0.00246054 -0.00205311 -0.00311829
-0.00120863 -0.00269304 -0.00175931
0 0 0
0 0 0
-0.00105567 -0.0027391 -0.00106156
0 0 0
0 0 0
0 0 0
0 0 0
-0.00113502 -0.00286346 -0.000503002
-0.00106504 -0.00261133 5.73266e-05
-0.00108836 -0.0027515 0.000624145
0 0 0
-0.00102523 -0.0026518 0.00111277
0 0 0
0 0 0
0 0 0
0 0 0
-0.00117883 -0.0026872 0.00175629
0 0 0
-0.00251538 -0.00206389 0.00315371
-0.00102902 -0.00179548 -0.00160419
0 0 0
-0.00194344 -0.00142681 -0.00261337
-0.00150084 -0.000954848 -0.00231691
-0.00100885 -9.98333e-05 -0.00272856
0 0 0
0 0 0
-0.00105899 -0.00176381 -0.0009471
0 0 0
0 0 0
-0.00240039 -0.000777179 -0.00281962
-0.00084528 -0.000239533 -0.00186887
-0.00303685 -0.00164766 -0.00256272
-0.00124102 -0.000982201 -0.00169479
-0.00269929 -0.00258361 -0.000829151
-0.00306626 -0.00239224 -0.00169005
0 0 0
-0.00209859 -0.000827048 -0.00204831
-0.00271478 -0.00261855 -8.16926e-05
-0.000921507 -0.0018835 -0.000421807
-0.000841125 -0.00178768 0.00056854
-0.00220297 -0.00293569 0.000932269
-0.000904968 -0.0018989 6.28577e-05
0 0 0
0 0 0
0 0 0
0 0 0
-0.000942005 -0.00173831 0.00106533
-0.000927532 -0.00038134 0.00188391
-0.00114032 -0.00101627 0.0017082
-0.00263379 -0.000862283 0.0026794
0 0 0
-0.00292895 -0.00169678 0.00255819
-0.0024481 -0.00273596 0.00179634
-0.000993503 -0.0017973 0.00166109
-0.00104729 -0.0002138 0.00280054
-0.00142038 -0.000981359 0.00235215
-0.00193454 -0.0014307 0.00265579
0 0 0
0 0 0
0 0 0
-0.000995856 0.000303521 -0.00275552
0 0 0
-0.0020473 0.000145109 -0.00299129
0 0 0
0 0 0
-0.000727754 0.00065852 -0.00175649
-0.000819655 0.000222107 -0.00178196
0 0 0
-0.00209422 0.000981495 -0.002912
0 0 0
0 0 0
-0.00231019 0.00192823 0.00095494
-0.00240638 0.000943852 0.00195753
-0.00260007 1.63046e-05 0.00213073
-0.00246212 0.00202822 1.67188e-05
-0.00216133 0.00101366 -0.00197558
-0.00225185 0.00012025 -0.00209006
0 0 0
-0.00261256 -0.00199383 -6.4172e-05
-0.00228758 -0.00202895 0.000913949
-0.00744874 4.85914e-05 1.63798e-05
-0.00217036 0.00192988 0.00193292
-0.00248957 0.000898925 0.00273574
0 0 0
0 0 0
-0.00079428 0.000580105 0.00187192
-0.000899527 0.000137124 0.0018632
0 0 0
0 0 0
-0.00262784 -1.79737e-05 0.00273885
-0.00219993 -0.00193952 0.00190052
-0.00105732 0.000203692 0.00289937
0 0 0
0 0 0
-0.00104704 0.00114499 -0.00226767
-0.00182559 0.00138688 -0.00247095
-0.000999698 0.00165653 -0.00156498
-0.00101958 0.000722921 -0.00253176
0 0 0
0 0 0
-0.000871585 0.00113374 -0.0015821
-0.00106758 0.0017289 -0.000903352
-0.00235895 0.00189847 -0.0026151
-0.00284703 0.00256916 -0.0016071
0 0 0
0 0 0
-0.0025805 0.00263217 -0.000745259
-0.00089399 0.00184945 -0.000396137
-0.00255972 0.00260746 3.0186e-05
-0.000875074 0.00183486 9.93491e-05
0 0 0
-0.000829155 0.00179315 0.000607813
0 0 0
-0.00218662 0.00288477 0.000991318
0 0 0
0 0 0
-0.00213661 0.00190052 -0.00190581
0 0 0
-0.000893886 0.00105028 0.00173379
-0.000936787 0.00168637 0.00108856
-0.00250715 0.00172278 0.00268131
0 0 0
-0.00231669 0.00277938 0.00184597
-0.000962108 0.00161656 0.00168907
-0.0010707 0.00104142 0.0024662
-0.00185324 0.00130044 0.00260526
0 0 0
-0.00108407 0.000647935 0.00271265
0 0 0
-0.00248175 0.0020045 -0.00302649
-0.00119595 0.00261852 -0.00165991
0 0 0
-0.00104832 0.00270754 -0.00103115
0 0 0
-0.00102537 0.00254285 0.000103382
-0.00106263 0.0026994 0.000656239
-0.00112243 0.00279245 -0.000447578
0 0 0
-0.000998873 0.00258602 0.00117683
0 0 0
-0.00114216 0.00253729 0.00176059
-0.0025028 0.00192509 0.00314005
-0.00387315 -0.00345276 -0.00267013
-0.00607339 -0.00397538 -0.00389022
-0.00569699 -0.00314381 -0.00404059
-0.00373059 -0.00253998 -0.00363337
-0.00568181 -0.00394444 -0.00308302
-0.00528709 -0.00307556 -0.00319798
-0.00309361 -0.00245733 -0.00270355
-0.00528734 -0.00402897 -0.00116643
-0.00533069 -0.0039954 -0.00220411
-0.00332859 -0.0034643 -0.000897283
-0.00506437 -0.00414451 -3.95595e-05
-0.00329344 -0.00353033 0.000882555
-0.00526277 -0.00321857 0.00328859
-0.0057635 -0.00414792 0.00318926
-0.00549993 -0.00429762 0.00211606
-0.00509992 -0.00444416 0.00111696
-0.00305179 -0.00255256 0.00273152
-0.0038979 -0.00353381 0.00274562
-0.00571727 -0.00323401 0.00410396
-0.00616563 -0.00410581 0.00399413
-0.00372011 -0.00258762 0.00369353
-0.00551025 -0.00210584 -0.00417981
-0.00325773 -0.000783941 -0.00354266
-0.00327217 -0.00086363 0.00352871
-0.00545533 -0.00214896 0.0042208
-0.00516013 -0.00114611 -0.00432439
-0.00503404 2.48226e-05 -0.00438346
-0.00300203 0.00103966 -0.00354201
-0.00499992 0.0011631 -0.00451937
-0.00313452 0.000864952 0.00358156
-0.00514636 -6.94602e-05 0.00421367
-0.00520914 -0.00115287 0.0042414
-0.00514412 0.000983121 0.0043373
-0.00348955 0.00286126 -0.00357857
-0.00282298 0.00268996 -0.00259267
-0.00518774 0.00248708 -0.00423834
-0.00286416 0.00257611 0.00275213
-0.0035522 0.00267292 0.00376074
-0.00516654 0.00220954 0.0043157
-0.00392293 0.00358388 -0.00255549
-0.00607109 0.00445551 -0.00372208
-0.00554172 0.00362421 -0.00398246
-0.00521009 0.00410248 -0.000980793
-0.00329066 0.00344431 -0.000786855
-0.00566213 0.00436658 -0.00295033
-0.00502838 0.00345633 -0.00313542
-0.0053601 0.0042494 -0.00203633
-0.00492795 0.00415385 0.000101233
-0.00320476 0.00346591 0.00097076
-0.00385126 0.00352238 0.0027917
-0.00506109 0.00324492 0.00336446
-0.00539388 0.00427086 0.00227705
-0.00562826 0.00416443 0.00330902
-0.00498868 0.00435175 0.00119831
-0.00608061 0.0041194 0.00406531
-0.00557665 0.00327978 0.00418894
-0.00752492 -0.00348754 -0.00453014
-0.00737021 -0.00443174 -0.00358105
-0.00888577 -0.00402326 -0.00407242
-0.00914497 -0.00405979 -0.00326616
-0.00732469 -0.00361772 -0.00364992
-0.00940396 -0.004145 -0.00227329
-0.00717952 -0.00482516 -0.00135198
-0.00982124 -0.00217115 -0.00337541
-0.00734928 -0.00248705 -0.00364917
-0.00734502 -0.00244722 0.0023776
-0.0124432 -0.00182282 0.000983999
-0.0124355 -0.00194194 5.60903e-05
-0.00993862 -0.00214246 -0.00228447
-0.0072814 -0.00246484 -0.00236069
-0.00735404 -0.00506714 0.00104687
-0.00956903 -0.00423989 -0.00117015
-0.00971523 -0.00442124 0.000990397
-0.0101223 -0.00224261 0.00240994
-0.00984141 -0.00422927 -8.93251e-06
-0.0076252 -0.00367249 0.00371886
-0.00761532 -0.00454976 0.0035014
-0.0074151 -0.00237751 0.00375588
-0.00987431 -0.00418422 0.00211361
-0.0100307 -0.00235898 0.00346488
-0.00757893 -0.00364046 0.00467844
-0.00899363 -0.00427043 0.00387607
-0.00938828 -0.00415014 0.00305713
-0.00746892 -0.00123418 -0.00492069
-0.00925098 -0.00322144 -0.0041626
-0.00945539 -0.00315553 -0.00333503
-0.00946759 -0.00224333 -0.00427718
-0.00986563 -0.0011942 -0.00438885
-0.00938006 -0.00343275 0.00408794
-0.00974489 -0.00331905 0.00330238
-0.00726858 -0.00121536 0.00504523
-0.00972228 -0.00130395 0.00456784
-0.00945871 -0.00242569 0.00433923
-0.0124865 6.4008e-06 -0.00215554
-0.0100072 -4.8651e-05 -0.00446274
-0.00741215 0.00137428 -0.00501283
-0.0124597 0.000925369 -0.00202233
-0.0100115 0.00246223 -0.00208873
-0.00720516 0.00257717 -0.00225221
-0.0126795 -0.00022256 0.00309203
-0.012564 -0.000154327 0.00218076
-0.0127898 0.000808168 0.00216185
-0.0072435 0.00240875 0.00376496
-0.00732582 0.00233173 0.00232706
-0.00986048 0.00237812 0.00339057
-0.010139 0.00229038 0.00220556
-0.0125841 0.000689746 0.00302513
-0.00973229 -0.000187297 0.00465808
-0.00712089 0.00126414 0.00511011
-0.00747442 0.00388082 -0.00468448
-0.00738684 0.00398384 -0.0036162
-0.00977202 0.00350556 -0.00318706
-0.00938954 0.00359915 -0.0040655
-0.00999494 0.00240329 -0.00424947
-0.0122258 0.00186584 -0.00178964
-0.00992685 0.00350824 -0.00215416
-0.00725946 0.00386491 -0.00238371
-0.00995231 0.00124476 -0.00426151
-0.00754573 0.00350027 0.00386236
-0.00744432 0.00355343 0.00491276
-0.00974491 0.00333162 0.00336177
-0.00929394 0.00325804 0.00419181
-0.0121776 0.00155793 0.0029226
-0.00954756 0.00209936 0.0044798
-0.00963535 0.000901536 0.00465104
-0.00743313 0.00488 -0.00343413
-0.00915293 0.00439319 -0.00302633
-0.0088499 0.00446845 -0.00381228
-0.00712717 0.00499758 -0.00112437
-0.00951789 0.00444105 -0.00212654
-0.00729719 0.00492393 0.00127369
-0.011962 0.00281631 8.02581e-05
-0.00953673 0.00450585 0.000137785
-0.0120309 0.00204179 4.5031e-05
-0.0096753 0.00434794 0.00129531
-0.00951733 0.00452804 -0.00103796
-0.00753674 0.00450038 0.00365276
-0.00991686 0.00407707 0.00236222
-0.00930724 0.00409269 0.00321137
-0.00882008 0.00413773 0.00400695
-0.0110269 -0.0038904 -0.00279797
-0.0112708 -0.00282779 -0.00401162
-0.0123939 -0.00208789 -0.00342915
-0.0130896 -0.00149417 -0.00301982
-0.011753 -0.00279543 -0.00294101
-0.0140285 -0.00109175 -0.00133793
-0.014035 -0.00204115 -0.000568516
-0.014078 -0.00124083 -0.000616505
-0.0120302 -0.00186595 -0.00284072
-0.0137715 -0.00268257 -0.00196937
-0.0139377 -0.001807 -0.00208263
-0.0117896 -0.00372018 -0.000806927
-0.013958 -0.00263198 -0.00124488
-0.0139818 -0.00182165 -0.00133569
-0.0138867 -0.00291715 -0.000586478
-0.0140689 -0.0021478 -3.32083e-06
-0.011871 -0.00370528 0.000921747
-0.0142267 -0.00164549 0.000532363
-0.0141468 -0.00149687 2.27317e-05
-0.0122389 -0.00184876 -0.00187637
-0.0139018 -0.00275484 3.34745e-05
-0.0140696 -0.00214601 0.000539636
-0.0140968 -0.00110204 0.00125614
-0.0111305 -0.00387892 0.00263654
-0.0140017 -0.00257691 0.00116075
-0.0140346 -0.0017819 0.00123955
-0.0119085 -0.00288266 0.00290926
-0.0139757 -0.0018465 0.00194894
-0.0138138 -0.00271703 0.00182926
-0.0121629 -0.00204427 0.0029071
-0.0138758 -0.00304924 0.000581309
-0.0113547 -0.00304079 0.00393559
-0.0131232 -0.00160875 0.00287642
-0.0124532 -0.0021863 0.00325633
-0.0119483 -0.000783989 -0.00393576
-0.0138137 -0.00109048 -0.00280614
-0.0140476 -0.000518527 -0.00208886
-0.014017 -0.00117824 -0.00206101
-0.0137976 -0.00121655 0.00267002
-0.0140875 -0.00064461 0.00195656
-0.0140656 -0.00126551 0.0019356
-0.0117929 -0.00102149 0.0040056
-0.0141545 6.26237e-05 -0.00154875
-0.0142464 0.00056845 -0.00177466
-0.0139966 -0.000563062 -0.00292641
-0.0141923 -6.46788e-05 -0.0022
-0.0140973 -8.45963e-05 -0.00298955
-0.0121511 0.00106114 -0.00376968
-0.0141482 0.000530759 -0.00231285
-0.0140905 0.000346565 -0.00294151
-0.0140152 4.13361e-05 0.00287144
-0.014166 0.000268098 0.00199546
-0.0141064 -0.00013206 0.00192773
-0.0139547 -0.000701566 0.00279971
-0.0140196 -0.000309747 0.00294929
-0.0117646 0.000709839 0.00387813
-0.0114782 0.00274239 -0.00363367
-0.0119253 0.00272038 -0.00272304
-0.0140023 0.00121244 -0.00145974
-0.0120879 0.00278258 -0.00176376
-0.0137351 0.00111636 -0.00264349
-0.013944 0.00119249 -0.00209036
-0.0136193 0.000818102 0.00261169
-0.011329 0.00258085 0.00375733
-0.0119585 0.00258178 0.0028177
-0.0139439 0.000871638 0.00198475
-0.0109708 0.0036038 -0.00255624
-0.0124686 0.00217772 -0.00336555
-0.0131339 0.001581 -0.00293106
-0.0137087 0.00281395 -0.00195128
-0.013881 0.00189993 -0.00199427
-0.0138674 0.00289275 -0.00118053
-0.0139632 0.00193877 -0.000736471
-0.0138294 0.00291044 -0.000521771
-0.0115674 0.00368468 -0.000689772
-0.0139378 0.00189104 -0.00135922
-0.0116691 0.00370326 0.000850401
-0.013668 0.00174334 4.92128e-05
-0.0137829 0.00255945 9.72152e-05
-0.0140001 0.00165436 0.00183281
-0.013956 0.00263118 0.00120447
-0.0139576 0.00155889 0.00133849
-0.0140085 0.00147582 0.000807857
-0.0110123 0.00353395 0.0026944
-0.0137807 0.00256801 0.00188883
-0.0139517 0.00250785 0.000680536
-0.0131099 0.00131904 0.00280453
-0.0124951 0.0019445 0.00329566
-0.015 0 0
-0.015 0 0
-0.015 0 0
-0.015 0 0
-0.015 0 0
-0.015 0 0
-0.015 0 0
-0.015 0 0
-0.015 0 0
-0.015 0 0
-0.015 0 0
-0.015 0 0
-0.015 0 0
-0.015 0 0
-0.015 0 0
-0.015 0 0
-0.015 0 0
-0.015 0 0
-0.015 0 0
-0.015 0 0
-0.015 0 0
-0.015 0 0
-0.015 0 0
-0.015 0 0
-0.015 0 0
-0.015 0 0
-0.015 0 0
-0.015 0 0
-0.015 0 0
-0.015 0 0
-0.015 0 0
-0.015 0 0
-0.015 0 0
-0.015 0 0
-0.015 0 0
-0.015 0 0
-0.015 0 0
-0.015 0 0
-0.015 0 0
-0.015 0 0
-0.015 0 0
-0.015 0 0
-0.015 0 0
-0.015 0 0
-0.015 0 0
-0.015 0 0
-0.015 0 0
-0.015 0 0
-0.015 0 0
-0.015 0 0
-0.015 0 0
-0.015 0 0
-0.015 0 0
-0.015 0 0
-0.015 0 0
-0.015 0 0

CELL_DATA 236
TENSORS stress float
-5239.84 -405.612 348.444
-405.612 -1037.75 139.995
348.444 139.995 -156.253

-4837.14 -90.7756 159.201
-90.7756 -569.652 233.346
159.201 233.346 -340.088

-5867.28 -1399.45 1153.25
-1399.45 -3502.42 -243.617
1153.25 -243.617 -3751.68

-4234.09 105.139 -396.746
105.139 -439.929 168.195
-396.746 168.195 -233.423

-4819.47 -1187.19 -868.509
-1187.19 -2349.98 226.331
-868.509 226.331 -2790.18

-6253.9 558.737 -1039.35
558.737 -4590.56 -77.7382
-1039.35 -77.7382 -4322.73

-7244.81 -66.1236 -408.489
-66.1236 -4974.22 -93.1355
-408.489 -93.1355 -5076.14

-4240.81 47.8197 31.7584
47.8197 -280.467 -15.2181
31.7584 -15.2181 -421.058

-5548.51 261.419 366.279
261.419 -1372.44 -25.5593
366.279 -25.5593 -1512.6

-9365.93 -185.532 -416.594
-185.532 -7237.08 -28.5487
-416.594 -28.5487 -7241.39

-3873.7 -93.0643 -28.6403
-93.0643 242.469 87.6365
-28.6403 87.6365 114.558

-4570.96 -210.463 -1320.65
-210.463 -3212.73 -38.8033
-1320.65 -38.8033 -2520.22

-3846.13 278.371 -1070.42
278.371 -971.032 -66.1977
-1070.42 -66.1977 -181.226

-5246.1 -412.264 -291.606
-412.264 -1019.96 -44.024
-291.606 -44.024 -165.85

-4145.45 83.5559 99.6517
83.5559 318.331 -92.1715
99.6517 -92.1715 -231.548

-4004.69 -110.546 -76.1898
-110.546 867.581 -72.8213
-76.1898 -72.8213 695.213

-3905.96 7.88899 -4.96362
7.88899 135.235 -75.9972
-4.96362 -75.9972 84.2631

-4306.96 747.629 150.421
747.629 -705.23 92.2646
150.421 92.2646 -1391.11

-5853.15 228.077 145.34
228.077 -871.264 39.6192
145.34 39.6192 -735.029

-4644.24 -720.868 -831.21
-720.868 -1124.02 19.0234
-831.21 19.0234 -1345.03

-4073.51 -43.9847 95.4138
-43.9847 630.494 2.79868
95.4138 2.79868 362.617

-6226.15 476.124 -942.486
476.124 -4907.23 -16.3161
-942.486 -16.3161 -4605.95

-5573.71 219.46 -1471.14
219.46 -4116.44 -83.3875
-1471.14 -83.3875 -3166.38

-4401.9 159.182 -203.426
159.182 -1185.54 -75.3049
-203.426 -75.3049 -447.395

-4809.81 -16.1404 109.954
-16.1404 -332.288 -133.249
109.954 -133.249 -297.321

-5775.48 -1339.72 -993.177
-1339.72 -3490.41 290.73
-993.177 290.73 -3840.65

-4120.11 92.0801 -184.285
92.0801 326.633 169.676
-184.285 169.676 500.982

-5710.49 519.402 -249.915
519.402 -2983.82 224.747
-249.915 224.747 -3003.8

-4499.63 -159.603 -170.943
-159.603 -677.043 -237.906
-170.943 -237.906 -850.685

-4971.94 -1103.7 -1074.37
-1103.7 -2674.38 153.125
-1074.37 153.125 -3211.68

-5020.68 -397.208 -222.486
-397.208 -1063.06 -109.661
-222.486 -109.661 -1562.73

-4144.75 -259.18 -279.292
-259.18 265.031 112.256
-279.292 112.256 220.845

-4665.26 289.811 -1387.43
289.811 -3192.85 -9.68973
-1387.43 -9.68973 -2376.85

-5545.21 -336.754 -130.035
-336.754 -1378.73 -181.445
-130.035 -181.445 -1343.32

-4246.02 -1208.23 930.013
-1208.23 -1986.6 -212.116
930.013 -212.116 -2387.88

-3829.25 46.0989 -13.4511
46.0989 1035.19 115.14
-13.4511 115.14 740.238

-5272.93 -157.38 -107.615
-157.38 -658.219 -38.9302
-107.615 -38.9302 -734.271

-3848.71 182.32 194.89
182.32 -348.978 -124.372
194.89 -124.372 373.998

-4553.21 -201.815 -118.278
-201.815 -829.097 -89.5874
-118.278 -89.5874 -356.94

-3785.55 56.251 -72.7035
56.251 172.776 -171.162
-72.7035 -171.162 156.803

-4348.16 92.3293 -342.921
92.3293 65.2794 -113.702
-342.921 -113.702 72.4734

-4703.75 -223.507 -660.471
-223.507 -1054.47 -294.75
-660.471 -294.75 -1020.82

-4536.83 135.82 207.47
135.82 -1234.04 18.3035
207.47 18.3035 -509.943

-4189.16 110.941 -555.093
110.941 -278.281 94.4639
-555.093 94.4639 -141.539

-4635.96 1146.51 -866.151
1146.51 -2144.67 -170.548
-866.151 -170.548 -2571.36

-5880.7 -1322.5 999.198
-1322.5 -3644.51 -300.408
999.198 -300.408 -4017.13

-4662.88 563.51 413.241
563.51 -2719.46 -59.6391
413.241 -59.6391 -2813.85

-5224.27 417.295 -266.494
417.295 -964.747 -8.12784
-266.494 -8.12784 -275.961

-5679.88 1273.47 -953.742
1273.47 -3353.66 -220.935
-953.742 -220.935 -3807.87

-6868.22 425.302 964.751
425.302 -5540.68 21.5481
964.751 21.5481 -5161.5

-4391.57 251.334 301.456
251.334 -433.605 127.764
301.456 127.764 -385.476

-3096.12 723.845 -953.967
723.845 -325.09 -44.9764
-953.967 -44.9764 -22.2181

-4034.56 1145.61 967.336
1145.61 -1778.97 162.991
967.336 162.991 -2135.29

-4392.44 -151.283 -1249.13
-151.283 -3011.1 1.54349
-1249.13 1.54349 -2426.15

-4598.44 49.7211 -1472.18
49.7211 -3184.99 -64.6463
-1472.18 -64.6463 -2312.46

-5144.55 226.103 1431.11
226.103 -3611.37 13.4944
1431.11 13.4944 -2707.78

-3799.3 -193.668 -117.919
-193.668 327.095 -174.144
-117.919 -174.144 405.459

-5252.4 404.839 298.318
404.839 -1034.33 -35.7118
298.318 -35.7118 -267.166

-4466.76 -181.772 -154.599
-181.772 -287.55 -20.6763
-154.599 -20.6763 -343.414

-6226.38 1154.03 -333.313
1154.03 -4211.42 -77.5657
-333.313 -77.5657 -4804.1

-4726.2 1506.88 -314.41
1506.88 -2432.65 -52.6884
-314.41 -52.6884 -3114.09

-4730.65 -100.301 -372.309
-100.301 -1429.18 -10.6737
-372.309 -10.6737 -1387.59

-4976.43 -1522.23 -339.472
-1522.23 -2622.27 56.1456
-339.472 56.1456 -3377.32

-4864.12 448.223 260.552
448.223 -1165.65 116.255
260.552 116.255 -857.679

-3874.97 327.206 787.853
327.206 -1254.01 -0.577974
787.853 -0.577974 -345.041

-4573.71 -703.716 -88.8071
-703.716 -887.296 145.068
-88.8071 145.068 -1664.8

-4774.97 -334.765 642.266
-334.765 -1397.6 317.589
642.266 317.589 -1110.59

-4089.61 213.769 277.771
213.769 -1059.72 -128.87
277.771 -128.87 -810.071

-4585.34 1462.56 455.159
1462.56 -2413.48 67.4981
455.159 67.4981 -3067.64

-4509.57 1214.29 541.82
1214.29 -2548.93 91.3077
541.82 91.3077 -3076.36

-4459.18 -60.01 -43.4353
-60.01 -332.622 -47.2205
-43.4353 -47.2205 -543.192

-3526 376.073 -804.724
376.073 -924.908 23.0929
-804.724 23.0929 -169.905

-3451.79 690.124 958.723
690.124 -576.746 21.4824
958.723 21.4824 -311.861

-5738.7 1237.17 1020.13
1237.17 -3520.83 234.734
1020.13 234.734 -3927.54

-4658.29 -707.06 783.954
-707.06 -1242.55 -75.2892
783.954 -75.2892 -1436.54

-5302.06 -414.507 287.003
-414.507 -1069.96 67.1459
287.003 67.1459 -184.234

-5763.97 -281.79 -127.567
-281.79 -1685.4 -485.59
-127.567 -485.59 -1320.72

-5578.99 -997.521 -654.143
-997.521 -3212.3 84.0366
-654.143 84.0366 -3807.33

-7842.62 422.88 299.023
422.88 -5563.61 41.2102
299.023 41.2102 -5563.96

-4746.86 -627.674 -833.939
-627.674 -1351.25 -16.4551
-833.939 -16.4551 -1634.76

-4653.86 -153.097 -150.218
-153.097 -915.012 20.1014
-150.218 20.1014 -415.433

-3750.12 -126.834 -63.1303
-126.834 230.268 106.487
-63.1303 106.487 170.763

-5634.52 -157.468 442.423
-157.468 -2300.92 58.0478
442.423 58.0478 -2133.08

-7087.28 -107.381 249.66
-107.381 -3707.55 -76.7589
249.66 -76.7589 -3659.81

-5132.29 -238.246 1215.37
-238.246 -3628.32 23.7212
1215.37 23.7212 -3038.28

-5316.91 137.879 1596.36
137.879 -3893.58 33.4271
1596.36 33.4271 -3173.54

-4068.25 -35.2308 -297.288
-35.2308 -804.926 -122.564
-297.288 -122.564 -1102.47

-4492.27 56.2976 -134.282
56.2976 -806.995 31.2073
-134.282 31.2073 -355.438

-4519.17 -149.996 66.3962
-149.996 -602.137 96.676
66.3962 96.676 -486.044

-6126.17 -1172.1 -371.058
-1172.1 -4061.37 78.8791
-371.058 78.8791 -4650.92

-4041.81 1387.43 -601.511
1387.43 -1872.18 91.1163
-601.511 91.1163 -2176.93

-5789.3 -1498.31 410.377
-1498.31 -3398.74 -2.03046
410.377 -2.03046 -4049.51

-4237.53 -384.365 277.447
-384.365 56.1257 -39.2951
277.447 -39.2951 -27.688

-4467.37 -754.667 126.615
-754.667 -759.807 -49.9149
126.615 -49.9149 -1508.73

-3948.74 13.1897 23.3619
13.1897 245.555 108.846
23.3619 108.846 60.166

-4165.73 -1244.07 533.781
-1244.07 -2136.69 -96.8894
533.781 -96.8894 -2681.31

-4034.01 -19.274 -103.828
-19.274 747.275 11.1071
-103.828 11.1071 451.866

-3860.15 -53.7953 35.6257
-53.7953 477.368 18.0731
35.6257 18.0731 115.926

-4365.88 -410.968 275.807
-410.968 -206.326 -171.246
275.807 -171.246 -9.2292

-5143.62 -311.187 152.365
-311.187 -1180.02 -17.564
152.365 -17.564 -1240.6

-5420.81 -1281.47 -1124.83
-1281.47 -3169.71 246.061
-1124.83 246.061 -3443.79

-4504.46 -3.25952 3.3812
-3.25952 166.449 -7.49621
3.3812 -7.49621 220.754

-4914.88 -26.8476 1506.3
-26.8476 -3452.85 75.6485
1506.3 75.6485 -2501.81

-3881.09 -100.426 59.4998
-100.426 224.121 -85.4749
59.4998 -85.4749 47.6776

-4692.73 -1461.84 426.266
-1461.84 -2447.57 -72.4719
426.266 -72.4719 -3193.59

-3810.58 -114.854 114.726
-114.854 234.344 -60.7998
114.726 -60.7998 167.93

-5380.64 -270.659 195.777
-270.659 -1062.72 116.92
195.777 116.92 -1078.31

-5233.06 -256.948 83.728
-256.948 -634.958 17.0902
83.728 17.0902 -675.004

-4737.88 100.198 131.246
100.198 36.0068 -33.7424
131.246 -33.7424 233.113

-4075.3 -111.416 42.4739
-111.416 -131.519 -230.019
42.4739 -230.019 -118.883

-5418.59 -50.3714 80.2714
-50.3714 -960.267 103.771
80.2714 103.771 -1189.92

-4512.54 55.2084 -267.205
55.2084 -565.279 263.142
-267.205 263.142 -388.606

-5700.5 -235.784 178.042
-235.784 -566.361 58.6979
178.042 58.6979 -526.744

-5202.18 -225.684 407.116
-225.684 -1061.66 124.665
407.116 124.665 -1339.72

-3907.76 -250.803 124.997
-250.803 -235.196 306.972
124.997 306.972 -482.879

-7831.83 -447.431 266.075
-447.431 -5627.73 9.75545
266.075 9.75545 -5579.84

-4370.46 -455.359 357.394
-455.359 -491.76 -184.494
357.394 -184.494 -76.5499

-7192.95 -454.254 289.876
-454.254 -5076.82 108.752
289.876 108.752 -5039.55

-4075.75 -258.268 212.81
-258.268 -909.186 208.39
212.81 208.39 -696.591

-3917.64 -67.6949 173.988
-67.6949 604.156 -222.698
173.988 -222.698 417.545

-5185.59 34.8371 -1564.62
34.8371 -3824.5 -129.032
-1564.62 -129.032 -2818.16

-4845.92 295.514 -201.508
295.514 -1303.09 21.3035
-201.508 21.3035 -736.265

-5196.52 547.469 -306.081
547.469 -1045.72 103.174
-306.081 103.174 -137.015

-3900.44 -24.0673 81.4551
-24.0673 998.922 -238.758
81.4551 -238.758 645.996

-4768.01 -288.772 -812.088
-288.772 -1489.44 -197.436
-812.088 -197.436 -1203.64

-4099.68 756.036 -924.346
756.036 -1151.96 -132.813
-924.346 -132.813 -816.401

-5800.1 1370.36 -1097.71
1370.36 -3581.64 -280.192
-1097.71 -280.192 -3874.14

-4702.92 1232.96 -1058.36
1232.96 -2623.71 -186.155
-1058.36 -186.155 -2754.58

-4844.48 -17.1251 225.85
-17.1251 -369.646 -153.49
225.85 -153.49 -192.086

-4476.7 269.927 518.896
269.927 -1019.18 -36.711
518.896 -36.711 -692.641

-4326.7 311.963 311.838
311.963 -600.275 -233.288
311.838 -233.288 -773.074

-5339.99 122.102 205.951
122.102 -670.635 -78.9787
205.951 -78.9787 -411.718

-4414.55 176.609 56.1683
176.609 -456.359 -29.6309
56.1683 -29.6309 -448.036

-3512.72 110.013 88.3902
110.013 871.288 34.3865
88.3902 34.3865 410.731

-4679.18 200.214 473.636
200.214 -693.622 -105.371
473.636 -105.371 -1046.89

-6780.46 503.883 378.534
503.883 -4638.8 -48.1451
378.534 -48.1451 -4659.98

-3866.52 -24.5061 -49.4881
-24.5061 491.346 -145.316
-49.4881 -145.316 631.183

-3949.74 -110.521 -112.162
-110.521 803.586 42.1779
-112.162 42.1779 620.846

-4093.33 -45.5877 135.057
-45.5877 661.079 -41.018
135.057 -41.018 451.686

-4310.76 5.11424 71.1925
5.11424 249.866 167.798
71.1925 167.798 318.86

-3743.54 67.8092 -167.413
67.8092 2130.69 -35.6062
-167.413 -35.6062 1989.93

-3735.51 -47.6633 170.104
-47.6633 1018.39 119.838
170.104 119.838 832.716

-4326.67 236.682 -241.967
236.682 458.409 208.481
-241.967 208.481 693.112

-5767.44 111.148 -84.1589
111.148 -513.719 -1.83794
-84.1589 -1.83794 -482.255

-4455.92 -195.441 -180.431
-195.441 -459.581 -239.079
-180.431 -239.079 -370.396

-3959.73 88.8385 49.0781
88.8385 -165.754 215.093
49.0781 215.093 -140.82

-4899.83 -816.173 169.517
-816.173 -810.382 -119.681
169.517 -119.681 -1394.82

-5523.19 71.1571 -34.1041
71.1571 -644.247 99.9167
-34.1041 99.9167 -621.72

-4979.33 -37.5118 -141.483
-37.5118 -163.992 102.535
-141.483 102.535 167.557

-4423.46 -314.119 -258.297
-314.119 98.0008 -18.2692
-258.297 -18.2692 -409.603

-3356.77 -205.74 -285.027
-205.74 1903.62 109.359
-285.027 109.359 2343.8

-4732.97 -121.048 -157.62
-121.048 -784.797 -132.25
-157.62 -132.25 -534.756

-5279.84 511.718 342.008
511.718 -1074.6 -156.123
342.008 -156.123 -118.016

-4418.89 705.246 -46.7858
705.246 -787.662 -137.573
-46.7858 -137.573 -1518.23

-5065.09 -266.176 0.194034
-266.176 -777.193 91.4124
0.194034 91.4124 -811.89

-4455.02 81.1329 -77.4491
81.1329 -98.7635 193.514
-77.4491 193.514 -278.112

-4632.55 263.508 -317.082
263.508 -647.498 -84.0734
-317.082 -84.0734 -396.703

-5177.09 363.946 -392.367
363.946 -1832.61 16.1641
-392.367 16.1641 -1376.29

-3874.62 487.135 -812.996
487.135 -782.117 -196.734
-812.996 -196.734 -675.973

-4913.31 333.387 -153.758
333.387 -1159.81 101.149
-153.758 101.149 -1464.46

-4964.18 -986.034 -237.474
-986.034 -788.12 -158.59
-237.474 -158.59 -1530.57

-4566.87 -253.919 -199.943
-253.919 499.361 9.86991
-199.943 9.86991 974.102

-5686.24 -1287.48 -479.301
-1287.48 -3398.27 98.4887
-479.301 98.4887 -4082.88

-4702.79 -630.402 830.67
-630.402 -1563.31 12.3689
830.67 12.3689 -1655.09

-5350.28 -344.145 -338.729
-344.145 -1170.76 -136.739
-338.729 -136.739 -858.668

-3652.91 142.117 1151.62
142.117 -897.756 -26.4203
1151.62 -26.4203 -55.3559

-5321.27 -433.2 519.675
-433.2 -2486 206.374
519.675 206.374 -2576.68

-5093.05 -279.91 197.858
-279.91 -1001.36 193.441
197.858 193.441 -793.229

-4547.17 -112.301 77.9508
-112.301 -1069.4 45.9296
77.9508 45.9296 -574.966

-4667.63 -146.963 128.805
-146.963 -978.558 -27.6555
128.805 -27.6555 -432.459

-5614.87 162.687 -112.693
162.687 -695.093 -6.44616
-112.693 -6.44616 -490.557

-4980.63 -1253.03 1090.49
-1253.03 -2630.82 -135.707
1090.49 -135.707 -3031.83

-4846.07 243.476 179.923
243.476 -1104.13 -61.5266
179.923 -61.5266 -576.747

-5057.06 -31.8224 124.236
-31.8224 -302.444 -10.7993
124.236 -10.7993 -158.77

-7641.43 -189.248 -459.269
-189.248 -5393.06 -68.9638
-459.269 -68.9638 -5383.72

-5672.39 58.6108 -22.8142
58.6108 -751.733 -175.65
-22.8142 -175.65 -795.335

-4158.51 -446.071 884.553
-446.071 -888.465 280.347
884.553 280.347 -968.721

-5067.96 -339.074 1513.69
-339.074 -3589.8 -44.6582
1513.69 -44.6582 -3218.97

-4362.8 -105.741 190.391
-105.741 310.426 79.8552
190.391 79.8552 362.585

-5667.59 -44.0573 27.1472
-44.0573 -791.94 -206.609
27.1472 -206.609 -734.517

-5268.94 -394.691 -307.233
-394.691 -1000.19 -82.568
-307.233 -82.568 -129.305

-5097.81 -1258.74 678.815
-1258.74 -2749.63 -35.2269
678.815 -35.2269 -3281.93

-3465.41 -243.797 250.258
-243.797 1999.91 -16.971
250.258 -16.971 2198.86

-3881.31 81.7749 120.234
81.7749 297.805 115.188
120.234 115.188 197.42

-5053.88 -356.864 -267.059
-356.864 -1233.77 -177.777
-267.059 -177.777 -897.069

-4110.98 -727.089 539.591
-727.089 -993.17 56.489
539.591 56.489 -1110.79

-6786.35 177.874 -151.377
177.874 -3283.24 -10.0416
-151.377 -10.0416 -3313.76

-5786.25 806.249 -568.13
806.249 -4158.76 85.2065
-568.13 85.2065 -4196.74

-4474.61 -101.864 178.342
-101.864 -206.25 233.893
178.342 233.893 -21.3491

-3884.48 -405.231 -394.124
-405.231 -314.339 -61.7895
-394.124 -61.7895 -461.999

-4411.52 224.228 -260.452
224.228 -689.234 -18.1967
-260.452 -18.1967 -547.113

-5438.14 140.943 -115.873
140.943 -1310.32 43.167
-115.873 43.167 -1077.74

-4502.84 -64.3858 -80.0468
-64.3858 -541.871 -152.711
-80.0468 -152.711 -575.285

-4109.8 113.597 -41.416
113.597 -229.992 85.2676
-41.416 85.2676 -697.946

-5145.83 379.226 -210.884
379.226 -1473.13 85.6108
-210.884 85.6108 -1104.22

-3782.78 111.532 -297.519
111.532 -302.325 376.402
-297.519 376.402 -296.079

-6655.29 311.354 -470.774
311.354 -4449.45 24.3194
-470.774 24.3194 -4380.92

-6458.88 295.697 -518.468
295.697 -4223.1 110.373
-518.468 110.373 -4396.45

-3481.46 193.223 -475.355
193.223 -21.1088 138.463
-475.355 138.463 -240.075

-7916.24 -161.228 -495.85
-161.228 -5691.36 -20.989
-495.85 -20.989 -5691.78

-4951.25 -202.664 208.35
-202.664 -758.838 97.0732
208.35 97.0732 -758.815

-4916.79 -375.12 1164.61
-375.12 -3520.93 -95.3801
1164.61 -95.3801 -3385.15

-4769.92 580.746 35.5118
580.746 -1766.67 -174.072
35.5118 -174.072 -2025.7

-3559.63 128.042 -90.9584
128.042 789.326 271.719
-90.9584 271.719 989.426

-4070.53 45.7324 208.975
45.7324 26.1868 0.95577
208.975 0.95577 -567.513

-4144.29 -54.8149 210.085
-54.8149 839.223 181.69
210.085 181.69 345.719

-5594.81 -13.705 -60.337
-13.705 -582.012 197.428
-60.337 197.428 -610.09

-4823.99 163.148 56.5145
163.148 -801.871 -39.4109
56.5145 -39.4109 -609.224

-4358.53 -439.055 -303.58
-439.055 -282.65 105.786
-303.58 105.786 74.4664

-4329.49 175.705 195.592
175.705 -182.535 -165.119
195.592 -165.119 -40.797

-8328.48 -237.922 756.281
-237.922 -7265.62 -63.3805
756.281 -63.3805 -7064

-6724.91 471.184 1079.42
471.184 -4978.76 48.6699
1079.42 48.6699 -4688.95

-5109.91 -150.657 241.969
-150.657 406.32 -146.485
241.969 -146.485 717.819

-5061.87 1210.91 1119.4
1210.91 -2979.77 156.075
1119.4 156.075 -3060.74

-4584.01 -20.4539 43.6801
-20.4539 18.5249 -40.3364
43.6801 -40.3364 61.9338

-4071.87 -139.344 176.894
-139.344 -534.105 88.0116
176.894 88.0116 195.466

-4836.94 -158.039 -66.5805
-158.039 -358.722 -74.0214
-66.5805 -74.0214 -118.248

-5284.51 254.323 322.322
254.323 -1879.71 -106.422
322.322 -106.422 -1444.2

-5257.18 1588.04 403.236
1588.04 -2990.79 -20.0134
403.236 -20.0134 -3565.64

-4364.87 40.7821 127.036
40.7821 224.894 87.7847
127.036 87.7847 177.588

-4131.77 1355.88 634.916
1355.88 -1873.2 -25.769
634.916 -25.769 -2109.19

-4903.54 333.288 200.177
333.288 -1409.63 -175.735
200.177 -175.735 -1314.16

-4506.23 193.173 587.756
193.173 -1708.6 -87.0684
587.756 -87.0684 -1459.39

-5285.48 1633.43 -403.855
1633.43 -2976.87 90.8465
-403.855 90.8465 -3688.02

-5174.15 -46.9241 -103.54
-46.9241 -800.673 -113.37
-103.54 -113.37 -907.147

-4749.62 22.9356 75.7637
22.9356 -44.4873 4.7947
75.7637 4.7947 85.4465

-5327.05 133.487 106.139
133.487 -167.149 99.8458
106.139 99.8458 -54.6397

-3920.22 55.0518 287.551
55.0518 1570.61 -10.6689
287.551 -10.6689 1512.68

-6779.07 712.297 -218.242
712.297 -5323.5 -71.4418
-218.242 -71.4418 -5527.88

-4274.79 893.378 58.5673
893.378 -767.211 27.2564
58.5673 27.2564 -1260.6

-3933.71 861.577 -117.367
861.577 -461.397 -177.478
-117.367 -177.478 -1045.59

-3747.04 467.865 851.162
467.865 -609.293 114.8
851.162 114.8 -475.319

-4401.86 -94.4579 1745.37
-94.4579 -3056.19 9.06987
1745.37 9.06987 -2268.8

-5879.09 750.237 578.115
750.237 -4082.98 -27.0764
578.115 -27.0764 -4083.49

-4335.79 701.22 949.685
701.22 -1236.56 82.7034
949.685 82.7034 -916.457

-5799.08 1346.22 1183.47
1346.22 -3553.68 255.869
1183.47 255.869 -3751.55

