# vtk DataFile Version 3.0
vtk output at time 0.9
ASCII
DATASET UNSTRUCTURED_GRID
POINTS 527 float
0 0 0 0 0 0.05 0 0 0.1 
0 0 0.15 0 0 0.2 0 0.05 0 
0 0.05 0.05 0 0.05 0.1 0 0.05 0.15 
0 0.05 0.2 0 0.1 0 0 0.1 0.05 
0 0.1 0.1 0 0.1 0.15 0 0.1 0.2 
0 0.15 0 0 0.15 0.05 0 0.15 0.1 
0 0.15 0.15 0 0.15 0.2 0 0.2 0 
0 0.2 0.05 0 0.2 0.1 0 0.2 0.15 
0 0.2 0.2 0.0351384 -0.00878033 -0.00889176 0.0396699 -0.00847411 0.0454655 
0.0407787 -0.00883208 0.0999037 0.0399095 -0.00890276 0.154358 0.0347968 -0.0091778 0.208859 
0.03932 0.0459925 -0.0089024 0.0395829 0.045555 0.208907 0.0408001 0.100428 -0.00860816 
0.0402728 0.0998429 0.208714 0.041262 0.155154 -0.00853333 0.0409565 0.154592 0.209024 
0.0351746 0.209363 -0.0083118 0.039706 0.208615 0.0458868 0.0411485 0.208632 0.100333 
0.0401795 0.208695 0.154747 0.0350725 0.209023 0.20894 0.0774419 -0.0110226 -0.0118671 
0.0783363 -0.0126007 0.0431376 0.0784559 -0.0124597 0.0996959 0.0768162 -0.0132231 0.156218 
0.0771861 -0.0118313 0.211823 0.0771434 0.0435306 -0.0126971 0.0772632 0.0431781 0.213124 
0.0782004 0.100197 -0.0127342 0.0787079 0.0998906 0.213135 0.0777662 0.157251 -0.0134485 
0.0781706 0.156359 0.213734 0.0776527 0.212526 -0.0113969 0.0779302 0.213347 0.0440431 
0.079413 0.21262 0.10051 0.0772199 0.212597 0.156973 0.0777996 0.211386 0.212668 
0.120407 -0.00990605 -0.00945206 0.115863 -0.00972097 0.0453422 0.113911 -0.00928036 0.100131 
0.115387 -0.00941807 0.154225 0.120041 -0.0105578 0.208747 0.115435 0.0455683 -0.0104875 
0.115405 0.044677 0.210408 0.113432 0.100331 -0.00976443 0.114397 0.0993923 0.209865 
0.114306 0.15492 -0.00950209 0.115174 0.15375 0.209919 0.120205 0.209252 -0.00884237 
0.116557 0.209452 0.0459213 0.11521 0.209427 0.100449 0.116025 0.209295 0.154679 
0.12036 0.208635 0.209395 0.155 0 0 0.155 0 0.05 
0.155 0 0.1 0.155 0 0.15 0.155 0 0.2 
0.155 0.05 0 0.155 0.05 0.05 0.155 0.05 0.1 
0.155 0.05 0.15 0.155 0.05 0.2 0.155 0.1 0 
0.155 0.1 0.05 0.155 0.1 0.1 0.155 0.1 0.15 
0.155 0.1 0.2 0.155 0.15 0 0.155 0.15 0.05 
0.155 0.15 0.1 0.155 0.15 0.15 0.155 0.15 0.2 
0.155 0.2 0 0.155 0.2 0.05 0.155 0.2 0.1 
0.155 0.2 0.15 0.155 0.2 0.2 0 0.025 0 
0.016436 -0.00516889 -0.00765244 0.0208126 -0.00690413 0.0204885 0 0 0.025 
0 0.025 0.025 0.021438 -0.00685302 0.0471746 0 0.025 0.05 
0 0.025 0.075 0 0 0.075 0 0.025 0.1 
0.0212718 -0.00711393 0.0736134 0.0216353 -0.0065333 0.100103 0.0214314 -0.00686296 0.126574 
0 0 0.125 0.02153 -0.00669492 0.152812 0 0.025 0.175 
0 0.025 0.15 0 0 0.175 0 0.025 0.125 
0.020865 -0.00699068 0.179409 0 0.025 0.2 0.0162522 -0.00532412 0.20762 
0.0217335 0.0203162 0.0208261 0 0.05 0.025 0.0183745 0.0214246 -0.00668088 
0.0200738 0.0476264 -0.00584438 0.021767 0.0749507 -0.00670532 0 0.075 0.025 
0 0.075 0 0.0218617 0.0204824 0.047455 0 0.05 0.075 
0 0.075 0.05 0.0431497 0.0730507 0.0177703 0.0224931 0.0744761 0.0203699 
0.0410993 0.0457942 0.0183213 0.0211917 0.0475309 0.020685 0.0421797 0.018337 0.0727165 
0.0411672 0.0187353 0.0454719 0 0.075 0.075 0.0441461 0.0729197 0.0447063 
0.0422015 0.0182665 0.0997722 0.0222655 0.020217 0.0737834 0.0224717 0.0205162 0.126451 
0.0435686 0.017485 0.127397 0.0222935 0.0202177 0.100108 0 0.05 0.125 
0 0.075 0.125 0 0.075 0.1 0 0.05 0.175 
0.0221291 0.0205468 0.15272 0.0222511 0.0739876 0.179772 0.0215233 0.0473001 0.179376 
0.0423339 0.0726029 0.181899 0 0.075 0.15 0.0414481 0.0454026 0.18164 
0.0428474 0.0178499 0.154685 0.0217695 0.0202305 0.179236 0.0215954 0.0744968 0.206937 
0.0203367 0.0473688 0.205946 0.0183963 0.0212701 0.206718 0 0.075 0.175 
0 0.075 0.2 0 0.125 0 0.0217242 0.100932 -0.00677147 
0 0.1 0.025 0.0440188 0.100434 0.0175644 0 0.125 0.025 
0 0.125 0.05 0.0227982 0.126795 0.0207106 0.0225879 0.100693 0.0206326 
0 0.1 0.075 0.0440152 0.127684 0.0177309 0 0.125 0.075 
0 0.1 0.125 0.0437454 0.155097 0.127592 0.0432423 0.127459 0.155064 
0.0427722 0.100004 0.155586 0.0433343 0.155315 0.100139 0.0440826 0.127764 0.0449535 
0.0438674 0.100409 0.0446587 0 0.125 0.1 0.0426969 0.0447492 0.0998737 
0.0436768 0.0446493 0.127463 0.0779224 0.100112 0.100084 0.0439066 0.155023 0.155031 
0.0428719 0.127346 0.181998 0 0.125 0.175 0 0.125 0.15 
0.0225877 0.126511 0.179691 0.0223628 0.100362 0.179697 0 0.1 0.175 
0 0.125 0.125 0.0424152 0.0998649 0.182016 0.0437001 0.0448416 0.154949 
0.0214691 0.100547 0.207188 0 0.125 0.2 0 0.15 0.025 
0.0217298 0.153012 -0.00564004 0.0190347 0.178441 -0.00624838 0.0218544 0.179311 0.0209859 
0.0217279 0.126961 -0.00628224 0 0.175 0.025 0 0.175 0 
0.0224151 0.152996 0.0210851 0.0218875 0.179437 0.0476527 0.0432112 0.155001 0.0183915 
0.0419777 0.18176 0.0458649 0 0.175 0.05 0 0.15 0.075 
0.0426781 0.181801 0.0730898 0.0223619 0.17965 0.0739467 0.0428621 0.181689 0.100176 
0.0224388 0.17956 0.100271 0 0.175 0.1 0.0225114 0.179434 0.126592 
0 0.175 0.075 0.0437191 0.182322 0.127651 0 0.15 0.125 
0 0.175 0.125 0.0439732 0.155022 0.0451849 0 0.15 0.175 
0.0223194 0.152733 0.179389 0.0221822 0.179223 0.152815 0.0427776 0.154486 0.181925 
0 0.175 0.15 0.0432806 0.182115 0.154851 0.0219271 0.179154 0.17935 
0.0215545 0.152714 0.2062 0.018857 0.178202 0.206608 0 0.175 0.175 
0.0214632 0.126673 0.206798 0 0.175 0.2 0.0166625 0.204975 -0.00731642 
0.0209601 0.206679 0.0208027 0 0.2 0.025 0.0214997 0.20677 0.0473474 
0 0.2 0.075 0.021812 0.20629 0.100305 0.0215588 0.206648 0.126727 
0.0213664 0.206894 0.0738581 0 0.2 0.125 0.0216661 0.206424 0.153064 
0 0.2 0.175 0.0211122 0.206446 0.179509 0.0165373 0.204758 0.207619 
0.0376934 -0.00871814 0.0179598 0.0561071 -0.0101727 -0.0101947 0.0574555 0.0168769 -0.0105395 
0.0380866 0.0185841 -0.00932771 0.0576274 -0.0101972 0.0167277 0.0590693 0.0169596 0.0165452 
0.0405202 0.0186988 0.0179321 0.0593621 -0.0104134 0.0718153 0.0592049 -0.010426 0.0440418 
0.0400485 -0.0087671 0.0725533 0.0599857 -0.0106407 0.0998396 0.04012 -0.00888434 0.127256 
0.059146 0.0163858 0.183537 0.0573078 -0.0108729 0.183267 0.0587079 -0.0111735 0.155533 
0.0598301 -0.0113773 0.127902 0.040623 0.0182623 0.182025 0.0375162 -0.0090493 0.181949 
0.057386 0.0163248 0.210555 0.0557593 -0.0108091 0.210181 0.0381058 0.0181498 0.209364 
0.0583067 0.0446017 -0.0108552 0.0401313 0.0731274 -0.00885918 0.040067 0.0726659 0.208917 
0.0584702 0.0441436 0.210901 0.0595883 0.0721312 -0.0110696 0.0601809 0.100208 -0.011046 
0.0410089 0.127798 -0.00873782 0.0601844 0.128227 -0.0113362 0.0405503 0.127206 0.209018 
0.0597522 0.0997241 0.210846 0.0593473 0.0717946 0.210908 0.0596429 0.12755 0.211064 
0.0391322 0.182339 -0.00897958 0.041557 0.181988 0.0184239 0.0597628 0.156561 -0.0107947 
0.0414008 0.181612 0.182097 0.0388199 0.181827 0.209531 0.0596179 0.155746 0.211142 
0.0377447 0.209 0.0185406 0.056265 0.211517 -0.00943131 0.0582406 0.18447 -0.0101132 
0.0597622 0.210603 0.0725416 0.0402638 0.208667 0.073046 0.0578915 0.211299 0.0174019 
0.0601969 0.184094 0.0169117 0.059257 0.211076 0.0447898 0.0606101 0.21063 0.100409 
0.0405248 0.208618 0.127617 0.0379154 0.208781 0.18212 0.0600904 0.183453 0.183835 
0.059257 0.210965 0.156114 0.0580173 0.21067 0.183698 0.0604246 0.21108 0.128288 
0.0562266 0.21055 0.210473 0.0580139 0.183496 0.210814 0.0774233 0.0158391 -0.0120766 
0.0779547 -0.0116038 0.015258 0.0990564 -0.0102528 -0.0107797 0.098073 -0.010433 0.0161773 
0.0780336 0.0154255 0.0151593 0.0969687 -0.0106935 0.0437605 0.0786457 -0.0126334 0.0712995 
0.0954886 0.0442697 0.0160439 0.0780503 0.0434516 0.0152961 0.077992 0.0434493 0.156357 
0.112244 0.0450674 0.127541 0.11224 0.0448658 0.10007 0.0949826 0.0443551 0.0438426 
0.0782188 0.0435042 0.0436932 0.0781882 -0.0132754 0.127896 0.0963904 -0.0109221 0.0717245 
0.0958897 -0.0114816 0.127649 0.0942588 0.0439205 0.156372 0.0954589 -0.0109005 0.0998763 
0.0771457 0.0150342 0.184897 0.077166 -0.0121957 0.184426 0.0778305 0.0434332 0.184977 
0.0955742 -0.0110571 0.155691 0.0948047 0.043555 0.184067 0.0772005 0.0151578 0.212354 
0.098666 -0.0112121 0.210048 0.0972541 -0.0109625 0.183118 0.0777116 0.0717609 -0.0128304 
0.097824 0.0166808 -0.010905 0.0968469 0.0167861 0.0160993 0.0969525 0.0442262 -0.0111614 
0.0954584 0.0719249 -0.0114291 0.0973454 0.0157986 0.210544 0.095878 0.0160896 0.183669 
0.0782487 0.0715203 0.213254 0.0958603 0.0713127 0.211806 0.0968855 0.0434188 0.211173 
0.112025 0.100003 0.044337 0.0949282 0.0999792 -0.0115113 0.0780295 0.128789 -0.0130422 
0.11227 0.127468 0.0446631 0.0948193 0.156557 0.0444481 0.0786619 0.156908 0.0440901 
0.111786 0.0992457 0.183014 0.111886 0.0994488 0.155798 0.111183 0.12698 0.155798 
0.0785667 0.156344 0.185072 0.078232 0.156077 0.156337 0.095321 0.15607 0.184175 
0.0944112 0.155925 0.156021 0.112095 0.126652 0.182912 0.095623 0.0993164 0.212072 
0.0787894 0.128293 0.213425 0.0778082 0.185439 -0.0122624 0.0781508 0.185575 0.0154473 
0.0960578 0.184348 0.0166211 0.0974139 0.184583 -0.0105754 0.0954381 0.156499 -0.011043 
0.113058 0.154947 0.0451927 0.0953102 0.184295 0.0442937 0.078668 0.185295 0.043691 
0.0952795 0.128398 -0.0110483 0.0777136 0.184306 0.185413 0.0777761 0.184402 0.213167 
0.0960151 0.183654 0.184142 0.0976758 0.183414 0.211184 0.113023 0.153876 0.182898 
0.0964721 0.15531 0.211816 0.0961347 0.127119 0.212146 0.0779144 0.212865 0.0159483 
0.0981314 0.211501 0.0169822 0.0992739 0.211717 -0.0098714 0.0790523 0.21312 0.0721897 
0.096737 0.2117 0.044367 0.0786879 0.212861 0.128732 0.114066 0.182371 0.1003 
0.0965833 0.211714 0.100517 0.113729 0.155406 0.100186 0.0961612 0.211246 0.128668 
0.0967322 0.211851 0.0722924 0.0776743 0.211856 0.1851 0.0956269 0.21067 0.156569 
0.0976782 0.210524 0.183835 0.0993834 0.210535 0.210688 0.117887 -0.00987494 0.0175194 
0.117182 0.0177307 -0.0103567 0.139187 -0.00527215 -0.00858901 0.136754 0.0211913 -0.00796087 
0.115217 0.01776 0.0172577 0.132966 0.0471318 0.0464294 0.133004 0.0197332 0.0734046 
0.132754 0.0468266 0.0733676 0.114098 0.0451784 0.0175389 0.134512 -0.0069225 0.0196797 
0.133706 0.0202632 0.0193803 0.11478 -0.00951445 0.0726997 0.133674 -0.00672585 0.0465714 
0.133257 0.0202308 0.0463828 0.13382 -0.0073504 0.073368 0.132836 0.0195371 0.0999294 
0.114556 -0.00949051 0.127454 0.132296 0.0457466 0.126417 0.132441 0.0461549 0.100041 
0.113201 0.0451646 0.0450108 0.133527 -0.00691315 0.100017 0.132955 0.0195357 0.126394 
0.132732 0.0470228 0.153227 0.117536 -0.0100597 0.181867 0.133526 -0.00668635 0.153069 
0.133085 0.0202598 0.153255 0.114675 0.0173054 0.182496 0.13356 0.0200645 0.180155 
0.13437 -0.00713374 0.179817 0.113639 0.0444619 0.182454 0.133889 -0.00764289 0.126472 
0.116816 0.0168999 0.210019 0.136536 0.0207756 0.207445 0.138938 -0.00563703 0.208044 
0.114455 0.0730824 -0.010101 0.13408 0.0471424 -0.00730187 0.133016 0.0736598 0.0195731 
0.133186 0.0468779 0.019528 0.134011 0.0466445 0.206816 0.132846 0.0731852 0.179989 
0.133005 0.0465307 0.180002 0.114839 0.072144 0.210155 0.132422 0.100194 0.046075 
0.132295 0.126514 0.0455112 0.133492 0.0735846 -0.00749896 0.132527 0.0998867 0.0194338 
0.133255 0.0997839 -0.0075438 0.113908 0.127827 -0.00961129 0.132765 0.126396 0.0190662 
0.133249 0.125875 -0.00750316 0.133333 0.124889 0.207231 0.132576 0.125613 0.180082 
0.132686 0.09953 0.179916 0.133514 0.0730383 0.207081 0.133436 0.0990153 0.207439 
0.114904 0.126599 0.209976 0.116451 0.182186 -0.00939772 0.11466 0.182157 0.0178176 
0.133063 0.153153 0.0462038 0.113862 0.182303 0.0453049 0.134365 0.152918 -0.00685284 
0.133435 0.153121 0.0195327 0.13448 0.151887 0.206757 0.116822 0.181352 0.209895 
0.114418 0.181455 0.182653 0.133198 0.152111 0.180188 0.11809 0.209184 0.0181935 
0.138984 0.205537 -0.00844907 0.136665 0.179027 -0.00773879 0.134804 0.207274 0.0197777 
0.133881 0.179968 0.0196444 0.134068 0.207361 0.0467815 0.133208 0.179982 0.0729896 
0.133946 0.207285 0.0735894 0.115509 0.209477 0.0731216 0.133452 0.179901 0.0463317 
0.115238 0.20938 0.127569 0.13401 0.179515 0.100186 0.133906 0.206453 0.100329 
0.133363 0.179073 0.179994 0.133647 0.206548 0.153425 0.133243 0.178865 0.153663 
0.132927 0.178674 0.127275 0.117966 0.208654 0.182405 0.134343 0.206418 0.180187 
0.133426 0.206191 0.126981 0.136622 0.178007 0.207434 0.138852 0.20463 0.208392 
0.155 0.025 0 0.155 0 0.025 0.155 0.025 0.025 
0.155 0.025 0.05 0.155 0.025 0.075 0.155 0 0.075 
0.155 0.025 0.1 0.155 0 0.125 0.155 0.025 0.125 
0.155 0.025 0.15 0.155 0 0.175 0.155 0.025 0.175 
0.155 0.025 0.2 0.155 0.075 0.025 0.155 0.075 0 
0.155 0.05 0.025 0.155 0.075 0.05 0.155 0.05 0.075 
0.155 0.075 0.125 0.155 0.075 0.075 0.155 0.075 0.1 
0.155 0.05 0.125 0.155 0.075 0.15 0.155 0.05 0.175 
0.155 0.075 0.175 0.155 0.075 0.2 0.155 0.1 0.025 
0.155 0.125 0 0.155 0.1 0.075 0.155 0.125 0.025 
0.155 0.125 0.05 0.155 0.125 0.075 0.155 0.1 0.125 
0.155 0.125 0.1 0.155 0.125 0.125 0.155 0.125 0.15 
0.155 0.125 0.175 0.155 0.1 0.175 0.155 0.125 0.2 
0.155 0.175 0 0.155 0.175 0.025 0.155 0.15 0.025 
0.155 0.15 0.075 0.155 0.175 0.05 0.155 0.175 0.125 
0.155 0.15 0.125 0.155 0.175 0.075 0.155 0.175 0.1 
0.155 0.15 0.175 0.155 0.175 0.15 0.155 0.175 0.175 
0.155 0.175 0.2 0.155 0.2 0.025 0.155 0.2 0.075 
0.155 0.2 0.125 0.155 0.2 0.175 

CELLS 236 2596
10 69 93 88 68 452 510 453 449 450 451 
10 28 47 45 44 255 323 256 257 318 319 
10 93 69 88 94 452 453 510 523 454 511 
10 43 49 86 85 308 342 309 310 343 503 
10 5 1 26 6 102 103 120 121 104 127 
10 82 86 81 63 495 493 494 421 422 423 
10 7 11 48 6 136 163 137 128 129 130 
10 37 17 54 38 208 209 285 286 210 290 
10 55 13 12 51 182 171 172 361 183 173 
10 90 86 49 85 505 342 344 504 503 343 
10 37 52 50 36 287 352 288 282 283 284 
10 91 92 65 86 519 433 434 506 507 435 
10 82 65 86 63 436 435 495 421 424 422 
10 25 5 0 26 122 98 99 243 120 100 
10 46 32 6 48 268 131 132 326 269 130 
10 57 46 58 62 327 328 383 384 329 387 
10 26 41 25 46 247 244 243 248 299 245 
10 22 38 39 17 235 291 236 211 210 212 
10 55 49 12 54 345 174 172 373 346 175 
10 26 5 6 30 120 121 127 249 123 133 
10 25 30 26 46 246 249 243 245 264 248 
10 11 15 16 34 164 194 165 166 195 201 
10 82 65 87 86 436 437 496 495 435 508 
10 15 34 36 37 195 276 196 197 277 282 
10 43 85 64 48 310 425 311 312 336 337 
10 1 5 26 0 102 120 103 101 98 100 
10 52 37 50 53 287 288 352 368 289 353 
10 60 80 59 86 404 398 399 405 489 400 
10 48 7 6 43 137 128 130 312 138 134 
10 92 71 96 91 462 463 521 519 464 520 
10 26 7 43 6 139 138 250 127 128 134 
10 6 26 46 42 127 248 132 135 251 303 
10 32 15 10 11 198 160 161 167 164 162 
10 90 71 70 49 465 459 460 344 347 348 
10 28 9 8 3 154 146 147 112 113 114 
10 68 69 50 66 449 354 355 439 440 356 
10 49 90 54 70 344 374 346 348 460 375 
10 28 43 7 44 258 138 140 257 313 141 
10 92 72 71 67 469 466 462 445 446 447 
10 71 56 51 72 381 362 363 466 382 364 
10 50 37 16 53 288 202 203 353 289 204 
10 5 6 30 32 121 133 123 124 131 265 
10 39 19 35 40 224 225 279 292 226 280 
10 12 11 50 48 168 169 176 177 163 338 
10 21 15 37 16 199 197 233 205 194 202 
10 28 4 9 3 117 118 154 112 115 113 
10 80 84 58 85 490 388 389 491 499 390 
10 15 36 20 37 196 230 200 197 282 231 
10 15 20 21 37 200 232 199 197 231 233 
10 19 18 35 13 218 219 225 184 185 186 
10 39 51 35 18 293 281 279 220 221 219 
10 15 34 37 16 195 277 197 194 201 202 
10 19 23 39 18 227 239 224 218 222 220 
10 5 6 32 11 121 131 124 125 129 167 
10 10 5 32 11 126 124 161 162 125 167 
10 19 33 14 13 228 192 193 184 187 188 
10 26 41 46 42 247 299 248 251 300 303 
10 24 19 39 40 229 224 241 242 226 292 
10 51 91 67 65 365 448 366 367 434 438 
10 17 21 37 16 213 233 208 206 205 202 
10 37 22 21 17 237 234 233 208 211 213 
10 49 91 65 86 349 434 350 342 506 435 
10 7 1 26 2 105 103 139 107 106 108 
10 17 55 12 54 214 172 178 209 373 175 
10 19 33 13 35 228 187 184 225 272 186 
10 7 2 26 27 107 108 139 142 109 252 
10 33 9 8 31 155 146 148 266 156 149 
10 55 18 39 17 223 220 294 214 215 212 
10 23 22 39 17 238 236 239 216 211 212 
10 18 23 39 17 222 239 220 215 216 212 
10 26 7 27 43 139 142 252 250 138 253 
10 32 15 11 34 198 164 167 270 195 166 
10 39 19 18 35 224 218 220 279 225 219 
10 23 19 39 24 227 224 239 240 229 241 
10 28 9 31 8 154 156 259 147 146 149 
10 28 4 29 9 117 119 260 154 118 157 
10 51 91 49 71 365 349 351 363 464 347 
10 96 71 90 91 463 465 515 520 464 516 
10 13 55 12 17 182 172 171 189 214 178 
10 92 71 91 67 462 464 519 445 447 448 
10 25 5 26 30 122 120 243 246 123 249 
10 47 61 45 60 331 324 323 332 406 325 
10 33 49 8 13 273 150 148 187 190 151 
10 85 90 64 48 504 426 425 336 339 337 
10 13 9 8 33 158 146 151 187 155 148 
10 78 64 84 83 427 428 484 485 429 497 
10 6 32 11 48 131 167 129 130 269 163 
10 16 37 54 53 202 285 207 204 289 371 
10 47 33 8 31 274 148 152 267 266 149 
10 1 7 26 6 105 139 103 104 128 127 
10 76 80 60 81 479 404 407 480 492 408 
10 90 94 69 95 517 454 455 518 524 456 
10 90 50 70 66 357 358 460 441 356 442 
10 7 2 27 28 107 109 142 140 110 254 
10 29 28 47 45 260 255 261 262 256 323 
10 3 7 8 28 116 143 114 112 140 147 
10 29 28 31 47 260 259 263 261 255 267 
10 47 33 49 8 274 273 333 152 148 150 
10 28 8 31 47 147 149 259 255 152 267 
10 90 70 69 66 460 457 455 441 442 440 
10 71 97 92 96 467 522 462 463 526 521 
10 58 46 64 62 328 330 391 387 329 417 
10 13 9 33 14 158 155 187 188 159 192 
10 39 56 40 51 295 297 292 293 362 298 
10 3 7 28 2 116 140 112 111 107 110 
10 46 57 58 41 327 383 328 299 301 302 
10 90 50 48 70 357 338 339 460 358 340 
10 90 54 70 48 374 375 460 339 341 340 
10 58 43 64 42 314 311 391 304 305 306 
10 28 43 27 7 258 253 254 140 138 142 
10 8 49 47 44 150 333 152 153 320 318 
10 28 8 47 44 147 152 255 257 153 318 
10 43 49 12 44 308 174 179 313 320 180 
10 12 49 13 44 174 190 171 180 320 191 
10 49 8 13 44 150 151 190 320 153 191 
10 12 13 7 44 171 144 145 180 191 141 
10 43 12 7 44 179 145 138 313 180 141 
10 13 8 7 44 151 143 144 191 153 141 
10 7 8 28 44 143 147 140 141 153 257 
10 91 51 49 65 365 351 349 434 367 350 
10 92 87 65 86 509 437 433 507 508 435 
10 63 61 60 82 414 406 409 421 415 410 
10 60 61 77 82 406 416 411 410 415 483 
10 67 51 72 71 366 364 446 447 363 466 
10 91 92 67 65 519 445 448 434 433 438 
10 63 60 81 82 409 408 423 421 410 494 
10 76 60 77 82 407 411 481 482 410 483 
10 60 76 81 82 407 480 408 410 482 494 
10 39 56 51 55 295 362 293 294 379 361 
10 18 35 13 51 219 186 185 221 281 183 
10 55 13 51 18 182 183 361 223 185 221 
10 49 55 12 51 345 172 174 351 361 173 
10 35 33 13 51 272 187 186 281 275 183 
10 33 49 13 51 273 190 187 275 351 183 
10 49 12 13 51 174 171 190 351 173 183 
10 55 13 18 17 182 185 223 214 189 215 
10 71 56 55 51 381 379 380 363 362 361 
10 51 40 39 35 298 292 293 281 280 279 
10 37 36 50 34 282 284 288 277 276 278 
10 47 60 44 65 332 321 318 334 412 322 
10 49 47 44 65 333 318 320 350 334 322 
10 47 61 60 63 331 406 332 335 414 409 
10 43 44 60 65 313 321 315 316 322 412 
10 43 49 44 65 308 320 313 316 350 322 
10 39 51 18 55 293 221 220 294 361 223 
10 54 39 38 17 296 291 290 209 212 210 
10 90 70 95 69 460 461 518 455 457 456 
10 49 12 54 85 174 175 346 343 181 376 
10 71 49 54 70 347 346 377 459 348 375 
10 51 91 71 67 365 464 363 366 448 447 
10 49 55 51 71 345 361 351 347 380 363 
10 6 43 26 42 134 250 127 135 305 251 
10 73 58 78 57 392 393 471 385 383 386 
10 37 22 17 38 237 211 208 286 235 210 
10 43 49 65 86 308 350 316 309 342 435 
10 59 43 60 86 317 315 399 400 309 405 
10 60 43 65 86 315 316 412 405 309 435 
10 63 60 65 86 409 412 424 422 405 435 
10 60 63 81 86 409 423 408 405 422 493 
10 37 17 16 54 208 206 202 285 209 207 
10 71 95 90 70 468 518 465 459 461 460 
10 49 55 71 54 345 380 347 346 373 377 
10 95 71 90 96 468 465 518 525 463 515 
10 88 69 66 89 453 440 443 512 458 444 
10 90 49 54 85 344 346 374 504 343 376 
10 78 64 62 84 427 417 418 484 428 419 
10 90 66 89 64 441 444 513 426 430 431 
10 54 90 85 48 374 504 376 341 339 336 
10 69 68 88 66 449 451 453 440 439 443 
10 9 29 28 31 157 260 154 156 263 259 
10 54 12 50 48 175 176 359 341 177 338 
10 88 69 89 94 453 458 512 511 454 514 
10 78 58 62 57 393 387 418 386 383 384 
10 69 54 50 70 378 359 354 457 375 358 
10 90 86 91 49 505 506 516 344 342 349 
10 12 54 85 48 175 376 181 177 341 336 
10 89 66 88 64 444 443 512 431 430 432 
10 88 84 89 64 500 501 512 432 428 431 
10 69 70 50 66 457 358 354 440 442 356 
10 49 43 12 85 308 179 174 343 310 181 
10 92 72 97 71 469 470 522 462 466 467 
10 90 94 89 69 517 514 513 455 454 458 
10 69 54 53 50 378 371 372 354 359 353 
10 68 69 52 50 449 369 370 355 354 352 
10 48 7 43 12 137 138 312 177 145 179 
10 69 90 66 89 455 441 440 458 513 444 
10 59 43 86 85 317 309 400 401 310 503 
10 60 80 86 81 404 489 405 408 492 493 
10 69 53 52 50 372 368 369 354 353 352 
10 90 71 49 91 465 347 344 516 464 349 
10 50 37 34 16 288 277 278 203 202 201 
10 54 16 53 50 207 204 371 359 203 353 
10 46 32 30 6 268 265 264 132 131 133 
10 32 34 11 50 270 166 167 271 278 169 
10 12 17 54 50 178 209 175 176 217 359 
10 17 16 54 50 206 207 209 217 203 359 
10 11 17 12 50 170 178 168 169 217 176 
10 11 16 17 50 165 206 170 169 203 217 
10 11 34 16 50 166 201 165 169 278 203 
10 11 7 48 12 136 137 163 168 145 177 
10 64 50 90 66 360 357 426 430 356 441 
10 90 89 84 64 513 501 502 426 431 428 
10 85 59 58 80 401 394 390 491 398 389 
10 60 45 47 44 325 323 332 321 319 318 
10 11 32 50 48 167 271 169 163 269 338 
10 50 64 90 48 360 426 357 338 337 339 
10 43 12 85 48 179 181 310 312 177 336 
10 59 43 85 64 317 310 401 402 311 425 
10 30 6 26 46 133 127 249 264 132 248 
10 46 41 58 42 299 302 328 303 300 304 
10 90 84 85 64 502 499 504 426 428 425 
10 84 62 78 79 419 418 484 487 420 486 
10 70 54 50 48 375 359 358 340 341 338 
10 78 74 79 58 473 474 486 393 395 396 
10 58 46 42 64 328 303 304 391 330 306 
10 54 39 17 55 296 212 209 373 294 214 
10 43 6 48 42 134 130 312 305 135 307 
10 84 64 62 58 428 417 419 388 391 387 
10 58 80 75 74 389 477 397 395 475 476 
10 47 60 65 63 332 412 334 335 409 424 
10 58 80 74 79 389 475 395 396 488 474 
10 85 59 64 58 401 402 425 390 394 391 
10 84 85 64 58 499 425 428 388 390 391 
10 60 75 80 76 413 477 404 407 478 479 
10 48 6 46 42 130 132 326 307 135 303 
10 58 43 59 64 314 317 394 391 311 402 
10 64 43 48 42 311 312 337 306 305 307 
10 64 48 46 42 337 326 330 306 307 303 
10 86 59 85 80 400 401 503 489 398 491 
10 59 58 80 75 394 389 398 403 397 477 
10 60 75 59 80 413 403 399 404 477 398 
10 62 84 58 79 419 388 387 420 487 396 
10 88 84 64 83 500 428 432 498 497 429 
10 80 84 79 58 490 487 488 389 388 396 
10 78 58 79 62 393 396 486 418 387 420 
10 78 74 58 73 473 395 393 471 472 392 

CELL_TYPES 236
24
24
24
24
24
24
24
24
24
24
24
24
24
24
24
24
24
24
24
24
24
24
24
24
24
24
24
24
24
24
24
24
24
24
24
24
24
24
24
24
24
24
24
24
24
24
24
24
24
24
24
24
24
24
24
24
24
24
24
24
24
24
24
24
24
24
24
24
24
24
24
24
24
24
24
24
24
24
24
24
24
24
24
24
24
24
24
24
24
24
24
24
24
24
24
24
24
24
24
24
24
24
24
24
24
24
24
24
24
24
24
24
24
24
24
24
24
24
24
24
24
24
24
24
24
24
24
24
24
24
24
24
24
24
24
24
24
24
24
24
24
24
24
24
24
24
24
24
24
24
24
24
24
24
24
24
24
24
24
24
24
24
24
24
24
24
24
24
24
24
24
24
24
24
24
24
24
24
24
24
24
24
24
24
24
24
24
24
24
24
24
24
24
24
24
24
24
24
24
24
24
24
24
24
24
24
24
24
24
24
24
24
24
24
24
24
24
24
24
24
24
24
24
24
24
24
24
24
24
24
24
24
24
24
24
24

POINT_DATA 527
VECTORS displacement float
0 0 0
0 0 0
0 0 0
0 0 0
0 0 0
0 0 0
0 0 0
0 0 0
0 0 0
0 0 0
0 0 0
0 0 0
0 0 0
0 0 0
0 0 0
0 0 0
0 0 0
0 0 0
0 0 0
0 0 0
0 0 0
0 0 0
0 0 0
0 0 0
0 0 0
-0.0148616 -0.00878033 -0.00889176
-0.0103301 -0.00847411 -0.00453448
-0.00922135 -0.00883208 -9.6332e-05
-0.0100905 -0.00890276 0.00435832
-0.0152032 -0.0091778 0.00885858
-0.01068 -0.00400751 -0.0089024
-0.0104171 -0.00444497 0.00890748
-0.00919989 0.000428461 -0.00860816
-0.00972717 -0.000157107 0.00871385
-0.00873795 0.00515377 -0.00853333
-0.00904345 0.00459162 0.00902436
-0.0148254 0.00936297 -0.0083118
-0.010294 0.00861521 -0.00411323
-0.00885152 0.0086316 0.000333439
-0.00982055 0.00869477 0.00474703
-0.0149275 0.00902265 0.00893987
-0.0225581 -0.0110226 -0.0118671
-0.0216637 -0.0126007 -0.00686245
-0.0215441 -0.0124597 -0.000304089
-0.0231838 -0.0132231 0.0062183
-0.0228139 -0.0118313 0.0118234
-0.0228566 -0.00646936 -0.0126971
-0.0227368 -0.00682188 0.0131238
-0.0217996 0.000197443 -0.0127342
-0.0212921 -0.000109357 0.0131351
-0.0222338 0.00725115 -0.0134485
-0.0218294 0.00635908 0.0137341
-0.0223473 0.0125264 -0.0113969
-0.0220698 0.0133469 -0.00595686
-0.020587 0.0126204 0.000510343
-0.0227801 0.0125968 0.00697294
-0.0222004 0.0113855 0.0126676
-0.0295927 -0.00990605 -0.00945206
-0.0341366 -0.00972097 -0.00465775
-0.0360893 -0.00928036 0.000131471
-0.0346129 -0.00941807 0.00422474
-0.0299592 -0.0105578 0.00874674
-0.0345647 -0.00443174 -0.0104875
-0.0345955 -0.00532296 0.0104083
-0.0365683 0.000331199 -0.00976443
-0.0356032 -0.000607705 0.00986457
-0.0356936 0.00492039 -0.00950209
-0.0348256 0.00375027 0.00991863
-0.0297951 0.00925248 -0.00884237
-0.0334429 0.00945195 -0.00407874
-0.0347898 0.00942677 0.000448911
-0.0339749 0.00929492 0.00467916
-0.0296401 0.0086345 0.00939491
-0.045 0 0
-0.045 0 0
-0.045 0 0
-0.045 0 0
-0.045 0 0
-0.045 0 0
-0.045 0 0
-0.045 0 0
-0.045 0 0
-0.045 0 0
-0.045 0 0
-0.045 0 0
-0.045 0 0
-0.045 0 0
-0.045 0 0
-0.045 0 0
-0.045 0 0
-0.045 0 0
-0.045 0 0
-0.045 0 0
-0.045 0 0
-0.045 0 0
-0.045 0 0
-0.045 0 0
-0.045 0 0
0 0 0
-0.00856404 -0.00516889 -0.00765244
-0.00418743 -0.00690413 -0.0045115
0 0 0
0 0 0
-0.00356198 -0.00685302 -0.00282542
0 0 0
0 0 0
0 0 0
0 0 0
-0.00372822 -0.00711393 -0.00138658
-0.00336466 -0.0065333 0.000102687
-0.0035686 -0.00686296 0.00157446
0 0 0
-0.00347 -0.00669492 0.00281178
0 0 0
0 0 0
0 0 0
0 0 0
-0.00413504 -0.00699068 0.00440937
0 0 0
-0.0087478 -0.00532412 0.00761974
-0.00326648 -0.00468378 -0.00417392
0 0 0
-0.00662553 -0.0035754 -0.00668088
-0.00492621 -0.00237356 -0.00584438
-0.003233 -4.93097e-05 -0.00670532
0 0 0
0 0 0
-0.00313831 -0.00451761 -0.002545
0 0 0
0 0 0
-0.00685035 -0.00194934 -0.00722966
-0.00250688 -0.000523909 -0.00463013
-0.00890069 -0.0042058 -0.00667866
-0.00380833 -0.0024691 -0.00431502
-0.00782032 -0.00666298 -0.00228345
-0.0088328 -0.0062647 -0.00452809
0 0 0
-0.00585395 -0.00208026 -0.00529371
-0.00779853 -0.00673348 -0.000227818
-0.00273445 -0.00478304 -0.00121665
-0.00252829 -0.00448379 0.00145065
-0.00643142 -0.00751499 0.00239717
-0.00270654 -0.00478226 0.000107802
0 0 0
0 0 0
0 0 0
0 0 0
-0.00287089 -0.00445322 0.00272004
-0.0027489 -0.00101241 0.00477194
-0.00347669 -0.00269986 0.00437611
-0.00766612 -0.00239707 0.00689891
0 0 0
-0.00855186 -0.0045974 0.00663976
-0.00715264 -0.00715015 0.00468472
-0.00323053 -0.00476954 0.00423609
-0.00340464 -0.000503201 0.00693745
-0.00466332 -0.00263116 0.00594589
-0.00660367 -0.00372989 0.00671815
0 0 0
0 0 0
0 0 0
-0.00327584 0.000932218 -0.00677147
0 0 0
-0.00598124 0.000434371 -0.00743558
0 0 0
0 0 0
-0.00220183 0.00179465 -0.0042894
-0.0024121 0.000692756 -0.00436743
0 0 0
-0.0059848 0.00268411 -0.00726906
0 0 0
0 0 0
-0.00625464 0.00509736 0.00259203
-0.00675771 0.00245919 0.00506375
-0.00722782 3.64296e-06 0.00558619
-0.00666569 0.00531503 0.000139422
-0.00591737 0.00276395 -0.00504654
-0.00613262 0.000408599 -0.00534129
0 0 0
-0.0073031 -0.00525082 -0.000126332
-0.00632323 -0.00535066 0.00246345
-0.0220776 0.00011241 8.41323e-05
-0.00609341 0.00502307 0.00503096
-0.00712815 0.0023463 0.00699751
0 0 0
0 0 0
-0.00241234 0.00151107 0.00469098
-0.00263718 0.000362304 0.00469707
0 0 0
0 0 0
-0.00758479 -0.000135142 0.00701555
-0.0062999 -0.00515842 0.00494893
-0.00353089 0.000546907 0.00718773
0 0 0
0 0 0
-0.00327015 0.0030122 -0.00564004
-0.00596525 0.00344091 -0.00624838
-0.00314557 0.00431057 -0.00401405
-0.00327209 0.0019615 -0.00628224
0 0 0
0 0 0
-0.00258486 0.00299577 -0.00391492
-0.00311254 0.00443715 -0.00234732
-0.00678878 0.0050014 -0.00660854
-0.00802227 0.00676039 -0.00413511
0 0 0
0 0 0
-0.00732192 0.00680125 -0.0019102
-0.00263807 0.00465046 -0.00105334
-0.00713791 0.00668884 0.000176413
-0.00256121 0.00456009 0.000270985
0 0 0
-0.00248857 0.00443444 0.00159245
0 0 0
-0.00628089 0.0073221 0.00265083
0 0 0
0 0 0
-0.0060268 0.00502243 -0.00481509
0 0 0
-0.00268063 0.00273267 0.00438901
-0.00281783 0.00422341 0.00281482
-0.00722238 0.00448587 0.00692481
0 0 0
-0.00671944 0.00711518 0.00485068
-0.00307285 0.00415413 0.00435012
-0.00344547 0.00271369 0.00619967
-0.00614301 0.00320228 0.00660785
0 0 0
-0.00353682 0.00167252 0.0067982
0 0 0
-0.00833748 0.00497547 -0.00731642
-0.00403994 0.00667936 -0.0041973
0 0 0
-0.0035003 0.00676999 -0.00265264
0 0 0
-0.00318805 0.0062898 0.000305332
-0.00344122 0.00664842 0.00172735
-0.00363361 0.00689392 -0.00114187
0 0 0
-0.00333391 0.00642395 0.0030643
0 0 0
-0.00388783 0.00644559 0.0045093
-0.00846268 0.00475805 0.00761878
-0.0123066 -0.00871814 -0.00704019
-0.0188929 -0.0101727 -0.0101947
-0.0175445 -0.0081231 -0.0105395
-0.0119134 -0.00641594 -0.00932771
-0.0173726 -0.0101972 -0.00827226
-0.0159307 -0.00804036 -0.00845478
-0.00947977 -0.00630121 -0.00706787
-0.0156379 -0.0104134 -0.0031847
-0.0157952 -0.010426 -0.00595815
-0.00995155 -0.0087671 -0.00244669
-0.0150143 -0.0106407 -0.000160444
-0.00987996 -0.00888434 0.00225639
-0.015854 -0.00861423 0.00853715
-0.0176922 -0.0108729 0.00826741
-0.0162921 -0.0111735 0.00553265
-0.0151699 -0.0113773 0.0029017
-0.00937704 -0.00673769 0.00702519
-0.0124838 -0.0090493 0.00694856
-0.017614 -0.00867517 0.0105549
-0.0192407 -0.0108091 0.0101813
-0.0118942 -0.00685016 0.00936371
-0.0166933 -0.00539832 -0.0108552
-0.00986872 -0.00187262 -0.00885918
-0.00993297 -0.00233414 0.00891737
-0.0165298 -0.00585641 0.010901
-0.0154117 -0.00286878 -0.0110696
-0.0148191 0.000207851 -0.011046
-0.00899106 0.00279836 -0.00873782
-0.0148156 0.00322659 -0.0113362
-0.0094497 0.00220647 0.00901791
-0.0152478 -0.000275934 0.0108463
-0.0156527 -0.0032054 0.010908
-0.0153571 0.00255026 0.0110635
-0.0108678 0.0073392 -0.00897958
-0.00844302 0.00698798 -0.00657606
-0.0152372 0.0065613 -0.0107947
-0.00859918 0.00661215 0.00709714
-0.0111801 0.00682708 0.00953126
-0.0153821 0.00574604 0.0111423
-0.0122553 0.00900021 -0.00645937
-0.018735 0.0115166 -0.00943131
-0.0167594 0.00947003 -0.0101132
-0.0152378 0.0106025 -0.00245837
-0.0097362 0.00866728 -0.00195404
-0.0171085 0.0112994 -0.00759814
-0.0148031 0.00909427 -0.00808829
-0.015743 0.0110758 -0.00521019
-0.0143899 0.0106297 0.000408934
-0.00947521 0.00861809 0.00261651
-0.0120846 0.00878134 0.00711963
-0.0149096 0.00845298 0.00883532
-0.015743 0.0109654 0.00611448
-0.0169827 0.0106697 0.0086978
-0.0145754 0.01108 0.00328759
-0.0187734 0.0105503 0.0104734
-0.0169861 0.00849598 0.0108137
-0.0225767 -0.00916095 -0.0120766
-0.0220453 -0.0116038 -0.00974202
-0.0259436 -0.0102528 -0.0107797
-0.026927 -0.010433 -0.00882274
-0.0219664 -0.00957446 -0.00984074
-0.0280313 -0.0106935 -0.00623948
-0.0213543 -0.0126334 -0.00370047
-0.0295114 -0.00573035 -0.00895608
-0.0219497 -0.00654843 -0.00970393
-0.022008 -0.0065507 0.00635746
-0.0377561 -0.00493262 0.00254148
-0.0377599 -0.00513424 7.01302e-05
-0.0300174 -0.00564489 -0.00615737
-0.0217812 -0.00649582 -0.00630681
-0.0218118 -0.0132754 0.00289581
-0.0286096 -0.0109221 -0.00327555
-0.0291103 -0.0114816 0.0026489
-0.0307412 -0.00607945 0.00637245
-0.0295411 -0.0109005 -0.000123659
-0.0228543 -0.00996578 0.00989673
-0.022834 -0.0121957 0.00942612
-0.0221695 -0.00656677 0.00997669
-0.0294258 -0.0110571 0.00569117
-0.0301953 -0.006445 0.00906696
-0.0227995 -0.0098422 0.0123543
-0.026334 -0.0112121 0.0100477
-0.0277459 -0.0109625 0.00811823
-0.0222884 -0.00323909 -0.0128304
-0.027176 -0.00831924 -0.010905
-0.0281531 -0.00821393 -0.00890065
-0.0280475 -0.00577383 -0.0111614
-0.0295416 -0.00307511 -0.0114291
-0.0276546 -0.00920141 0.0105444
-0.029122 -0.00891035 0.0086694
-0.0217513 -0.00347967 0.0132539
-0.0291396 -0.00368727 0.011806
-0.0281145 -0.00658124 0.0111735
-0.0379746 2.77181e-06 -0.00566297
-0.0300717 -2.08133e-05 -0.0115113
-0.0219705 0.00378914 -0.0130422
-0.0377296 0.00246773 -0.00533685
-0.0301807 0.00655702 -0.00555192
-0.021338 0.00690848 -0.00590989
-0.038214 -0.000754343 0.0080142
-0.0381135 -0.000551159 0.00579775
-0.0388171 0.00197952 0.00579787
-0.0214333 0.0063441 0.0100717
-0.021768 0.00607679 0.00633705
-0.029679 0.00606972 0.00917538
-0.0305888 0.00592536 0.00602148
-0.0379047 0.00165202 0.00791169
-0.029377 -0.000683561 0.0120715
-0.0212106 0.0032934 0.0134248
-0.0221918 0.0104394 -0.0122624
-0.0218492 0.0105747 -0.00955267
-0.0289422 0.00934767 -0.00837889
-0.0275862 0.00958318 -0.0105754
-0.0295619 0.00649901 -0.011043
-0.036942 0.00494729 -0.0048073
-0.0296898 0.00929484 -0.00570634
-0.021332 0.0102953 -0.00630898
-0.0297205 0.00339779 -0.0110483
-0.0222864 0.00930583 0.0104132
-0.0222238 0.00940151 0.0131665
-0.0289849 0.00865411 0.00914201
-0.0273242 0.00841406 0.011184
-0.0369774 0.00387631 0.00789834
-0.0285279 0.00530981 0.0118156
-0.0288653 0.00211859 0.0121461
-0.0220856 0.012865 -0.00905174
-0.0268686 0.0115011 -0.00801785
-0.0257261 0.011717 -0.0098714
-0.0209477 0.0131197 -0.00281029
-0.028263 0.0117003 -0.00563295
-0.0213121 0.0128608 0.00373232
-0.0359336 0.00737112 0.000300104
-0.0284167 0.0117139 0.000517342
-0.0362707 0.00540638 0.000185625
-0.0288388 0.0112462 0.00366833
-0.0282678 0.0118507 -0.00270765
-0.0223257 0.0118559 0.0101005
-0.0293731 0.0106701 0.00656881
-0.0273218 0.0105237 0.00883517
-0.0256166 0.0105355 0.0106878
-0.0321129 -0.00987494 -0.0074806
-0.0328176 -0.00726931 -0.0103567
-0.0358126 -0.00527215 -0.00858901
-0.0382456 -0.00380874 -0.00796087
-0.0347829 -0.00724004 -0.00774227
-0.0420336 -0.00286825 -0.00357061
-0.0419963 -0.00526679 -0.00159543
-0.0422464 -0.00317342 -0.00163236
-0.0359019 -0.00482157 -0.00746112
-0.0404876 -0.0069225 -0.00532029
-0.0412939 -0.00473684 -0.00561975
-0.0352198 -0.00951445 -0.00230029
-0.0413257 -0.00672585 -0.00342857
-0.0417427 -0.00476921 -0.00361723
-0.0411804 -0.0073504 -0.00163205
-0.042164 -0.00546287 -7.06088e-05
-0.035444 -0.00949051 0.00245358
-0.0427038 -0.0042534 0.00141653
-0.0425592 -0.00384505 4.11632e-05
-0.0367993 -0.00483542 -0.00498915
-0.0414728 -0.00691315 1.73821e-05
-0.0420447 -0.00546434 0.00139363
-0.0422684 -0.00297718 0.00322749
-0.0324641 -0.0100597 0.00686705
-0.0414745 -0.00668635 0.00306885
-0.0419153 -0.00474017 0.00325475
-0.0353248 -0.00769461 0.00749647
-0.0414401 -0.00493549 0.00515514
-0.0406298 -0.00713374 0.00481715
-0.0363612 -0.00553806 0.00745369
-0.041111 -0.00764289 0.00147237
-0.0331836 -0.00810015 0.0100195
-0.0384645 -0.00422438 0.00744519
-0.0360618 -0.00563703 0.0080437
-0.0355453 -0.00191761 -0.010101
-0.0409203 -0.0028576 -0.00730187
-0.0419839 -0.00134019 -0.00542686
-0.0418144 -0.00312211 -0.00547197
-0.0409894 -0.00335547 0.00681622
-0.042154 -0.00181485 0.0049891
-0.041995 -0.00346931 0.00500223
-0.0351606 -0.00285601 0.0101548
-0.0425785 0.000193668 -0.00392502
-0.0427052 0.00151387 -0.00448878
-0.0415078 -0.00141542 -0.00749896
-0.0424729 -0.000113255 -0.00556617
-0.0417447 -0.000216085 -0.0075438
-0.036092 0.00282697 -0.00961129
-0.0422352 0.00139565 -0.00593377
-0.0417509 0.000875375 -0.00750316
-0.041667 -0.00011056 0.00723123
-0.0424244 0.000613334 0.00508172
-0.0423144 -0.000470043 0.0049161
-0.0414856 -0.00196172 0.00708128
-0.0415635 -0.000984676 0.0074387
-0.0350961 0.00159907 0.00997559
-0.0335491 0.00718594 -0.00939772
-0.0353404 0.00715679 -0.00718237
-0.0419368 0.0031532 -0.00379618
-0.0361383 0.00730341 -0.00469505
-0.0406352 0.0029181 -0.00685284
-0.0415653 0.00312122 -0.00546725
-0.04052 0.00188727 0.00675682
-0.0331777 0.00635224 0.00989517
-0.0355816 0.00645505 0.00765253
-0.0418022 0.00211138 0.00518813
-0.0319099 0.0091842 -0.00680651
-0.0360156 0.00553743 -0.00844907
-0.0383345 0.00402677 -0.00773879
-0.0401962 0.00727415 -0.0052223
-0.041119 0.00496778 -0.00535555
-0.0409316 0.00736054 -0.00321854
-0.0417922 0.00498191 -0.00201037
-0.0410542 0.00728489 -0.00141064
-0.0344907 0.00947654 -0.00187842
-0.0415481 0.00490075 -0.00366826
-0.0347623 0.00938001 0.00256879
-0.0409895 0.00451523 0.000185938
-0.041094 0.00645312 0.000329051
-0.0416367 0.00407282 0.0049938
-0.0413535 0.0065479 0.00342506
-0.0417573 0.00386516 0.00366324
-0.0420726 0.00367367 0.00227496
-0.0320342 0.00865415 0.00740517
-0.0406573 0.00641775 0.00518709
-0.0415736 0.00619141 0.00198127
-0.0383778 0.00300744 0.00743407
-0.0361477 0.00462954 0.00839154
-0.045 0 0
-0.045 0 0
-0.045 0 0
-0.045 0 0
-0.045 0 0
-0.045 0 0
-0.045 0 0
-0.045 0 0
-0.045 0 0
-0.045 0 0
-0.045 0 0
-0.045 0 0
-0.045 0 0
-0.045 0 0
-0.045 0 0
-0.045 0 0
-0.045 0 0
-0.045 0 0
-0.045 0 0
-0.045 0 0
-0.045 0 0
-0.045 0 0
-0.045 0 0
-0.045 0 0
-0.045 0 0
-0.045 0 0
-0.045 0 0
-0.045 0 0
-0.045 0 0
-0.045 0 0
-0.045 0 0
-0.045 0 0
-0.045 0 0
-0.045 0 0
-0.045 0 0
-0.045 0 0
-0.045 0 0
-0.045 0 0
-0.045 0 0
-0.045 0 0
-0.045 0 0
-0.045 0 0
-0.045 0 0
-0.045 0 0
-0.045 0 0
-0.045 0 0
-0.045 0 0
-0.045 0 0
-0.045 0 0
-0.045 0 0
-0.045 0 0
-0.045 0 0
-0.045 0 0
-0.045 0 0
-0.045 0 0
-0.045 0 0

CELL_DATA 236
TENSORS stress float
-9532.28 229.903 -689.083
229.903 -2328.59 513.497
-689.083 513.497 475.64

-9085.36 77.1306 25.1974
77.1306 -1557.85 608.614
25.1974 608.614 -634.1

-11740.2 -1462.05 1265.4
-1462.05 -7435.86 -1650.66
1265.4 -1650.66 -8327.65

-6986.42 83.5122 -912.857
83.5122 173.31 587.604
-912.857 587.604 770.659

-10386.3 -1567 -1269.09
-1567 -4654.67 1170.38
-1269.09 1170.38 -6184.88

-12773.3 601.499 -826.465
601.499 -10075.4 -546.621
-826.465 -546.621 -9169.14

-14268.4 220.643 19.2265
220.643 -9098.76 -138.496
19.2265 -138.496 -9463.81

-8134.35 -379.333 197.429
-379.333 -456.225 -124.31
197.429 -124.31 -266.164

-9608.37 512.387 479.693
512.387 -1956.61 -17.9102
479.693 -17.9102 -2415.4

-18265.7 -324.634 34.3879
-324.634 -15162.6 -42.7733
34.3879 -42.7733 -15305.5

-7551.95 -629.037 349.169
-629.037 1023.45 236.444
349.169 236.444 452.488

-9044.6 -335.702 -2154.01
-335.702 -6707.8 -121.2
-2154.01 -121.2 -4126.13

-7468.2 478.41 -1783.57
478.41 -1837.06 -489.374
-1783.57 -489.374 850.623

-9633.48 126.256 832.377
126.256 -2435.37 -206.842
832.377 -206.842 170.851

-7783.43 489.444 759.182
489.444 1826.02 -170.323
759.182 -170.323 -436.154

-7621.52 -740.04 -561.991
-740.04 2737.18 -126.785
-561.991 -126.785 2018.1

-7669.54 299.692 347.895
299.692 642.576 -193.877
347.895 -193.877 398.783

-8553.57 925.147 233.38
925.147 -646.168 309.43
233.38 309.43 -2940.82

-10113.3 421.616 334.962
421.616 -1697.4 392.349
334.962 392.349 -1370.71

-8914.8 -1158.9 -942.31
-1158.9 -1800.97 497.515
-942.31 497.515 -2612.88

-7767.55 473.184 728.139
473.184 2337.26 76.3277
728.139 76.3277 1287.45

-13048.7 451.265 -869.762
451.265 -11422.9 -274.593
-869.762 -274.593 -10471.9

-11838.4 242.224 -1630.23
242.224 -9937.54 -515.595
-1630.23 -515.595 -6386.85

-8476.23 -318.657 248.59
-318.657 -3192.44 -325.728
248.59 -325.728 -674.261

-8507.46 -199.003 47.3926
-199.003 92.798 -431.74
47.3926 -431.74 176.781

-11773 -1489.63 -1121.03
-1489.63 -7413.8 1544.78
-1121.03 1544.78 -8898.82

-7938.54 -163.096 -103.552
-163.096 1259.32 502.007
-103.552 502.007 2001.39

-10900.7 330.134 -364.455
330.134 -5249.04 610.379
-364.455 610.379 -5787.56

-8339.72 -63.1943 -241.365
-63.1943 -725.907 -563.552
-241.365 -563.552 -1190.85

-10304.2 -1566.08 -1694.59
-1566.08 -5628.49 994.139
-1694.59 994.139 -6899.78

-9668.9 -93.5389 -285.685
-93.5389 -1909.01 -279.071
-285.685 -279.071 -2747.66

-7686 -320.444 -170.497
-320.444 1637.4 385.285
-170.497 385.285 1277.61

-10010.3 424.14 -1824.98
424.14 -7757.73 -312.937
-1824.98 -312.937 -4773.48

-9928.72 -236.238 -271.685
-236.238 -2842.46 -556.009
-271.685 -556.009 -2444.29

-8943.68 -1913.86 1468.91
-1913.86 -3498.27 -1191.47
1468.91 -1191.47 -4953.71

-7404.77 842.434 -513.68
842.434 3054.95 273.195
-513.68 273.195 2037.77

-9458.25 -12.654 -255.108
-12.654 -914.906 -75.3842
-255.108 -75.3842 -959.22

-6794.23 656.399 715.881
656.399 -392.971 -420.259
715.881 -420.259 2238.08

-8535.86 341.956 459.546
341.956 -1958.29 -101.425
459.546 -101.425 -78.0978

-7434.93 384.261 247.623
384.261 756.878 -504.904
247.623 -504.904 594.679

-8016.81 -141.951 -401.269
-141.951 828.336 -335.275
-401.269 -335.275 835.211

-9311.54 -38.2144 -559.566
-38.2144 -2120.1 -660.491
-559.566 -660.491 -1996.18

-8613.4 -338.407 -218.058
-338.407 -3308.57 156.338
-218.058 156.338 -756.048

-6469.48 301.203 -1081.71
301.203 1281.19 281.805
-1081.71 281.805 1169.14

-9979.63 1556.72 -1279.38
1556.72 -3996.95 -928.215
-1279.38 -928.215 -5437.68

-12130.5 -1408.76 1025.73
-1408.76 -7859.72 -1562.32
1025.73 -1562.32 -9421.43

-9320.19 913.011 654.57
913.011 -4975.58 -8.60693
654.57 -8.60693 -5271.44

-9635.3 -111.776 742.066
-111.776 -2210.99 91.5109
742.066 91.5109 -280

-11756.9 1408.36 -1047.47
1408.36 -7194.78 -1234.07
-1047.47 -1234.07 -8898.9

-14019.6 328.006 727.789
328.006 -12606.9 269.994
727.789 269.994 -11412.7

-8108.33 393.137 465.75
393.137 -592.544 575.701
465.75 575.701 -482.526

-6009.89 1401.36 -1738.56
1401.36 -188.044 -633.469
-1738.56 -633.469 748.639

-8614.61 1784.87 1578.84
1784.87 -3042.07 1007.14
1578.84 1007.14 -4187.95

-8544.8 -191.711 -2085.27
-191.711 -6323.63 3.86792
-2085.27 3.86792 -4221.91

-9828.85 131.204 -2042.89
131.204 -7827.32 -293.786
-2042.89 -293.786 -4568.84

-10782.4 256.151 1737.05
256.151 -8661.87 267.239
1737.05 267.239 -5356.9

-7726.75 -200.099 65.429
-200.099 842.198 -491.016
65.429 -491.016 1340.53

-9689.02 -106.834 -785.648
-106.834 -2416.29 -185.439
-785.648 -185.439 -244.089

-8571.18 -214.197 317.728
-214.197 -178.442 57.9826
317.728 57.9826 -908.912

-12262.8 1535.41 -370.191
1535.41 -8999.04 -442.594
-370.191 -442.594 -10936

-9455.54 2266.3 -506.362
2266.3 -4477.13 -371.026
-506.362 -371.026 -7153.13

-10251.6 -78.0574 47.011
-78.0574 -3213.37 11.4424
47.011 11.4424 -3611.51

-10014.7 -2192.39 -566.029
-2192.39 -4942.26 417.381
-566.029 417.381 -7871.88

-8367.1 727.444 634.687
727.444 -1779.84 343.632
634.687 343.632 -516.567

-7718.73 575.04 1126.16
575.04 -2515.01 145.458
1126.16 145.458 388.507

-9036.54 -793.235 -145.262
-793.235 -1075.01 386.666
-145.262 386.666 -3501.91

-9472.17 -367.389 521.901
-367.389 -2948.62 692.484
521.901 692.484 -2202.55

-8772.05 -488.558 327.62
-488.558 -2161.77 -273.021
327.62 -273.021 -926.026

-9449.58 2182.33 736.796
2182.33 -4725.52 507.325
736.796 507.325 -7218.42

-9406.7 1964.8 861.695
1964.8 -5638.26 579.979
861.695 579.979 -7389.8

-8524.56 305.256 4.12024
305.256 -524.518 -35.0449
4.12024 -35.0449 -568.322

-7262.55 716.471 -1158.56
716.471 -2000.77 -120.593
-1158.56 -120.593 550.485

-6803.57 1211.33 1662.36
1211.33 -973.464 544.353
1662.36 544.353 73.2146

-11973.7 1348.49 1106.94
1348.49 -7711.33 1308.69
1106.94 1308.69 -9123.02

-9168.66 -1023.45 807.016
-1023.45 -2378.11 -652.19
807.016 -652.19 -2932.61

-9673.17 121.393 -907.272
121.393 -2536.62 252.155
-907.272 252.155 127.846

-9494.14 -68.0373 -252.731
-68.0373 -3756.37 -1426.7
-252.731 -1426.7 -2289.01

-11406.1 -1256.28 -850.843
-1256.28 -6237.47 590.881
-850.843 590.881 -8082.85

-14598.5 359.247 323.88
359.247 -10714.7 119.911
323.88 119.911 -10576.4

-9358.35 -605.413 -841.923
-605.413 -2667.47 370.652
-841.923 370.652 -2987.22

-8925.94 249.409 506.82
249.409 -2298.04 152.014
506.82 152.014 -571.629

-7307.82 -534.891 183.165
-534.891 928.652 238.42
183.165 238.42 643.873

-10829 -100.702 101.308
-100.702 -4656.65 66.5996
101.308 66.5996 -4858.51

-13803.4 -34.668 -56.6353
-34.668 -7063.62 -199.915
-56.6353 -199.915 -7756.14

-9859.44 -366.569 1878.57
-366.569 -7527.28 -22.8403
1878.57 -22.8403 -5441.56

-11122.9 55.6296 1856.47
55.6296 -9302.6 299.282
1856.47 299.282 -6175.89

-8464.76 120.534 61.5571
120.534 -918.218 -186.878
61.5571 -186.878 -2271.24

-8522.99 -330.65 -120.193
-330.65 -1630.12 -76.0994
-120.193 -76.0994 66.1952

-8700.1 -90.3125 -584.6
-90.3125 -700.581 226.732
-584.6 226.732 -839.98

-12274.3 -1511.38 -435.099
-1511.38 -8705.07 467.494
-435.099 467.494 -10695.7

-8408.42 2350.88 -1008.23
2350.88 -3047.62 -203.147
-1008.23 -203.147 -4445.47

-11680.2 -1842.85 513.114
-1842.85 -6955.71 -348.509
513.114 -348.509 -9458.53

-7884.08 -451.08 365.378
-451.08 1094.28 -128.606
365.378 -128.606 656.589

-8878.63 -880.016 173.654
-880.016 -722.033 -160.025
173.654 -160.025 -3279.47

-7661.18 413.025 -311.47
413.025 996.069 278.523
-311.47 278.523 387.505

-8424.83 -2147.34 882.135
-2147.34 -4150.89 -589.642
882.135 -589.642 -6094.19

-7680.07 591.128 -792.276
591.128 2517.79 -29.8232
-792.276 -29.8232 1494.5

-7587.25 18.1736 -421.877
18.1736 2109.96 50.0047
-421.877 50.0047 411.21

-8197.16 -618.891 188.346
-618.891 -75.3548 -629.699
188.346 -629.699 523.754

-9793.21 -56.7298 123.914
-56.7298 -2882.23 -127.717
123.914 -127.717 -2737.26

-11061.8 -1494.68 -1488.94
-1494.68 -6808.89 1483.81
-1488.94 1483.81 -7515.43

-8491.61 -392.215 -409.631
-392.215 894.262 -54.2796
-409.631 -54.2796 693.949

-10298 -50.76 2032.68
-50.76 -8368.96 231.608
2032.68 231.608 -4850.83

-7553.39 -598.509 -295.238
-598.509 900.422 -200.318
-295.238 -200.318 279.459

-9715.62 -2123.96 636.393
-2123.96 -4828.86 -485.232
636.393 -485.232 -7690.72

-7427.12 -486.014 -39.3838
-486.014 881.422 -111.818
-39.3838 -111.818 679.66

-9422.86 -236.21 202.002
-236.21 -2191.25 293.136
202.002 293.136 -2210.55

-9458.34 -256.532 170.67
-256.532 -1093.98 -43.1777
170.67 -43.1777 -928.964

-8685.87 -34.6876 67.6329
-34.6876 680.396 14.7421
67.6329 14.7421 1686.95

-7996.43 275.954 52.4289
275.954 -54.8299 -663.073
52.4289 -663.073 434.279

-9289.04 -27.9739 -72.3129
-27.9739 -1455.92 140.409
-72.3129 140.409 -2296.12

-8137.24 442.013 -1059.85
442.013 -556.492 716.413
-1059.85 716.413 -110.468

-9934.2 -391.314 302.821
-391.314 -1191.17 -43.6636
302.821 -43.6636 -1049.35

-9078.3 -438.277 541.943
-438.277 -929.941 361.972
541.943 361.972 -1983.98

-6868.08 -577.122 -110.26
-577.122 725.948 844.617
-110.26 844.617 -237.602

-15083.5 -321.61 210.446
-321.61 -11285.2 23.2583
210.446 23.2583 -11055.2

-7435 -771.383 1009.8
-771.383 220.784 -518.133
1009.8 -518.133 1953.82

-14493.8 -112.894 -1.25026
-112.894 -9960.89 211.484
-1.25026 211.484 -9726.7

-8958.35 477.798 132.542
477.798 -2287.68 531.634
132.542 531.634 -885.344

-6698.42 33.0543 872.793
33.0543 3076.13 -674.428
872.793 -674.428 2405.57

-11236.1 83.2281 -2003.76
83.2281 -9593.58 -496.801
-2003.76 -496.801 -5802.86

-8910.42 -31.3383 195.368
-31.3383 -3180.8 -210.199
195.368 -210.199 -1157.63

-9520.01 27.7084 857.643
27.7084 -2370.16 346.491
857.643 346.491 260.982

-7454.66 651.421 682.476
651.421 3388.14 -656.65
682.476 -656.65 1926.69

-9373.76 -343.088 -867.409
-343.088 -3459.52 -408.648
-867.409 -408.648 -2124.58

-7945.48 1259.58 -1465.64
1259.58 -2157.51 -939.888
-1465.64 -939.888 -873.964

-12011 1471.8 -1122.19
1471.8 -7872.49 -1624.28
-1122.19 -1624.28 -8998.86

-9827.69 1906.42 -1609.11
1906.42 -5345.46 -1202.43
-1609.11 -1202.43 -5734.01

-8649.66 -237.075 218.886
-237.075 -182.314 -356.068
218.886 -356.068 641.896

-8698.95 343.567 348.527
343.567 -1173.09 -20.4158
348.527 -20.4158 -729.39

-7845.73 575.013 354.336
575.013 -544.776 -525.728
354.336 -525.728 -1134.86

-9330.9 160.193 267.348
160.193 -795.321 -184.091
267.348 -184.091 -397.332

-8594.1 295.774 -496.174
295.774 -582.927 -71.1594
-496.174 -71.1594 -980.889

-6660.24 263.661 66.2904
263.661 3587.15 144.497
66.2904 144.497 1613.49

-8892.04 389.117 627.617
389.117 -387.628 -348.886
627.617 -348.886 -1736.78

-12947.3 417.896 373.602
417.896 -8596.36 -2.73821
373.602 -2.73821 -8589.73

-7862.7 109.408 136.78
109.408 1004.82 -369.941
136.78 -369.941 1777.15

-7448.11 -961.939 -872.575
-961.939 2562.93 213.073
-872.575 213.073 1912.32

-7619.51 -874.833 845.609
-874.833 2291.85 -178.025
845.609 -178.025 1549.04

-8145.62 -283.481 554.75
-283.481 1217.38 469.193
554.75 469.193 1364.02

-7508.95 235.144 -233.791
235.144 5990.59 -177.352
-233.791 -177.352 5017.34

-7173.48 -615.775 816.578
-615.775 3226.56 232.175
816.578 232.175 2524.67

-8082.77 162.329 -405.827
162.329 2123.3 449.549
-405.827 449.549 3156.88

-9471.13 39.026 -42.245
39.026 -551.742 -234.581
-42.245 -234.581 -618.055

-8112.29 -673.224 -669.921
-673.224 -253.006 -597.38
-669.921 -597.38 -93.0435

-7738.17 -333.151 70.5064
-333.151 -224.97 632.167
70.5064 632.167 353.35

-9196.44 -1003.92 284.868
-1003.92 -319.258 -209.672
284.868 -209.672 -2041.95

-9498 171.014 -122.662
171.014 -533.222 479.325
-122.662 479.325 -395.138

-8870.84 116.297 -179.453
116.297 -94.9971 380.981
-179.453 380.981 1556.37

-7944.47 48.3992 -13.4402
48.3992 1889.7 -77.3472
-13.4402 -77.3472 -10.5929

-6529.39 -654.491 -507.445
-654.491 5076.51 571.425
-507.445 571.425 6474.16

-8994.64 125.758 -181.715
125.758 -1674.11 -232.155
-181.715 -232.155 -554.851

-9579.31 -41.7397 -862.666
-41.7397 -2472.82 -572.94
-862.666 -572.94 492.359

-8715.87 839.143 -18.7999
839.143 -849.432 -356.229
-18.7999 -356.229 -3133.22

-9033.57 -515.351 46.3014
-515.351 -742.132 77.9058
46.3014 77.9058 -907.238

-8361.56 -183.512 -27.2223
-183.512 644.289 407.539
-27.2223 407.539 526.018

-8515.98 280.034 -448.316
280.034 -1290.58 -337.796
-448.316 -337.796 -400.396

-9595.86 414.382 -340.392
414.382 -3798.31 -51.5277
-340.392 -51.5277 -2527.66

-7035.41 894.985 -1468.17
894.985 -390.437 -1015.45
-1468.17 -1015.45 22.2467

-9656.71 -308.761 -117.033
-308.761 -2347.65 294.841
-117.033 294.841 -2332.66

-9680.87 -1209.09 -377.028
-1209.09 -754.938 -494.63
-377.028 -494.63 -3202.64

-8182.47 -381.791 -370.82
-381.791 2042.56 363.542
-370.82 363.542 3644.1

-11688.6 -1679.76 -674.359
-1679.76 -7215.15 629.028
-674.359 629.028 -9439.21

-9093.58 -804.539 963.178
-804.539 -2903.68 -451.876
963.178 -451.876 -2874.65

-9222.83 -524.443 -841.143
-524.443 -1266.79 -408.695
-841.143 -408.695 -224.58

-7048.82 168.746 2127.27
168.746 -1695.79 181.456
2127.27 181.456 1197.69

-10461.4 -559.714 616.825
-559.714 -5537.43 313.983
616.825 313.983 -5603.14

-9074.22 -302.039 416.778
-302.039 -1018.56 620.923
416.778 620.923 -431.96

-8560.62 300.645 -437.464
300.645 -2364.64 -99.4735
-437.464 -99.4735 -568.728

-8891.22 262.105 -514.719
262.105 -2500.84 -171.035
-514.719 -171.035 -545.211

-9738.16 248.631 -200.21
248.631 -1561.07 -181.256
-200.21 -181.256 -900.997

-10398 -1746.56 1606.55
-1746.56 -5698.92 -1111.73
1606.55 -1111.73 -6796.47

-8687.22 -185.227 -236.818
-185.227 -2369.6 38.2304
-236.818 38.2304 -399.464

-9232.14 289.76 15.9164
289.76 -1007.79 -187.441
15.9164 -187.441 -268.013

-14183.7 -160.14 -59.1826
-160.14 -9255.47 -168.129
-59.1826 -168.129 -9347.71

-9653.58 162.493 -21.4268
162.493 -780.456 -800.021
-21.4268 -800.021 -1002.13

-8247.7 -635.122 1058.67
-635.122 -1191.48 521.708
1058.67 521.708 -1188.11

-10280 -506.911 2265.64
-506.911 -8086.37 -369.063
2265.64 -369.063 -6074.51

-8068.51 323.885 60.5242
323.885 2244.49 86.4491
60.5242 86.4491 2364.5

-9706.51 -72.858 31.3482
-72.858 -1093.54 -911.178
31.3482 -911.178 -842.804

-9691.25 218.25 819.509
218.25 -2314.17 -387.553
819.509 -387.553 331.32

-10181.8 -1798.14 1008.52
-1798.14 -4950.25 -546.978
1008.52 -546.978 -6861.29

-6678.51 -514.516 642.538
-514.516 6341.91 -31.6573
642.538 -31.6573 7432.74

-7536.15 539.311 -87.44
539.311 1232.11 292.342
-87.44 292.342 817.814

-8862.12 -521.84 -536.76
-521.84 -2006.37 -599.036
-536.76 -599.036 -853.137

-7316.42 -1426.97 949.344
-1426.97 -620.054 -241.268
949.344 -241.268 -966.379

-12763.3 -75.186 -118.276
-75.186 -6318.52 -123.194
-118.276 -123.194 -5453.17

-11327.3 1173.96 -849.271
1173.96 -8768.93 -122.981
-849.271 -122.981 -9003.25

-8420.22 58.1544 104.57
58.1544 -285.591 673.995
104.57 673.995 552.439

-7266.25 -541.999 -660.558
-541.999 271.102 -17.7712
-660.558 -17.7712 -155.847

-7987.93 326.297 -414.242
326.297 -1121.09 -247.083
-414.242 -247.083 -897.684

-9562.04 91.9768 -138.888
91.9768 -3222.58 40.1439
-138.888 40.1439 -2469.89

-8718.82 189.25 610.286
189.25 -620.695 -320.634
610.286 -320.634 -1154.59

-8085.84 209.933 594.999
209.933 183.268 190.199
594.999 190.199 -1419.07

-9179.56 496.368 -370.787
496.368 -2311.9 256.999
-370.787 256.999 -1189.14

-6801.08 -89.0634 -557.107
-89.0634 25.1613 966.379
-557.107 966.379 321.48

-12528.4 382.061 -594.656
382.061 -8224.92 42.5815
-594.656 42.5815 -8157.99

-12984.6 104.417 -428.994
104.417 -7966.18 237.081
-428.994 237.081 -8471.95

-7359.43 107.546 -280.675
107.546 1041.3 293.022
-280.675 293.022 8.85124

-14547.6 -215.107 -444.281
-215.107 -10061.3 7.16063
-444.281 7.16063 -10314.2

-9333.08 -206.853 62.8116
-206.853 -655.862 170.894
62.8116 170.894 -1130.15

-8606.31 -728.558 2118.34
-728.558 -6052.68 -506.702
2118.34 -506.702 -5032.67

-8188.56 1059.34 -9.87535
1059.34 -2705.48 -426.29
-9.87535 -426.29 -3517.48

-7093.91 114.922 -15.2747
114.922 2589.1 804.257
-15.2747 804.257 3395.43

-7405.11 76.3162 609.916
76.3162 1260.26 -106.948
609.916 -106.948 -1023.54

-7518.87 98.8619 113.368
98.8619 3684.95 493.99
113.368 493.99 1554.78

-9464.6 -37.6859 -141.256
-37.6859 -229.539 907.245
-141.256 907.245 -349.97

-8608.46 188.367 14.4408
188.367 -1403.47 -135.019
14.4408 -135.019 -570.342

-8111.05 -766.041 -317.608
-766.041 20.7033 421.584
-317.608 421.584 790.359

-8269.36 144.783 252.658
144.783 -53.3063 -457.656
252.658 -457.656 552.954

-16082.7 -222.523 746.187
-222.523 -16149.5 -215.014
746.187 -215.014 -15491.2

-13541.2 387.487 651.616
387.487 -10674.8 411.801
651.616 411.801 -9587.81

-8677.68 -134.383 396.068
-134.383 1949.04 -747.191
396.068 -747.191 3283.61

-10296.8 1774.47 1713.11
1774.47 -6208.3 1158.38
1713.11 1158.38 -6197.27

-8689.35 -357.519 -260.877
-357.519 266.463 -143.839
-260.877 -143.839 424.411

-7429.55 -564.29 470.127
-564.29 -1041.12 298.007
470.127 298.007 1668.33

-8635.91 -158.19 -55.228
-158.19 -28.3853 -25.1568
-55.228 -25.1568 721.121

-9769.06 137.975 222.263
137.975 -3722.97 -224.587
222.263 -224.587 -2495.95

-10727.2 2167.27 612.05
2167.27 -5953.18 313.134
612.05 313.134 -8336.81

-8361.51 -236.318 698.27
-236.318 929.619 283.918
698.27 283.918 468.559

-8298.41 2306.57 1099.05
2306.57 -2673.77 381.481
1099.05 381.481 -3740.88

-9293.35 359.496 164.536
359.496 -2491.05 -409.339
164.536 -409.339 -2175.76

-8029 164.616 997.592
164.616 -2277.07 -72.3475
997.592 -72.3475 -1393.39

-10874.7 2131.85 -564.669
2131.85 -5861.4 -122.872
-564.669 -122.872 -8742.45

-9396.6 152.621 71.1991
152.621 -1657.5 -215.11
71.1991 -215.11 -2128.93

-8835.11 -279.388 -126.041
-279.388 69.2904 80.3918
-126.041 80.3918 946.939

-9616.69 34.7387 110.669
34.7387 -707.93 473.39
110.669 473.39 -467.121

-7276.51 29.9209 453.469
29.9209 5626.41 171.309
453.469 171.309 5048.15

-12208.5 1029.68 -421.176
1029.68 -9975.6 -255.1
-421.176 -255.1 -10663.8

-8411.56 1200.12 35.4218
1200.12 -741.883 171.285
35.4218 171.285 -2400.93

-7494.95 1296.6 -121.447
1296.6 417.968 -503.157
-121.447 -503.157 -1541.73

-6555 912.91 1706.68
912.91 -558.127 676.759
1706.68 676.759 84.0084

-9518.49 -168.089 2583.63
-168.089 -7586.95 -56.1943
2583.63 -56.1943 -4089.32

-11426.7 1070.81 813.643
1070.81 -8119.13 192.212
813.643 192.212 -8177.2

-8319.71 1051.2 1487.99
1051.2 -2400.53 699.748
1487.99 699.748 -1023.66

-11809.8 1453.89 1303.69
1453.89 -7806.36 1621.06
1303.69 1621.06 -8332.29

