# vtk DataFile Version 3.0
vtk output at time 0.6
ASCII
DATASET UNSTRUCTURED_GRID
POINTS 527 float
0 0 0 0 0 0.05 0 0 0.1 
0 0 0.15 0 0 0.2 0 0.05 0 
0 0.05 0.05 0 0.05 0.1 0 0.05 0.15 
0 0.05 0.2 0 0.1 0 0 0.1 0.05 
0 0.1 0.1 0 0.1 0.15 0 0.1 0.2 
0 0.15 0 0 0.15 0.05 0 0.15 0.1 
0 0.15 0.15 0 0.15 0.2 0 0.2 0 
0 0.2 0.05 0 0.2 0.1 0 0.2 0.15 
0 0.2 0.2 0.05 0 0 0.05 0 0.05 
0.05 0 0.1 0.05 0 0.15 0.05 0 0.2 
0.05 0.05 0 0.05 0.05 0.2 0.05 0.1 0 
0.05 0.1 0.2 0.05 0.15 0 0.05 0.15 0.2 
0.05 0.2 0 0.05 0.2 0.05 0.05 0.2 0.1 
0.05 0.2 0.15 0.05 0.2 0.2 0.1 0 0 
0.1 0 0.05 0.1 0 0.1 0.1 0 0.15 
0.1 0 0.2 0.1 0.05 0 0.1 0.05 0.2 
0.1 0.1 0 0.1 0.1 0.2 0.1 0.15 0 
0.1 0.15 0.2 0.1 0.2 0 0.1 0.2 0.05 
0.1 0.2 0.1 0.1 0.2 0.15 0.1 0.2 0.2 
0.15 0 0 0.15 0 0.05 0.15 0 0.1 
0.15 0 0.15 0.15 0 0.2 0.15 0.05 0 
0.15 0.05 0.2 0.15 0.1 0 0.15 0.1 0.2 
0.15 0.15 0 0.15 0.15 0.2 0.15 0.2 0 
0.15 0.2 0.05 0.15 0.2 0.1 0.15 0.2 0.15 
0.15 0.2 0.2 0.2 0 0 0.2 0 0.05 
0.2 0 0.1 0.2 0 0.15 0.2 0 0.2 
0.2 0.05 0 0.2 0.05 0.05 0.2 0.05 0.1 
0.2 0.05 0.15 0.2 0.05 0.2 0.2 0.1 0 
0.2 0.1 0.05 0.2 0.1 0.1 0.2 0.1 0.15 
0.2 0.1 0.2 0.2 0.15 0 0.2 0.15 0.05 
0.2 0.15 0.1 0.2 0.15 0.15 0.2 0.15 0.2 
0.2 0.2 0 0.2 0.2 0.05 0.2 0.2 0.1 
0.2 0.2 0.15 0.2 0.2 0.2 0 0.025 0 
0.025 0 0 0.025 0 0.025 0 0 0.025 
0 0.025 0.025 0.025 0 0.05 0 0.025 0.05 
0 0.025 0.075 0 0 0.075 0 0.025 0.1 
0.025 0 0.075 0.025 0 0.1 0.025 0 0.125 
0 0 0.125 0.025 0 0.15 0 0.025 0.175 
0 0.025 0.15 0 0 0.175 0 0.025 0.125 
0.025 0 0.175 0 0.025 0.2 0.025 0 0.2 
0.025 0.025 0.025 0 0.05 0.025 0.025 0.025 0 
0.025 0.05 0 0.025 0.075 0 0 0.075 0.025 
0 0.075 0 0.025 0.025 0.05 0 0.05 0.075 
0 0.075 0.05 0.05 0.075 0.025 0.025 0.075 0.025 
0.05 0.05 0.025 0.025 0.05 0.025 0.05 0.025 0.075 
0.05 0.025 0.05 0 0.075 0.075 0.05 0.075 0.05 
0.05 0.025 0.1 0.025 0.025 0.075 0.025 0.025 0.125 
0.05 0.025 0.125 0.025 0.025 0.1 0 0.05 0.125 
0 0.075 0.125 0 0.075 0.1 0 0.05 0.175 
0.025 0.025 0.15 0.025 0.075 0.175 0.025 0.05 0.175 
0.05 0.075 0.175 0 0.075 0.15 0.05 0.05 0.175 
0.05 0.025 0.15 0.025 0.025 0.175 0.025 0.075 0.2 
0.025 0.05 0.2 0.025 0.025 0.2 0 0.075 0.175 
0 0.075 0.2 0 0.125 0 0.025 0.1 0 
0 0.1 0.025 0.05 0.1 0.025 0 0.125 0.025 
0 0.125 0.05 0.025 0.125 0.025 0.025 0.1 0.025 
0 0.1 0.075 0.05 0.125 0.025 0 0.125 0.075 
0 0.1 0.125 0.05 0.15 0.125 0.05 0.125 0.15 
0.05 0.1 0.15 0.05 0.15 0.1 0.05 0.125 0.05 
0.05 0.1 0.05 0 0.125 0.1 0.05 0.05 0.1 
0.05 0.05 0.125 0.1 0.1 0.1 0.05 0.15 0.15 
0.05 0.125 0.175 0 0.125 0.175 0 0.125 0.15 
0.025 0.125 0.175 0.025 0.1 0.175 0 0.1 0.175 
0 0.125 0.125 0.05 0.1 0.175 0.05 0.05 0.15 
0.025 0.1 0.2 0 0.125 0.2 0 0.15 0.025 
0.025 0.15 0 0.025 0.175 0 0.025 0.175 0.025 
0.025 0.125 0 0 0.175 0.025 0 0.175 0 
0.025 0.15 0.025 0.025 0.175 0.05 0.05 0.15 0.025 
0.05 0.175 0.05 0 0.175 0.05 0 0.15 0.075 
0.05 0.175 0.075 0.025 0.175 0.075 0.05 0.175 0.1 
0.025 0.175 0.1 0 0.175 0.1 0.025 0.175 0.125 
0 0.175 0.075 0.05 0.175 0.125 0 0.15 0.125 
0 0.175 0.125 0.05 0.15 0.05 0 0.15 0.175 
0.025 0.15 0.175 0.025 0.175 0.15 0.05 0.15 0.175 
0 0.175 0.15 0.05 0.175 0.15 0.025 0.175 0.175 
0.025 0.15 0.2 0.025 0.175 0.2 0 0.175 0.175 
0.025 0.125 0.2 0 0.175 0.2 0.025 0.2 0 
0.025 0.2 0.025 0 0.2 0.025 0.025 0.2 0.05 
0 0.2 0.075 0.025 0.2 0.1 0.025 0.2 0.125 
0.025 0.2 0.075 0 0.2 0.125 0.025 0.2 0.15 
0 0.2 0.175 0.025 0.2 0.175 0.025 0.2 0.2 
0.05 0 0.025 0.075 0 0 0.075 0.025 0 
0.05 0.025 0 0.075 0 0.025 0.075 0.025 0.025 
0.05 0.025 0.025 0.075 0 0.075 0.075 0 0.05 
0.05 0 0.075 0.075 0 0.1 0.05 0 0.125 
0.075 0.025 0.175 0.075 0 0.175 0.075 0 0.15 
0.075 0 0.125 0.05 0.025 0.175 0.05 0 0.175 
0.075 0.025 0.2 0.075 0 0.2 0.05 0.025 0.2 
0.075 0.05 0 0.05 0.075 0 0.05 0.075 0.2 
0.075 0.05 0.2 0.075 0.075 0 0.075 0.1 0 
0.05 0.125 0 0.075 0.125 0 0.05 0.125 0.2 
0.075 0.1 0.2 0.075 0.075 0.2 0.075 0.125 0.2 
0.05 0.175 0 0.05 0.175 0.025 0.075 0.15 0 
0.05 0.175 0.175 0.05 0.175 0.2 0.075 0.15 0.2 
0.05 0.2 0.025 0.075 0.2 0 0.075 0.175 0 
0.075 0.2 0.075 0.05 0.2 0.075 0.075 0.2 0.025 
0.075 0.175 0.025 0.075 0.2 0.05 0.075 0.2 0.1 
0.05 0.2 0.125 0.05 0.2 0.175 0.075 0.175 0.175 
0.075 0.2 0.15 0.075 0.2 0.175 0.075 0.2 0.125 
0.075 0.2 0.2 0.075 0.175 0.2 0.1 0.025 0 
0.1 0 0.025 0.125 0 0 0.125 0 0.025 
0.1 0.025 0.025 0.125 0 0.05 0.1 0 0.075 
0.125 0.05 0.025 0.1 0.05 0.025 0.1 0.05 0.15 
0.15 0.05 0.125 0.15 0.05 0.1 0.125 0.05 0.05 
0.1 0.05 0.05 0.1 0 0.125 0.125 0 0.075 
0.125 0 0.125 0.125 0.05 0.15 0.125 0 0.1 
0.1 0.025 0.175 0.1 0 0.175 0.1 0.05 0.175 
0.125 0 0.15 0.125 0.05 0.175 0.1 0.025 0.2 
0.125 0 0.2 0.125 0 0.175 0.1 0.075 0 
0.125 0.025 0 0.125 0.025 0.025 0.125 0.05 0 
0.125 0.075 0 0.125 0.025 0.2 0.125 0.025 0.175 
0.1 0.075 0.2 0.125 0.075 0.2 0.125 0.05 0.2 
0.15 0.1 0.05 0.125 0.1 0 0.1 0.125 0 
0.15 0.125 0.05 0.125 0.15 0.05 0.1 0.15 0.05 
0.15 0.1 0.175 0.15 0.1 0.15 0.15 0.125 0.15 
0.1 0.15 0.175 0.1 0.15 0.15 0.125 0.15 0.175 
0.125 0.15 0.15 0.15 0.125 0.175 0.125 0.1 0.2 
0.1 0.125 0.2 0.1 0.175 0 0.1 0.175 0.025 
0.125 0.175 0.025 0.125 0.175 0 0.125 0.15 0 
0.15 0.15 0.05 0.125 0.175 0.05 0.1 0.175 0.05 
0.125 0.125 0 0.1 0.175 0.175 0.1 0.175 0.2 
0.125 0.175 0.175 0.125 0.175 0.2 0.15 0.15 0.175 
0.125 0.15 0.2 0.125 0.125 0.2 0.1 0.2 0.025 
0.125 0.2 0.025 0.125 0.2 0 0.1 0.2 0.075 
0.125 0.2 0.05 0.1 0.2 0.125 0.15 0.175 0.1 
0.125 0.2 0.1 0.15 0.15 0.1 0.125 0.2 0.125 
0.125 0.2 0.075 0.1 0.2 0.175 0.125 0.2 0.15 
0.125 0.2 0.175 0.125 0.2 0.2 0.15 0 0.025 
0.15 0.025 0 0.175 0 0 0.175 0.025 0 
0.15 0.025 0.025 0.175 0.05 0.05 0.175 0.025 0.075 
0.175 0.05 0.075 0.15 0.05 0.025 0.175 0 0.025 
0.175 0.025 0.025 0.15 0 0.075 0.175 0 0.05 
0.175 0.025 0.05 0.175 0 0.075 0.175 0.025 0.1 
0.15 0 0.125 0.175 0.05 0.125 0.175 0.05 0.1 
0.15 0.05 0.05 0.175 0 0.1 0.175 0.025 0.125 
0.175 0.05 0.15 0.15 0 0.175 0.175 0 0.15 
0.175 0.025 0.15 0.15 0.025 0.175 0.175 0.025 0.175 
0.175 0 0.175 0.15 0.05 0.175 0.175 0 0.125 
0.15 0.025 0.2 0.175 0.025 0.2 0.175 0 0.2 
0.15 0.075 0 0.175 0.05 0 0.175 0.075 0.025 
0.175 0.05 0.025 0.175 0.05 0.2 0.175 0.075 0.175 
0.175 0.05 0.175 0.15 0.075 0.2 0.175 0.1 0.05 
0.175 0.125 0.05 0.175 0.075 0 0.175 0.1 0.025 
0.175 0.1 0 0.15 0.125 0 0.175 0.125 0.025 
0.175 0.125 0 0.175 0.125 0.2 0.175 0.125 0.175 
0.175 0.1 0.175 0.175 0.075 0.2 0.175 0.1 0.2 
0.15 0.125 0.2 0.15 0.175 0 0.15 0.175 0.025 
0.175 0.15 0.05 0.15 0.175 0.05 0.175 0.15 0 
0.175 0.15 0.025 0.175 0.15 0.2 0.15 0.175 0.2 
0.15 0.175 0.175 0.175 0.15 0.175 0.15 0.2 0.025 
0.175 0.2 0 0.175 0.175 0 0.175 0.2 0.025 
0.175 0.175 0.025 0.175 0.2 0.05 0.175 0.175 0.075 
0.175 0.2 0.075 0.15 0.2 0.075 0.175 0.175 0.05 
0.15 0.2 0.125 0.175 0.175 0.1 0.175 0.2 0.1 
0.175 0.175 0.175 0.175 0.2 0.15 0.175 0.175 0.15 
0.175 0.175 0.125 0.15 0.2 0.175 0.175 0.2 0.175 
0.175 0.2 0.125 0.175 0.175 0.2 0.175 0.2 0.2 
0.2 0.025 0 0.2 0 0.025 0.2 0.025 0.025 
0.2 0.025 0.05 0.2 0.025 0.075 0.2 0 0.075 
0.2 0.025 0.1 0.2 0 0.125 0.2 0.025 0.125 
0.2 0.025 0.15 0.2 0 0.175 0.2 0.025 0.175 
0.2 0.025 0.2 0.2 0.075 0.025 0.2 0.075 0 
0.2 0.05 0.025 0.2 0.075 0.05 0.2 0.05 0.075 
0.2 0.075 0.125 0.2 0.075 0.075 0.2 0.075 0.1 
0.2 0.05 0.125 0.2 0.075 0.15 0.2 0.05 0.175 
0.2 0.075 0.175 0.2 0.075 0.2 0.2 0.1 0.025 
0.2 0.125 0 0.2 0.1 0.075 0.2 0.125 0.025 
0.2 0.125 0.05 0.2 0.125 0.075 0.2 0.1 0.125 
0.2 0.125 0.1 0.2 0.125 0.125 0.2 0.125 0.15 
0.2 0.125 0.175 0.2 0.1 0.175 0.2 0.125 0.2 
0.2 0.175 0 0.2 0.175 0.025 0.2 0.15 0.025 
0.2 0.15 0.075 0.2 0.175 0.05 0.2 0.175 0.125 
0.2 0.15 0.125 0.2 0.175 0.075 0.2 0.175 0.1 
0.2 0.15 0.175 0.2 0.175 0.15 0.2 0.175 0.175 
0.2 0.175 0.2 0.2 0.2 0.025 0.2 0.2 0.075 
0.2 0.2 0.125 0.2 0.2 0.175 

CELLS 236 2596
10 69 93 88 68 452 510 453 449 450 451 
10 28 47 45 44 255 323 256 257 318 319 
10 93 69 88 94 452 453 510 523 454 511 
10 43 49 86 85 308 342 309 310 343 503 
10 5 1 26 6 102 103 120 121 104 127 
10 82 86 81 63 495 493 494 421 422 423 
10 7 11 48 6 136 163 137 128 129 130 
10 37 17 54 38 208 209 285 286 210 290 
10 55 13 12 51 182 171 172 361 183 173 
10 90 86 49 85 505 342 344 504 503 343 
10 37 52 50 36 287 352 288 282 283 284 
10 91 92 65 86 519 433 434 506 507 435 
10 82 65 86 63 436 435 495 421 424 422 
10 25 5 0 26 122 98 99 243 120 100 
10 46 32 6 48 268 131 132 326 269 130 
10 57 46 58 62 327 328 383 384 329 387 
10 26 41 25 46 247 244 243 248 299 245 
10 22 38 39 17 235 291 236 211 210 212 
10 55 49 12 54 345 174 172 373 346 175 
10 26 5 6 30 120 121 127 249 123 133 
10 25 30 26 46 246 249 243 245 264 248 
10 11 15 16 34 164 194 165 166 195 201 
10 82 65 87 86 436 437 496 495 435 508 
10 15 34 36 37 195 276 196 197 277 282 
10 43 85 64 48 310 425 311 312 336 337 
10 1 5 26 0 102 120 103 101 98 100 
10 52 37 50 53 287 288 352 368 289 353 
10 60 80 59 86 404 398 399 405 489 400 
10 48 7 6 43 137 128 130 312 138 134 
10 92 71 96 91 462 463 521 519 464 520 
10 26 7 43 6 139 138 250 127 128 134 
10 6 26 46 42 127 248 132 135 251 303 
10 32 15 10 11 198 160 161 167 164 162 
10 90 71 70 49 465 459 460 344 347 348 
10 28 9 8 3 154 146 147 112 113 114 
10 68 69 50 66 449 354 355 439 440 356 
10 49 90 54 70 344 374 346 348 460 375 
10 28 43 7 44 258 138 140 257 313 141 
10 92 72 71 67 469 466 462 445 446 447 
10 71 56 51 72 381 362 363 466 382 364 
10 50 37 16 53 288 202 203 353 289 204 
10 5 6 30 32 121 133 123 124 131 265 
10 39 19 35 40 224 225 279 292 226 280 
10 12 11 50 48 168 169 176 177 163 338 
10 21 15 37 16 199 197 233 205 194 202 
10 28 4 9 3 117 118 154 112 115 113 
10 80 84 58 85 490 388 389 491 499 390 
10 15 36 20 37 196 230 200 197 282 231 
10 15 20 21 37 200 232 199 197 231 233 
10 19 18 35 13 218 219 225 184 185 186 
10 39 51 35 18 293 281 279 220 221 219 
10 15 34 37 16 195 277 197 194 201 202 
10 19 23 39 18 227 239 224 218 222 220 
10 5 6 32 11 121 131 124 125 129 167 
10 10 5 32 11 126 124 161 162 125 167 
10 19 33 14 13 228 192 193 184 187 188 
10 26 41 46 42 247 299 248 251 300 303 
10 24 19 39 40 229 224 241 242 226 292 
10 51 91 67 65 365 448 366 367 434 438 
10 17 21 37 16 213 233 208 206 205 202 
10 37 22 21 17 237 234 233 208 211 213 
10 49 91 65 86 349 434 350 342 506 435 
10 7 1 26 2 105 103 139 107 106 108 
10 17 55 12 54 214 172 178 209 373 175 
10 19 33 13 35 228 187 184 225 272 186 
10 7 2 26 27 107 108 139 142 109 252 
10 33 9 8 31 155 146 148 266 156 149 
10 55 18 39 17 223 220 294 214 215 212 
10 23 22 39 17 238 236 239 216 211 212 
10 18 23 39 17 222 239 220 215 216 212 
10 26 7 27 43 139 142 252 250 138 253 
10 32 15 11 34 198 164 167 270 195 166 
10 39 19 18 35 224 218 220 279 225 219 
10 23 19 39 24 227 224 239 240 229 241 
10 28 9 31 8 154 156 259 147 146 149 
10 28 4 29 9 117 119 260 154 118 157 
10 51 91 49 71 365 349 351 363 464 347 
10 96 71 90 91 463 465 515 520 464 516 
10 13 55 12 17 182 172 171 189 214 178 
10 92 71 91 67 462 464 519 445 447 448 
10 25 5 26 30 122 120 243 246 123 249 
10 47 61 45 60 331 324 323 332 406 325 
10 33 49 8 13 273 150 148 187 190 151 
10 85 90 64 48 504 426 425 336 339 337 
10 13 9 8 33 158 146 151 187 155 148 
10 78 64 84 83 427 428 484 485 429 497 
10 6 32 11 48 131 167 129 130 269 163 
10 16 37 54 53 202 285 207 204 289 371 
10 47 33 8 31 274 148 152 267 266 149 
10 1 7 26 6 105 139 103 104 128 127 
10 76 80 60 81 479 404 407 480 492 408 
10 90 94 69 95 517 454 455 518 524 456 
10 90 50 70 66 357 358 460 441 356 442 
10 7 2 27 28 107 109 142 140 110 254 
10 29 28 47 45 260 255 261 262 256 323 
10 3 7 8 28 116 143 114 112 140 147 
10 29 28 31 47 260 259 263 261 255 267 
10 47 33 49 8 274 273 333 152 148 150 
10 28 8 31 47 147 149 259 255 152 267 
10 90 70 69 66 460 457 455 441 442 440 
10 71 97 92 96 467 522 462 463 526 521 
10 58 46 64 62 328 330 391 387 329 417 
10 13 9 33 14 158 155 187 188 159 192 
10 39 56 40 51 295 297 292 293 362 298 
10 3 7 28 2 116 140 112 111 107 110 
10 46 57 58 41 327 383 328 299 301 302 
10 90 50 48 70 357 338 339 460 358 340 
10 90 54 70 48 374 375 460 339 341 340 
10 58 43 64 42 314 311 391 304 305 306 
10 28 43 27 7 258 253 254 140 138 142 
10 8 49 47 44 150 333 152 153 320 318 
10 28 8 47 44 147 152 255 257 153 318 
10 43 49 12 44 308 174 179 313 320 180 
10 12 49 13 44 174 190 171 180 320 191 
10 49 8 13 44 150 151 190 320 153 191 
10 12 13 7 44 171 144 145 180 191 141 
10 43 12 7 44 179 145 138 313 180 141 
10 13 8 7 44 151 143 144 191 153 141 
10 7 8 28 44 143 147 140 141 153 257 
10 91 51 49 65 365 351 349 434 367 350 
10 92 87 65 86 509 437 433 507 508 435 
10 63 61 60 82 414 406 409 421 415 410 
10 60 61 77 82 406 416 411 410 415 483 
10 67 51 72 71 366 364 446 447 363 466 
10 91 92 67 65 519 445 448 434 433 438 
10 63 60 81 82 409 408 423 421 410 494 
10 76 60 77 82 407 411 481 482 410 483 
10 60 76 81 82 407 480 408 410 482 494 
10 39 56 51 55 295 362 293 294 379 361 
10 18 35 13 51 219 186 185 221 281 183 
10 55 13 51 18 182 183 361 223 185 221 
10 49 55 12 51 345 172 174 351 361 173 
10 35 33 13 51 272 187 186 281 275 183 
10 33 49 13 51 273 190 187 275 351 183 
10 49 12 13 51 174 171 190 351 173 183 
10 55 13 18 17 182 185 223 214 189 215 
10 71 56 55 51 381 379 380 363 362 361 
10 51 40 39 35 298 292 293 281 280 279 
10 37 36 50 34 282 284 288 277 276 278 
10 47 60 44 65 332 321 318 334 412 322 
10 49 47 44 65 333 318 320 350 334 322 
10 47 61 60 63 331 406 332 335 414 409 
10 43 44 60 65 313 321 315 316 322 412 
10 43 49 44 65 308 320 313 316 350 322 
10 39 51 18 55 293 221 220 294 361 223 
10 54 39 38 17 296 291 290 209 212 210 
10 90 70 95 69 460 461 518 455 457 456 
10 49 12 54 85 174 175 346 343 181 376 
10 71 49 54 70 347 346 377 459 348 375 
10 51 91 71 67 365 464 363 366 448 447 
10 49 55 51 71 345 361 351 347 380 363 
10 6 43 26 42 134 250 127 135 305 251 
10 73 58 78 57 392 393 471 385 383 386 
10 37 22 17 38 237 211 208 286 235 210 
10 43 49 65 86 308 350 316 309 342 435 
10 59 43 60 86 317 315 399 400 309 405 
10 60 43 65 86 315 316 412 405 309 435 
10 63 60 65 86 409 412 424 422 405 435 
10 60 63 81 86 409 423 408 405 422 493 
10 37 17 16 54 208 206 202 285 209 207 
10 71 95 90 70 468 518 465 459 461 460 
10 49 55 71 54 345 380 347 346 373 377 
10 95 71 90 96 468 465 518 525 463 515 
10 88 69 66 89 453 440 443 512 458 444 
10 90 49 54 85 344 346 374 504 343 376 
10 78 64 62 84 427 417 418 484 428 419 
10 90 66 89 64 441 444 513 426 430 431 
10 54 90 85 48 374 504 376 341 339 336 
10 69 68 88 66 449 451 453 440 439 443 
10 9 29 28 31 157 260 154 156 263 259 
10 54 12 50 48 175 176 359 341 177 338 
10 88 69 89 94 453 458 512 511 454 514 
10 78 58 62 57 393 387 418 386 383 384 
10 69 54 50 70 378 359 354 457 375 358 
10 90 86 91 49 505 506 516 344 342 349 
10 12 54 85 48 175 376 181 177 341 336 
10 89 66 88 64 444 443 512 431 430 432 
10 88 84 89 64 500 501 512 432 428 431 
10 69 70 50 66 457 358 354 440 442 356 
10 49 43 12 85 308 179 174 343 310 181 
10 92 72 97 71 469 470 522 462 466 467 
10 90 94 89 69 517 514 513 455 454 458 
10 69 54 53 50 378 371 372 354 359 353 
10 68 69 52 50 449 369 370 355 354 352 
10 48 7 43 12 137 138 312 177 145 179 
10 69 90 66 89 455 441 440 458 513 444 
10 59 43 86 85 317 309 400 401 310 503 
10 60 80 86 81 404 489 405 408 492 493 
10 69 53 52 50 372 368 369 354 353 352 
10 90 71 49 91 465 347 344 516 464 349 
10 50 37 34 16 288 277 278 203 202 201 
10 54 16 53 50 207 204 371 359 203 353 
10 46 32 30 6 268 265 264 132 131 133 
10 32 34 11 50 270 166 167 271 278 169 
10 12 17 54 50 178 209 175 176 217 359 
10 17 16 54 50 206 207 209 217 203 359 
10 11 17 12 50 170 178 168 169 217 176 
10 11 16 17 50 165 206 170 169 203 217 
10 11 34 16 50 166 201 165 169 278 203 
10 11 7 48 12 136 137 163 168 145 177 
10 64 50 90 66 360 357 426 430 356 441 
10 90 89 84 64 513 501 502 426 431 428 
10 85 59 58 80 401 394 390 491 398 389 
10 60 45 47 44 325 323 332 321 319 318 
10 11 32 50 48 167 271 169 163 269 338 
10 50 64 90 48 360 426 357 338 337 339 
10 43 12 85 48 179 181 310 312 177 336 
10 59 43 85 64 317 310 401 402 311 425 
10 30 6 26 46 133 127 249 264 132 248 
10 46 41 58 42 299 302 328 303 300 304 
10 90 84 85 64 502 499 504 426 428 425 
10 84 62 78 79 419 418 484 487 420 486 
10 70 54 50 48 375 359 358 340 341 338 
10 78 74 79 58 473 474 486 393 395 396 
10 58 46 42 64 328 303 304 391 330 306 
10 54 39 17 55 296 212 209 373 294 214 
10 43 6 48 42 134 130 312 305 135 307 
10 84 64 62 58 428 417 419 388 391 387 
10 58 80 75 74 389 477 397 395 475 476 
10 47 60 65 63 332 412 334 335 409 424 
10 58 80 74 79 389 475 395 396 488 474 
10 85 59 64 58 401 402 425 390 394 391 
10 84 85 64 58 499 425 428 388 390 391 
10 60 75 80 76 413 477 404 407 478 479 
10 48 6 46 42 130 132 326 307 135 303 
10 58 43 59 64 314 317 394 391 311 402 
10 64 43 48 42 311 312 337 306 305 307 
10 64 48 46 42 337 326 330 306 307 303 
10 86 59 85 80 400 401 503 489 398 491 
10 59 58 80 75 394 389 398 403 397 477 
10 60 75 59 80 413 403 399 404 477 398 
10 62 84 58 79 419 388 387 420 487 396 
10 88 84 64 83 500 428 432 498 497 429 
10 80 84 79 58 490 487 488 389 388 396 
10 78 58 79 62 393 396 486 418 387 420 
10 78 74 58 73 473 395 393 471 472 392 

CELL_TYPES 236
24
24
24
24
24
24
24
24
24
24
24
24
24
24
24
24
24
24
24
24
24
24
24
24
24
24
24
24
24
24
24
24
24
24
24
24
24
24
24
24
24
24
24
24
24
24
24
24
24
24
24
24
24
24
24
24
24
24
24
24
24
24
24
24
24
24
24
24
24
24
24
24
24
24
24
24
24
24
24
24
24
24
24
24
24
24
24
24
24
24
24
24
24
24
24
24
24
24
24
24
24
24
24
24
24
24
24
24
24
24
24
24
24
24
24
24
24
24
24
24
24
24
24
24
24
24
24
24
24
24
24
24
24
24
24
24
24
24
24
24
24
24
24
24
24
24
24
24
24
24
24
24
24
24
24
24
24
24
24
24
24
24
24
24
24
24
24
24
24
24
24
24
24
24
24
24
24
24
24
24
24
24
24
24
24
24
24
24
24
24
24
24
24
24
24
24
24
24
24
24
24
24
24
24
24
24
24
24
24
24
24
24
24
24
24
24
24
24
24
24
24
24
24
24
24
24
24
24
24
24
24
24
24
24
24
24

POINT_DATA 527
VECTORS displacement float
0 0 0
0 0 0
0 0 0
0 0 0
0 0 0
0 0 0
0 0 0
0 0 0
0 0 0
0 0 0
0 0 0
0 0 0
0 0 0
0 0 0
0 0 0
0 0 0
0 0 0
0 0 0
0 0 0
0 0 0
0 0 0
0 0 0
0 0 0
0 0 0
0 0 0
-0.00949867 -0.00643771 -0.00638221
-0.00701176 -0.00607195 -0.00318905
-0.00618424 -0.00640692 -4.16266e-05
-0.00679657 -0.00642792 0.00318413
-0.00970902 -0.00662873 0.00648851
-0.00703292 -0.00293189 -0.00642694
-0.00686127 -0.00312853 0.0064499
-0.00626458 0.000234395 -0.00630834
-0.00663216 -0.000138491 0.00629516
-0.00590192 0.00369688 -0.00622782
-0.00606472 0.00331456 0.00655028
-0.00958919 0.00689319 -0.00607996
-0.00699807 0.00620657 -0.0029892
-0.00599479 0.00630725 0.000203556
-0.00664859 0.00636216 0.00343259
-0.00964137 0.00664042 0.00654969
-0.0150353 -0.00787895 -0.00834866
-0.0144678 -0.00893387 -0.00477535
-0.0144023 -0.00887119 -0.000201934
-0.0155689 -0.00930186 0.00432626
-0.0151776 -0.00834446 0.00836466
-0.0152136 -0.00457321 -0.00896404
-0.0151228 -0.00472085 0.00931289
-0.0145972 8.68186e-05 -0.00912835
-0.014203 -1.82972e-05 0.00934569
-0.0150416 0.00506437 -0.00956282
-0.0146703 0.00445504 0.00973444
-0.014918 0.00885812 -0.00811192
-0.0148084 0.00950084 -0.00424561
-0.0138955 0.00900298 0.000303648
-0.015435 0.00892692 0.00479002
-0.0148451 0.00810101 0.00886055
-0.0201948 -0.00724534 -0.00675519
-0.0227801 -0.00702047 -0.00325787
-0.0240052 -0.00670177 0.000128076
-0.0231347 -0.00673791 0.0030012
-0.0204249 -0.00762105 0.0063212
-0.0231648 -0.00323095 -0.00754846
-0.0231432 -0.00374511 0.00755198
-0.0243684 0.000206323 -0.00709613
-0.0237048 -0.000353977 0.00716504
-0.0239616 0.00349752 -0.00684489
-0.023258 0.00281332 0.00710338
-0.0203285 0.00676862 -0.00631524
-0.0223547 0.00679471 -0.00283036
-0.0232203 0.00674497 0.000277846
-0.0227518 0.00680687 0.00317582
-0.0202636 0.0064723 0.00664509
-0.03 0 0
-0.03 0 0
-0.03 0 0
-0.03 0 0
-0.03 0 0
-0.03 0 0
-0.03 0 0
-0.03 0 0
-0.03 0 0
-0.03 0 0
-0.03 0 0
-0.03 0 0
-0.03 0 0
-0.03 0 0
-0.03 0 0
-0.03 0 0
-0.03 0 0
-0.03 0 0
-0.03 0 0
-0.03 0 0
-0.03 0 0
-0.03 0 0
-0.03 0 0
-0.03 0 0
-0.03 0 0
0 0 0
-0.00533545 -0.00376368 -0.00566754
-0.00265282 -0.00498606 -0.00326957
0 0 0
0 0 0
-0.00228554 -0.00500889 -0.00200392
0 0 0
0 0 0
0 0 0
0 0 0
-0.0024217 -0.00521314 -0.000958345
-0.00221056 -0.00476911 9.88091e-05
-0.00231772 -0.00502222 0.00115793
0 0 0
-0.00222351 -0.00487643 0.00206915
0 0 0
0 0 0
0 0 0
0 0 0
-0.00260475 -0.00501158 0.00325104
0 0 0
-0.00545952 -0.00382477 0.00571108
-0.00214526 -0.00336065 -0.00298782
0 0 0
-0.00416256 -0.00262767 -0.0048325
-0.00317127 -0.0017478 -0.0042447
-0.00212303 -0.000109494 -0.00494786
0 0 0
0 0 0
-0.00212372 -0.00326667 -0.00178773
0 0 0
0 0 0
-0.00470496 -0.00141224 -0.00521602
-0.00169692 -0.000402057 -0.00340655
-0.00605481 -0.00303946 -0.00476768
-0.00253863 -0.00180264 -0.00312578
-0.00534519 -0.00477756 -0.00158439
-0.0060633 -0.00445712 -0.00318961
0 0 0
-0.00405088 -0.00150612 -0.00381259
-0.00535054 -0.00483161 -0.000150634
-0.00185051 -0.00347192 -0.000821259
-0.00170378 -0.00328312 0.00106351
-0.00436375 -0.00543404 0.00173847
-0.00182148 -0.00348394 0.000106568
0 0 0
0 0 0
0 0 0
0 0 0
-0.00192041 -0.0032248 0.00198366
-0.0018619 -0.000712444 0.00347582
-0.00232374 -0.00191709 0.00316285
-0.00522117 -0.00165923 0.00496861
0 0 0
-0.00582075 -0.00322587 0.00475916
-0.00485846 -0.00511466 0.00335927
-0.00209867 -0.00339239 0.00308427
-0.00222387 -0.000379994 0.00510056
-0.0030007 -0.00186145 0.0043202
-0.00415003 -0.0026826 0.00490479
0 0 0
0 0 0
0 0 0
-0.00212316 0.000623006 -0.00498231
0 0 0
-0.00404287 0.000299271 -0.00545107
0 0 0
0 0 0
-0.00147826 0.0012702 -0.00318299
-0.00163635 0.000461001 -0.00322418
0 0 0
-0.0041075 0.00188404 -0.00532704
0 0 0
0 0 0
-0.00442953 0.00364251 0.00182906
-0.00469481 0.00177265 0.00365159
-0.00506675 1.99684e-05 0.003984
-0.00473869 0.00379099 6.58508e-05
-0.00415377 0.00194266 -0.00365797
-0.00431797 0.00026599 -0.00385471
0 0 0
-0.00508611 -0.00371948 -0.000100704
-0.00441287 -0.00381556 0.0017417
-0.0148202 9.33059e-05 4.93524e-05
-0.00421882 0.0036243 0.00362221
-0.00490705 0.00168404 0.00506339
0 0 0
0 0 0
-0.00161764 0.00109605 0.00344352
-0.00179569 0.000265967 0.00342883
0 0 0
0 0 0
-0.00519254 -6.32727e-05 0.00506428
-0.00430971 -0.00366395 0.00355473
-0.00228035 0.000390811 0.00527845
0 0 0
0 0 0
-0.00216654 0.00216256 -0.00413781
-0.00384003 0.0025474 -0.00454925
-0.0020748 0.00310179 -0.00290244
-0.00214166 0.00138666 -0.00460885
0 0 0
0 0 0
-0.00175263 0.00214464 -0.00288391
-0.00212534 0.00321331 -0.00168462
-0.00465443 0.00357401 -0.0048055
-0.00556676 0.0048203 -0.00298319
0 0 0
0 0 0
-0.00506248 0.00489183 -0.0013795
-0.00179194 0.0034041 -0.000747538
-0.00498326 0.0048243 9.49517e-05
-0.00174846 0.00335562 0.000194468
0 0 0
-0.00168116 0.00328121 0.00115111
0 0 0
-0.00430702 0.0053358 0.00188752
0 0 0
0 0 0
-0.00416384 0.00358297 -0.00351198
0 0 0
-0.00180926 0.00197241 0.00320559
-0.00190097 0.00310156 0.00204244
-0.00495218 0.00322394 0.00499294
0 0 0
-0.00458938 0.00516042 0.00347636
-0.00201692 0.00301114 0.00315782
-0.00225443 0.00195641 0.0045357
-0.0039339 0.00238059 0.0048267
0 0 0
-0.00230518 0.00121376 0.0049769
0 0 0
-0.00530835 0.003655 -0.00546536
-0.00259219 0.00484366 -0.00306873
0 0 0
-0.00225951 0.00495733 -0.00192275
0 0 0
-0.00211893 0.00462874 0.000210666
-0.00225394 0.00490769 0.00124409
-0.00238038 0.00507807 -0.000826822
0 0 0
-0.00215428 0.00472386 0.00222188
0 0 0
-0.00248881 0.0046848 0.00329268
-0.00537898 0.00350187 0.00570226
-0.00798762 -0.00634846 -0.00500512
-0.0123509 -0.00733619 -0.00725942
-0.0115398 -0.00582719 -0.00751736
-0.00771348 -0.00467414 -0.00671573
-0.0114745 -0.00730812 -0.00581682
-0.0106188 -0.00573116 -0.0059894
-0.0062859 -0.00454608 -0.00504383
-0.0105299 -0.00744457 -0.00222219
-0.010618 -0.00742594 -0.00417629
-0.00668794 -0.00635262 -0.00170725
-0.0100852 -0.00763413 -9.2981e-05
-0.00662689 -0.00646461 0.00164118
-0.0105714 -0.00607101 0.00611957
-0.0116716 -0.00774575 0.00593727
-0.010978 -0.0079844 0.00395225
-0.0101775 -0.0081971 0.00208003
-0.00621215 -0.00479236 0.00507222
-0.0080757 -0.00654419 0.00507179
-0.0115831 -0.00610446 0.0075981
-0.0125603 -0.0076836 0.00737539
-0.00769735 -0.00486734 0.00680507
-0.0110929 -0.0038942 -0.00775294
-0.00658467 -0.00139996 -0.00646528
-0.00662178 -0.00164242 0.00648068
-0.0109775 -0.00409429 0.00782333
-0.0103124 -0.0020965 -0.00797032
-0.00999146 0.000101078 -0.00801798
-0.0060341 0.00197889 -0.00642656
-0.00996758 0.00223839 -0.00825879
-0.00633444 0.0015989 0.0065727
-0.0102533 -0.00016932 0.00779028
-0.0104442 -0.00222167 0.00784424
-0.0103047 0.00181739 0.0079927
-0.00713962 0.00532416 -0.00655154
-0.0056731 0.0050249 -0.00477725
-0.0103153 0.00467742 -0.00779589
-0.00578031 0.00478398 0.00513091
-0.00731695 0.0049577 0.00694231
-0.0103381 0.00411426 0.00800844
-0.00804297 0.00658853 -0.00470311
-0.0123139 0.00829363 -0.00683875
-0.0111475 0.00678515 -0.00732139
-0.0103318 0.00760521 -0.00179448
-0.00658634 0.00631677 -0.00143681
-0.0113856 0.00812518 -0.00546384
-0.0100028 0.00648785 -0.00580603
-0.010643 0.00792397 -0.0037622
-0.00975883 0.00766306 0.000241796
-0.00641724 0.00632788 0.00185348
-0.00791986 0.00645587 0.00518568
-0.0100864 0.00605238 0.00630647
-0.0107095 0.00790281 0.00432253
-0.0113254 0.00770512 0.00622038
-0.00989494 0.00802455 0.00229943
-0.0123464 0.00761592 0.0075638
-0.0112657 0.0060957 0.00778591
-0.0150385 -0.00650734 -0.0084937
-0.0147064 -0.00824953 -0.00678919
-0.0175468 -0.00741386 -0.00763941
-0.0180946 -0.00749909 -0.00618266
-0.0146274 -0.00677617 -0.00689079
-0.0186933 -0.00766332 -0.00433932
-0.014285 -0.00896974 -0.00257963
-0.0196096 -0.00406209 -0.00633601
-0.0146574 -0.00465772 -0.00684161
-0.0146563 -0.00461524 0.00448229
-0.024954 -0.00344352 0.00183085
-0.0249486 -0.00362936 8.09867e-05
-0.0198919 -0.00400937 -0.00432172
-0.0145336 -0.00461606 -0.0044387
-0.0146367 -0.00942291 0.00199454
-0.0190521 -0.00782436 -0.00225898
-0.0193846 -0.00819559 0.00186205
-0.0202974 -0.00424623 0.00452911
-0.0196399 -0.00778981 -5.49589e-05
-0.0152469 -0.00695321 0.00698624
-0.0152339 -0.00855988 0.00660305
-0.0147936 -0.00454185 0.00705443
-0.0196775 -0.00782223 0.00399147
-0.0200498 -0.00449107 0.00647036
-0.0151669 -0.00689034 0.00874723
-0.0177871 -0.00798988 0.00719337
-0.0186338 -0.00777013 0.00573237
-0.0148961 -0.00231058 -0.00913095
-0.0183018 -0.00596851 -0.00776421
-0.0187871 -0.00586779 -0.00627655
-0.0187808 -0.00415777 -0.00795398
-0.0196718 -0.00221076 -0.0081501
-0.0185946 -0.00648279 0.00756973
-0.019422 -0.00626764 0.00616886
-0.0144996 -0.00237272 0.00941727
-0.0193887 -0.0025262 0.00847256
-0.0187906 -0.00461559 0.00802922
-0.0250844 5.75251e-06 -0.00403265
-0.0199977 -5.46892e-05 -0.00824653
-0.0147542 0.00263362 -0.00929461
-0.024972 0.00174037 -0.00379218
-0.0200138 0.00463982 -0.00391735
-0.0143095 0.00488131 -0.00419936
-0.025406 -0.000470323 0.00576444
-0.0252471 -0.000337397 0.00411271
-0.0257193 0.00146343 0.00411533
-0.0144056 0.00449799 0.00710267
-0.0145862 0.00435252 0.00443089
-0.0197095 0.00440502 0.00643441
-0.0203046 0.00426112 0.00421253
-0.0251983 0.00124528 0.00566879
-0.0194788 -0.000413063 0.00864712
-0.0141933 0.00233916 0.00953754
-0.0148849 0.0073401 -0.00871238
-0.0146861 0.00749674 -0.0067561
-0.0194125 0.00659902 -0.00594221
-0.0186011 0.00676858 -0.00753668
-0.0198544 0.00456253 -0.00787253
-0.0244656 0.00350333 -0.00338157
-0.0197932 0.00658064 -0.00403628
-0.0143896 0.00728129 -0.00445675
-0.0198334 0.0023781 -0.00789094
-0.0150174 0.00656014 0.00731537
-0.0148712 0.0066414 0.00926643
-0.0194038 0.00619762 0.00639608
-0.0184231 0.00604364 0.0078937
-0.0244555 0.0028502 0.00556251
-0.0190415 0.00386189 0.00839878
-0.0192323 0.0016024 0.00868076
-0.014799 0.00914001 -0.00641532
-0.018097 0.00819456 -0.00565862
-0.0174427 0.00835433 -0.00706058
-0.0141206 0.00933183 -0.002047
-0.0189155 0.00829771 -0.00398039
-0.0144532 0.00915998 0.00251386
-0.0239054 0.00524066 0.000189709
-0.0189887 0.00835123 0.000319597
-0.0240944 0.00383001 0.000115737
-0.0192773 0.00804804 0.00253168
-0.0189165 0.00843102 -0.00192628
-0.0150151 0.00839873 0.00700485
-0.019739 0.00758401 0.00455453
-0.0184381 0.00756854 0.00614111
-0.0173924 0.00762961 0.00755287
-0.0217031 -0.00718912 -0.00530258
-0.0221888 -0.00526492 -0.00746539
-0.0242919 -0.00384362 -0.00633911
-0.0258188 -0.00279392 -0.00572089
-0.0232883 -0.00521362 -0.00553682
-0.0280119 -0.00205849 -0.00255805
-0.0280049 -0.00382733 -0.00111752
-0.0281309 -0.00232025 -0.00117231
-0.0239468 -0.00348287 -0.00533604
-0.0272082 -0.00499411 -0.00379657
-0.0276585 -0.00339899 -0.0040053
-0.0234587 -0.00687355 -0.00158105
-0.0276841 -0.00487636 -0.00242107
-0.0278641 -0.00342553 -0.0025741
-0.027555 -0.00538303 -0.00114378
-0.0280884 -0.0039926 -2.99806e-05
-0.0236335 -0.00684942 0.00175652
-0.0284458 -0.00311339 0.00101196
-0.0283058 -0.00280459 3.95825e-05
-0.0244543 -0.00346736 -0.00354585
-0.0276733 -0.00506658 4.24524e-05
-0.0280581 -0.00398996 0.00101632
-0.0281635 -0.00210151 0.00235314
-0.0219405 -0.00723688 0.00493089
-0.0277913 -0.0047982 0.00220923
-0.0279868 -0.00337126 0.00234569
-0.0236419 -0.00545151 0.00542074
-0.0277565 -0.00350346 0.0036989
-0.0273118 -0.00509649 0.0034705
-0.024243 -0.0039014 0.00539893
-0.0275256 -0.00560242 0.00108718
-0.0223981 -0.00575743 0.00727236
-0.0259259 -0.00304583 0.0053837
-0.0244376 -0.00406513 0.00596455
-0.0237541 -0.00142662 -0.00729983
-0.0274169 -0.00206034 -0.00526597
-0.0280126 -0.000971755 -0.00392757
-0.0279274 -0.00223586 -0.00392057
-0.0274243 -0.00235306 0.0049476
-0.0281199 -0.00125483 0.00363522
-0.0280395 -0.00243581 0.0036211
-0.0234687 -0.00197437 0.00738553
-0.028318 0.000125135 -0.00288599
-0.0284619 0.00107519 -0.00331226
-0.0277869 -0.00104915 -0.00544576
-0.0283232 -0.000104909 -0.00408467
-0.0279624 -0.000157461 -0.0055106
-0.024139 0.00201171 -0.00696117
-0.0281957 0.00100036 -0.004322
-0.0279602 0.000652766 -0.00545889
-0.0278648 9.39343e-06 0.00527831
-0.0282893 0.000479553 0.00369539
-0.028194 -0.000281623 0.00356929
-0.0277474 -0.00136272 0.00515666
-0.0278342 -0.000639637 0.00541498
-0.0234191 0.00124885 0.00719868
-0.0226581 0.00514441 -0.00674404
-0.0236662 0.00510003 -0.00510915
-0.0279445 0.00227779 -0.0027555
-0.0240871 0.00520313 -0.00332366
-0.0272508 0.00210782 -0.00494121
-0.0277673 0.00224875 -0.00393818
-0.0270942 0.00145422 0.00487032
-0.0223849 0.00471217 0.00704619
-0.0237928 0.00473783 0.00537561
-0.0278542 0.00158294 0.00372986
-0.0215933 0.00665551 -0.00480882
-0.0244508 0.0040279 -0.00621
-0.0259063 0.00295755 -0.0055437
-0.027051 0.00524221 -0.00372972
-0.027545 0.00357043 -0.00381654
-0.0274597 0.00534964 -0.00227352
-0.0278706 0.00361231 -0.00142384
-0.0274657 0.00532862 -0.000992505
-0.0230199 0.00680392 -0.00130508
-0.0277549 0.00354048 -0.00260765
-0.0232283 0.00680852 0.00170788
-0.0272874 0.00321922 0.000116049
-0.0274494 0.00467582 0.000215572
-0.0278542 0.00301907 0.00352438
-0.0277091 0.00480758 0.00237125
-0.0278562 0.00285389 0.00258938
-0.0280205 0.00269728 0.00159703
-0.0216965 0.00642704 0.00516381
-0.0272904 0.00470006 0.00364883
-0.0277842 0.00454641 0.00135938
-0.0258995 0.00234349 0.00530638
-0.024524 0.00348002 0.00611983
-0.03 0 0
-0.03 0 0
-0.03 0 0
-0.03 0 0
-0.03 0 0
-0.03 0 0
-0.03 0 0
-0.03 0 0
-0.03 0 0
-0.03 0 0
-0.03 0 0
-0.03 0 0
-0.03 0 0
-0.03 0 0
-0.03 0 0
-0.03 0 0
-0.03 0 0
-0.03 0 0
-0.03 0 0
-0.03 0 0
-0.03 0 0
-0.03 0 0
-0.03 0 0
-0.03 0 0
-0.03 0 0
-0.03 0 0
-0.03 0 0
-0.03 0 0
-0.03 0 0
-0.03 0 0
-0.03 0 0
-0.03 0 0
-0.03 0 0
-0.03 0 0
-0.03 0 0
-0.03 0 0
-0.03 0 0
-0.03 0 0
-0.03 0 0
-0.03 0 0
-0.03 0 0
-0.03 0 0
-0.03 0 0
-0.03 0 0
-0.03 0 0
-0.03 0 0
-0.03 0 0
-0.03 0 0
-0.03 0 0
-0.03 0 0
-0.03 0 0
-0.03 0 0
-0.03 0 0
-0.03 0 0
-0.03 0 0
-0.03 0 0

CELL_DATA 236
TENSORS stress float
-8158.18 -229.367 19.6594
-229.367 -1701.87 253.859
19.6594 253.859 142.694

-7655.92 -38.9918 157.4
-38.9918 -1125.23 429.489
157.4 429.489 -589.853

-9554.34 -1725.49 1459.05
-1725.49 -5729.21 -875.439
1459.05 -875.439 -6274.36

-6277.54 95.012 -692.715
95.012 -326.195 369.61
-692.715 369.61 106.544

-8136.24 -1594.19 -1213.46
-1594.19 -3752.85 662.347
-1213.46 662.347 -4739.06

-10300.4 687.092 -1150.69
687.092 -7789.32 -293.216
-1150.69 -293.216 -7182.47

-11804.7 66.5142 -271.304
66.5142 -7956.85 -140.588
-271.304 -140.588 -8173.59

-6744.84 -117.843 108.271
-117.843 -400.82 -61.0956
108.271 -61.0956 -475.808

-8446.04 413.963 482.279
413.963 -2000.29 -20.9779
482.279 -20.9779 -2298.34

-15302.7 -268.384 -268.298
-268.384 -12370.8 -28.2069
-268.298 -28.2069 -12398.2

-6216.26 -311.707 103.05
-311.707 581.118 164.175
103.05 164.175 266.947

-7368.64 -309.113 -1923.71
-309.113 -5306.62 -63.5886
-1923.71 -63.5886 -3692.24

-6120.31 421.774 -1599.07
421.774 -1476.84 -252.026
-1599.07 -252.026 195.269

-8209.08 -275.166 91.4661
-275.166 -1728.1 -60.1957
91.4661 -60.1957 7.44229

-6557.71 263.552 391.072
263.552 954.504 -151.024
391.072 -151.024 -378.782

-6345.78 -369.193 -263.413
-369.193 1801.32 -117.295
-263.413 -117.295 1387.21

-6288.93 117.991 119.175
117.991 344.285 -138.657
119.175 -138.657 214.548

-6959.67 972.201 213.818
972.201 -841.564 204.61
213.818 204.61 -2295.07

-8931.85 343.459 248.569
343.459 -1427.65 161.974
248.569 161.974 -1162.82

-7370.72 -1057.28 -1054.97
-1057.28 -1599.24 208.651
-1054.97 208.651 -2081.5

-6480.67 127.109 342.074
127.109 1409.15 32.4082
342.074 32.4082 783.133

-10399 560.562 -1083.8
560.562 -8626.03 -136.339
-1083.8 -136.339 -7976.77

-9336.48 277.802 -1845.22
277.802 -7306.26 -279.478
-1845.22 -279.478 -5087.79

-7034.94 -7.138 -79.3613
-7.138 -2224.06 -196.02
-79.3613 -196.02 -653.347

-7391.15 -93.2336 95.6832
-93.2336 -259.481 -266.218
95.6832 -266.218 -184.314

-9480.14 -1673.75 -1249.28
-1673.75 -5756.56 876.041
-1249.28 876.041 -6624.91

-6563.03 22.0358 -198.612
22.0358 760.174 333.906
-198.612 333.906 1177.49

-9077.58 529.877 -347.14
529.877 -4614.77 435.869
-347.14 435.869 -4847.48

-7076.38 -136.634 -220.856
-136.634 -888.863 -427.771
-220.856 -427.771 -1213.21

-8259.65 -1531.15 -1559.96
-1531.15 -4465.84 531.586
-1559.96 531.586 -5422.14

-8000.32 -355.176 -291.866
-355.176 -1669.29 -207.861
-291.866 -207.861 -2426.43

-6468.42 -359.343 -323.599
-359.343 888.139 270.276
-323.599 270.276 708.467

-7820.85 412.301 -1856.63
412.301 -5661.56 -140.012
-1856.63 -140.012 -3781.24

-8587.82 -356.957 -211.517
-356.957 -2325.65 -352.401
-211.517 -352.401 -2160.86

-7087.07 -1756.42 1352.25
-1756.42 -3036.51 -656.34
1352.25 -656.34 -3936.27

-6125.98 349.688 -196.36
349.688 2052.61 217.614
-196.36 217.614 1421.26

-8153 -121.511 -178.655
-121.511 -933.831 -64.2525
-178.655 -64.2525 -1031.66

-5913.53 439.505 424.675
439.505 -468.961 -277.925
424.675 -277.925 1160.63

-7179.65 -42.3962 61.6192
-42.3962 -1422.11 -110.883
61.6192 -110.883 -368.711

-6099.08 201.349 28.2278
201.349 418.672 -337.702
28.2278 -337.702 355.14

-6768.4 25.0853 -451.501
25.0853 408.587 -249.131
-451.501 -249.131 397.163

-7585.46 -186.483 -759.976
-186.483 -1653.38 -499.683
-759.976 -499.683 -1576.82

-7207.74 -37.1633 95.3175
-37.1633 -2313.42 82.7342
95.3175 82.7342 -741.708

-6010.83 201.857 -889.158
201.857 210.641 173.402
-889.158 173.402 335.749

-7816.48 1561.65 -1222.14
1561.65 -3328.57 -525.298
-1222.14 -525.298 -4265.46

-9719.8 -1632.21 1221.02
-1632.21 -6066.88 -894.653
1221.02 -894.653 -6965.45

-7740.23 816.923 586.339
816.923 -4411.44 -57.124
586.339 -57.124 -4604.33

-8178.85 282.656 92.9812
282.656 -1614.06 -25.4868
92.9812 -25.4868 -264.397

-9394.96 1591.88 -1191.82
1591.88 -5569.5 -700.299
-1191.82 -700.299 -6615.48

-11327.3 463.965 1031.92
463.965 -9627.49 139.445
1031.92 139.445 -8809.26

-6857.61 358.768 427.886
358.768 -603.623 335.08
427.886 335.08 -512.158

-4885.74 1157.68 -1484.58
1157.68 -260.616 -275.816
-1484.58 -275.816 358.667

-6776.3 1659.27 1434.4
1659.27 -2679.81 547.237
1434.4 547.237 -3425.54

-7026.99 -190.464 -1830.4
-190.464 -5015.03 16.3241
-1830.4 16.3241 -3673.53

-7683.28 100.52 -2011.79
100.52 -5673.15 -158.14
-2011.79 -158.14 -3630.85

-8541.36 288.502 1852.01
288.502 -6377.23 128.513
1852.01 128.513 -4285.38

-6191.18 -245.032 -79.6608
-245.032 645.543 -337.163
-79.6608 -337.163 875.331

-8235.56 273.21 -82.5691
273.21 -1760.04 -53.045
-82.5691 -53.045 -233.478

-7117.43 -227.826 1.51605
-227.826 -328.568 8.21852
1.51605 8.21852 -632.626

-10064.2 1523.07 -408.148
1523.07 -7089.27 -248.987
-408.148 -248.987 -8364.41

-7631.87 2126.53 -460.34
2126.53 -3698.54 -196.353
-460.34 -196.353 -5350.93

-8019.16 -110.477 -250.919
-110.477 -2457.35 1.4066
-250.919 1.4066 -2579.8

-8066.56 -2103.44 -503.184
-2103.44 -4036.97 214.347
-503.184 214.347 -5849.69

-7345.04 651.73 481.468
651.73 -1697.37 263.854
481.468 263.854 -964.874

-6268.86 502.058 1095.22
502.058 -2023.53 62.477
1095.22 62.477 -139.939

-7372 -879.944 -122.474
-879.944 -1167.42 270.788
-122.474 270.788 -2772.22

-7715.74 -416.123 730.304
-416.123 -2297.96 530.658
730.304 530.658 -1751.77

-6894.47 -37.1936 346.166
-37.1936 -1761.25 -216.025
346.166 -216.025 -1072.7

-7537.73 2061.34 674.497
2061.34 -3803.85 268.125
674.497 268.125 -5351.98

-7473.84 1779.06 792.939
1779.06 -4300.38 318.644
792.939 318.644 -5447.33

-7086.87 81.8049 -26.9802
81.8049 -473.681 -55.1383
-26.9802 -55.1383 -710.031

-5791.42 600.173 -1125.99
600.173 -1520.38 -34.9374
-1125.99 -34.9374 78.1192

-5504.51 1052.88 1459.15
1052.88 -775.615 233.569
1459.15 233.569 -143.689

-9539.97 1536.06 1276.21
1536.06 -5919.84 742.693
1276.21 742.693 -6798.05

-7476.72 -998.065 965.489
-998.065 -1910.83 -330.69
965.489 -330.69 -2275.76

-8280.34 -280.453 -128.728
-280.453 -1818.97 102.13
-128.728 102.13 -24.8647

-8580.27 -236.673 -181.539
-236.673 -2946.3 -968.653
-181.539 -968.653 -2136.47

-9224.69 -1306.1 -870.92
-1306.1 -5195.79 314.362
-870.92 314.362 -6420.57

-12622.1 437.716 343.014
437.716 -9280.47 92.5342
343.014 92.5342 -9239.17

-7631.84 -772.48 -1013.19
-772.48 -2117.53 140.76
-1013.19 140.76 -2495.7

-7434.96 -22.93 58.0036
-22.93 -1642.65 81.0902
58.0036 81.0902 -586.234

-6019.18 -309.138 11.6075
-309.138 531.485 187.133
11.6075 187.133 382.848

-9004.67 -163.997 379.704
-163.997 -3835.73 64.3513
379.704 64.3513 -3778.75

-11412.2 -99.5279 172.626
-99.5279 -6108.94 -150.872
172.626 -150.872 -6300.56

-8156.79 -332.728 1712.49
-332.728 -5994.81 2.82142
1712.49 2.82142 -4659.78

-8832.58 133.446 2041.82
133.446 -6847.84 155.524
2041.82 155.524 -4986.22

-6715.67 32.0299 -200.018
32.0299 -1041.12 -178.277
-200.018 -178.277 -1802.49

-7122.5 -83.7233 -155.899
-83.7233 -1352.57 0.0194328
-155.899 0.0194328 -332.9

-7221.01 -156.584 -181.01
-156.584 -820.241 170.797
-181.01 170.797 -761.458

-9979.01 -1532.05 -468.15
-1532.05 -6838.66 258.514
-468.15 258.514 -8132.13

-6650.97 2090.08 -905.951
2090.08 -2687.24 -2.61594
-905.951 -2.61594 -3494.4

-9434.8 -1937.22 542.027
-1937.22 -5485.34 -148.276
542.027 -148.276 -7035.4

-6671.33 -506.325 377.1
-506.325 461.426 -109.828
377.1 -109.828 242.413

-7222.65 -958.46 168.187
-958.46 -922.818 -111.73
168.187 -111.73 -2532.88

-6325.68 166.52 -89.4985
166.52 576.905 201.251
-89.4985 201.251 182.005

-6791.81 -1873.52 793.999
-1873.52 -3379.2 -327.029
793.999 -327.029 -4608.06

-6408.9 194.463 -375.03
194.463 1595.42 -0.945602
-375.03 -0.945602 953.679

-6196.71 -41.956 -134.907
-41.956 1224.44 31.7578
-134.907 31.7578 303.918

-6864.14 -593.415 311.217
-593.415 -170.151 -404.884
311.217 -404.884 215.748

-8169.44 -264.383 167.678
-264.383 -2085.41 -73.1708
167.678 -73.1708 -2119.27

-8885.56 -1637.67 -1527.71
-1637.67 -5225.54 808.932
-1527.71 808.932 -5737.13

-7066.23 -165.956 -169.006
-165.956 563.379 -21.0401
-169.006 -21.0401 556.847

-8145.99 -40.4263 2033.45
-40.4263 -6122.14 149.817
2033.45 149.817 -3904.88

-6227.14 -314.333 -49.6052
-314.333 523.687 -152.728
-49.6052 -152.728 139.527

-7732.52 -2037.29 609.894
-2037.29 -3872.29 -266.557
609.894 -266.557 -5631.24

-6117.54 -280.284 99.1442
-280.284 519.398 -94.7226
99.1442 -94.7226 390.114

-8229.77 -315.429 233.397
-315.429 -1777.23 217.506
233.397 217.506 -1804.57

-8113.01 -305.841 111.928
-305.841 -952.671 9.63828
111.928 9.63828 -936.843

-7394.91 62.225 125.361
62.225 236.656 -31.6514
125.361 -31.6514 766.478

-6554.61 22.4522 53.458
22.4522 -120.911 -470.888
53.458 -470.888 61.8687

-8215.52 -42.5041 18.2583
-42.5041 -1504.63 159.39
18.2583 159.39 -2032.82

-6996.79 234.296 -643.429
234.296 -757.952 500.23
-643.429 500.23 -422.582

-8712.32 -347.23 266.658
-347.23 -888.909 47.2735
266.658 47.2735 -796.23

-7964.31 -361.636 542.492
-361.636 -1360.14 228.853
542.492 228.853 -1969.39

-5979.91 -423.903 39.9737
-423.903 67.7605 599.995
39.9737 599.995 -521.566

-12693.3 -452.745 276.876
-452.745 -9448.08 8.11147
276.876 8.11147 -9329.07

-6575.77 -672.065 702.214
-672.065 -376.617 -396.433
702.214 -396.433 609.398

-11806.3 -381.012 207.865
-381.012 -8328.83 171.389
207.865 171.389 -8224.71

-6921.17 -22.4855 214.428
-22.4855 -1634.96 378.671
214.428 378.671 -948.172

-5925.75 -33.4906 500.061
-33.4906 1644.72 -436.246
500.061 -436.246 1211.83

-8773.07 63.9664 -2081.21
63.9664 -6924 -290.964
-2081.21 -290.964 -4561.66

-7589.7 228.505 -96.7511
228.505 -2347.39 -65.6823
-96.7511 -65.6823 -1140.04

-8118.79 458.981 97.1823
458.981 -1724.72 159.485
97.1823 159.485 83.1008

-6208.45 203.261 319.503
203.261 2135.86 -477.145
319.503 -477.145 1287.47

-7657.3 -364.601 -1014.07
-364.601 -2551.58 -307.008
-1014.07 -307.008 -1802.74

-6497.3 1128.07 -1350.06
1128.07 -1741.11 -483.472
-1350.06 -483.472 -961.971

-9614.89 1716.95 -1358.32
1716.95 -5994.68 -903.219
-1358.32 -903.219 -6656.73

-7820.35 1778.32 -1518.97
1778.32 -4281.7 -640.843
-1518.97 -640.843 -4524.49

-7502.38 -112.478 285.865
-112.478 -530.773 -269.14
285.865 -269.14 -76.2163

-7169.2 344.145 564.752
344.145 -1345.41 -31.0055
564.752 -31.0055 -879.756

-6710.68 480.414 379.312
480.414 -756.654 -416.37
379.312 -416.37 -1136.86

-8172.46 150.312 275.62
150.312 -937.299 -141.284
275.62 -141.284 -540.66

-7081.12 252.327 -162.109
252.327 -601.279 -46.4542
-162.109 -46.4542 -758.017

-5524.11 181.011 99.3527
181.011 2139.34 96.4399
99.3527 96.4399 1035.34

-7443.82 318.427 632.685
318.427 -781.798 -206.946
632.685 -206.946 -1567.05

-10801.4 540.231 428.709
540.231 -7350.35 -39.0607
428.709 -39.0607 -7369.87

-6294.03 17.574 19.7284
17.574 935.271 -270.863
19.7284 -270.863 1310.28

-6251.08 -452.376 -414.268
-452.376 1684.55 116.708
-414.268 116.708 1274.91

-6438.91 -357.783 431.516
-357.783 1449.81 -107.699
431.516 -107.699 971.351

-6812.05 -103.148 283.522
-103.148 667.185 328.283
283.522 328.283 772.269

-6066.67 154.833 -224.359
154.833 4252.54 -96.8152
-224.359 -96.8152 3801.57

-5935.67 -255.612 448.907
-255.612 2130.36 204.314
448.907 204.314 1700.24

-6805.81 282.213 -370.403
282.213 1150.76 374.261
-370.403 374.261 1723.86

-8621.17 118.586 -106.185
118.586 -753.887 -61.3297
-106.185 -61.3297 -718.166

-6918.68 -455.35 -433.238
-455.35 -528.446 -442.626
-433.238 -442.626 -390.351

-6354.43 -62.2164 65.4182
-62.2164 -211.711 442.466
65.4182 442.466 22.3217

-7726.65 -1050.4 251.047
-1050.4 -844.815 -209.248
251.047 -209.248 -2014.19

-8390.84 128.751 -75.2978
128.751 -791.83 247.035
-75.2978 247.035 -728.955

-7707.46 13.7441 -187.224
13.7441 -207.684 243.101
-187.224 243.101 678.333

-6816.09 -265.138 -223.406
-265.138 787.055 -31.5988
-223.406 -31.5988 -380.758

-5329.42 -450.515 -439.201
-450.515 3720.05 280.53
-439.201 280.53 4653.03

-7516.36 -48.109 -195.879
-48.109 -1344.38 -206.653
-195.879 -206.653 -730.321

-8217.94 393.408 -62.7424
393.408 -1782.56 -288.146
-62.7424 -288.146 191.706

-7115.38 900.956 -40.7625
900.956 -990.205 -253.507
-40.7625 -253.507 -2493.8

-7784.88 -469.916 56.3167
-469.916 -998.641 136.878
56.3167 136.878 -1086.56

-7038.35 -18.3976 -64.5606
-18.3976 149.785 340.947
-64.5606 340.947 -87.2845

-7246.64 327.523 -447.138
327.523 -1035.89 -221.909
-447.138 -221.909 -482.313

-8123.42 451.171 -447.669
451.171 -3083.4 -10.8678
-447.669 -10.8678 -2213.59

-6019.15 752.499 -1251.75
752.499 -842.718 -547.508
-1251.75 -547.508 -596.393

-7914.88 132.878 -168.124
132.878 -1930.91 206.047
-168.124 206.047 -2192.55

-7994.97 -1290.71 -360.953
-1290.71 -986.143 -300.67
-360.953 -300.67 -2550.06

-7057.21 -390.2 -332.056
-390.2 1162.48 92.0636
-332.056 92.0636 2218.52

-9417.22 -1696.05 -666.557
-1696.05 -5696.33 338.954
-666.557 338.954 -7153.75

-7467.74 -842.771 1067.38
-842.771 -2388.43 -171.424
1067.38 -171.424 -2438.92

-8150.61 -481.811 -602.738
-481.811 -1587.63 -251.205
-602.738 -251.205 -904.062

-5771.47 185.817 1814.25
185.817 -1364.04 50.0248
1814.25 50.0248 471.467

-8602.84 -565.448 658.648
-565.448 -4263.96 296.815
658.648 296.815 -4397.74

-7880.23 -337.902 303.406
-337.902 -1317.8 392.344
303.406 392.344 -916.241

-7180.26 27.7782 -89.4939
27.7782 -1820.97 -2.88103
-89.4939 -2.88103 -760.596

-7433.69 -11.8438 -82.5266
-11.8438 -1785.44 -100.442
-82.5266 -100.442 -603.232

-8568.91 227.823 -165.102
227.823 -1176.37 -58.2778
-165.102 -58.2778 -754.116

-8299.31 -1728.86 1541.44
-1728.86 -4394.77 -562.519
1541.44 -562.519 -5159.41

-7495.05 125.376 71.6569
125.376 -1864.6 -33.9597
71.6569 -33.9597 -714.032

-7899.31 96.5399 106.723
96.5399 -582.123 -69.0758
106.723 -69.0758 -196.658

-12191.4 -187.008 -331.392
-187.008 -8488.34 -112.372
-331.392 -112.372 -8503.53

-8579.02 110.254 -36.0705
110.254 -977.287 -424.293
-36.0705 -424.293 -1094.93

-6697.39 -623.532 1154.28
-623.532 -1161.94 429.466
1154.28 429.466 -1240.53

-8297.87 -477.63 2129.66
-477.63 -6156.68 -195.642
2129.66 -195.642 -5031.33

-6807.06 24.0277 199.993
24.0277 1052.21 109.083
199.993 109.083 1169.49

-8598.54 -77.8078 37.6346
-77.8078 -1123.29 -491.696
37.6346 -491.696 -987.071

-8261.43 -220.936 70.5141
-220.936 -1677.39 -156.804
70.5141 -156.804 109.355

-8260.52 -1748.25 961.624
-1748.25 -4213.53 -257.988
961.624 -257.988 -5415.38

-5510.5 -389.501 448.725
-389.501 4179.66 -36.8219
448.725 -36.8219 4714.07

-6228.99 283.584 80.2622
283.584 704.244 209.759
80.2622 209.759 455.281

-7764.61 -494.25 -432.421
-494.25 -1868.75 -354.089
-432.421 -354.089 -1143.09

-6384.89 -1143.78 806.961
-1143.78 -1192.36 -32.9328
806.961 -32.9328 -1426.42

-10780.6 105.603 -153.106
105.603 -5453.38 -60.409
-153.106 -60.409 -5180.1

-9439.9 1100.98 -779.205
1100.98 -7046.17 23.848
-779.205 23.848 -7173.05

-7061.41 -58.8865 198.069
-58.8865 -308.774 454.167
198.069 454.167 139.209

-6100.88 -541.927 -587.347
-541.927 -154.92 -49.3439
-587.347 -49.3439 -466.577

-6809.5 305.775 -363.987
305.775 -1010.41 -104.321
-363.987 -104.321 -792.774

-8325.03 132.706 -138.722
132.706 -2402.15 46.665
-138.722 46.665 -1900.25

-7210.66 27.4647 169.329
27.4647 -736.034 -262.335
169.329 -262.335 -960.862

-6623.09 163.361 212.253
163.361 -122.056 147.397
212.253 147.397 -1176.01

-7959.9 495.29 -321.637
495.29 -2217.12 155.639
-321.637 155.639 -1493.56

-5840.7 33.9669 -460.303
33.9669 -259.828 708.561
-460.303 708.561 -138.874

-10696.5 384.169 -584.983
384.169 -7220.8 31.0069
-584.983 31.0069 -7127.9

-10600.7 254.655 -558.142
254.655 -6790.61 185.651
-558.142 185.651 -7140.02

-5822.7 188.39 -503.564
188.39 376.538 232.767
-503.564 232.767 -207.518

-12629.5 -210.057 -526.829
-210.057 -9148.79 -9.09028
-526.829 -9.09028 -9207.39

-7814.74 -249.18 199.086
-249.18 -976.675 154.674
199.086 154.674 -1138.93

-7433.43 -585.115 1774.72
-585.115 -5274.39 -281.728
1774.72 -281.728 -4751.49

-7109.96 891.545 16.6878
891.545 -2466.35 -313.342
16.6878 -313.342 -2979.21

-5730.56 158.943 -72.1563
158.943 1694.85 548.026
-72.1563 548.026 2160.32

-6278.41 60.3041 433.037
60.3041 486.26 -41.7529
433.037 -41.7529 -863.222

-6453.18 -8.714 217.835
-8.714 2078.85 344.593
217.835 344.593 888.607

-8440.82 -30.107 -113.431
-30.107 -631.473 480.013
-113.431 480.013 -700.93

-7422.76 192.896 54.8566
192.896 -1182.67 -67.239
54.8566 -67.239 -726.633

-6825.8 -668.682 -378.631
-668.682 -207.834 261.592
-378.631 261.592 399.027

-6881.12 210.953 269.904
210.953 -233.421 -313.829
269.904 -313.829 97.8854

-13642.1 -261.759 838.175
-261.759 -12832.3 -143.394
838.175 -143.394 -12390.2

-11056.8 524.825 1100.18
524.825 -8409.23 219.24
1100.18 219.24 -7705.67

-7719 -206.541 372.718
-206.541 1089.27 -373.975
372.718 -373.975 1832.27

-8335.01 1695.04 1606.96
1695.04 -4937.54 597.621
1606.96 597.621 -4995.25

-7241.81 -165.722 -75.1373
-165.722 134.962 -84.1611
-75.1373 -84.1611 210.389

-6342.07 -361.452 329.657
-361.452 -881.016 197.931
329.657 197.931 788.018

-7463.26 -183.644 -68.2204
-183.644 -387.564 -90.7467
-68.2204 -90.7467 107.681

-8321.82 246.108 337.253
246.108 -3166.48 -178.313
337.253 -178.313 -2328.56

-8628.45 2158.06 584.551
2158.06 -4754.91 107.105
584.551 107.105 -6209.5

-6920.09 -62.0633 398.272
-62.0633 604.5 185.533
398.272 185.533 391.511

-6692.16 2039.37 967.228
2039.37 -2547.18 124.386
967.228 124.386 -3171.65

-7805.33 400.348 220.953
400.348 -2256.94 -308.335
220.953 -308.335 -2046.33

-6879.82 225.625 873.484
225.625 -2305.12 -113.148
873.484 -113.148 -1738.29

-8693.52 2180.05 -564.958
2180.05 -4685.71 20.0898
-564.958 20.0898 -6455.7

-8057.87 30.3375 -43.1528
30.3375 -1350.73 -190.226
-43.1528 -190.226 -1635.66

-7453.87 -112.508 6.4684
-112.508 9.66909 40.4072
6.4684 40.4072 431.922

-8224.8 122.363 129.52
122.363 -249.105 253.467
129.52 253.467 -41.2617

-6122.13 54.8901 413.528
54.8901 3474.02 33.0223
413.528 33.0223 3229.42

-10689.3 927.351 -338.801
927.351 -8622.22 -167.225
-338.801 -167.225 -9074.19

-6893.34 1196.38 64.2472
1196.38 -950.228 85.9684
64.2472 85.9684 -1999.21

-6157.16 1221.91 -151.387
1221.91 -149.456 -351.984
-151.387 -351.984 -1382.14

-5645.7 746.012 1389.18
746.012 -670.768 352.876
1389.18 352.876 -293.979

-7421.48 -149.059 2480.32
-149.059 -5461.43 -22.9222
2480.32 -22.9222 -3402.48

-9426.21 1025.81 784.346
1025.81 -6605.38 51.9247
784.346 51.9247 -6625.99

-6865.49 990.935 1379.2
990.935 -1923.46 352.069
1379.2 352.069 -1111.26

-9535.02 1681 1507.92
1681 -5936.69 880.355
1507.92 880.355 -6287.55

