# vtk DataFile Version 3.0
vtk output at time 0.2
ASCII
DATASET UNSTRUCTURED_GRID
POINTS 527 float
0 0 0 0 0 0.05 0 0 0.1 
0 0 0.15 0 0 0.2 0 0.05 0 
0 0.05 0.05 0 0.05 0.1 0 0.05 0.15 
0 0.05 0.2 0 0.1 0 0 0.1 0.05 
0 0.1 0.1 0 0.1 0.15 0 0.1 0.2 
0 0.15 0 0 0.15 0.05 0 0.15 0.1 
0 0.15 0.15 0 0.15 0.2 0 0.2 0 
0 0.2 0.05 0 0.2 0.1 0 0.2 0.15 
0 0.2 0.2 0.0470001 -0.0024132 -0.00235105 0.0476611 -0.0022433 0.0488561 
0.0479486 -0.00240316 0.099992 0.0477556 -0.00238054 0.151174 0.0469411 -0.00244393 0.202422 
0.0477273 0.0489043 -0.00239288 0.047779 0.0488843 0.202401 0.0478867 0.100048 -0.00239397 
0.0477706 0.0999413 0.202341 0.0480412 0.151336 -0.00233767 0.0480112 0.151212 0.202428 
0.0469509 0.202574 -0.00228581 0.0476651 0.20229 0.0488948 0.047999 0.202369 0.100056 
0.0477981 0.20238 0.151242 0.0469458 0.202482 0.202436 0.0949821 -0.00290189 -0.00303743 
0.0951484 -0.00327548 0.0482967 0.0951779 -0.00329047 0.0999374 0.0947945 -0.00339049 0.151552 
0.0949449 -0.00302075 0.203059 0.0949288 0.0483405 -0.00327768 0.0949558 0.0483292 0.203403 
0.0951076 0.100006 -0.00339679 0.0952512 0.10003 0.203434 0.0949445 0.151803 -0.00352879 
0.0950896 0.151619 0.20355 0.0950116 0.203207 -0.00298619 0.0950263 0.203466 0.0484349 
0.0953115 0.20332 0.100079 0.094812 0.20327 0.151671 0.09504 0.202977 0.203168 
0.14308 -0.00268522 -0.0024595 0.142315 -0.00259915 0.0488605 0.14196 -0.00249688 0.100059 
0.14222 -0.00247725 0.151068 0.14301 -0.00278346 0.202339 0.142175 0.0488073 -0.00276359 
0.142198 0.0486745 0.202796 0.141836 0.100061 -0.00264537 0.142068 0.0998974 0.202667 
0.141919 0.151254 -0.00252542 0.142193 0.15107 0.202588 0.143046 0.202519 -0.00232206 
0.142458 0.202521 0.0489982 0.142213 0.202513 0.100076 0.142345 0.202546 0.151077 
0.143054 0.202459 0.202399 0.19 0 0 0.19 0 0.05 
0.19 0 0.1 0.19 0 0.15 0.19 0 0.2 
0.19 0.05 0 0.19 0.05 0.05 0.19 0.05 0.1 
0.19 0.05 0.15 0.19 0.05 0.2 0.19 0.1 0 
0.19 0.1 0.05 0.19 0.1 0.1 0.19 0.1 0.15 
0.19 0.1 0.2 0.19 0.15 0 0.19 0.15 0.05 
0.19 0.15 0.1 0.19 0.15 0.15 0.19 0.15 0.2 
0.19 0.2 0 0.19 0.2 0.05 0.19 0.2 0.1 
0.19 0.2 0.15 0.19 0.2 0.2 0 0.025 0 
0.0234111 -0.00140951 -0.00214032 0.0242283 -0.00184005 0.0238028 0 0 0.025 
0 0.025 0.025 0.0243231 -0.00187935 0.0492808 0 0.025 0.05 
0 0.025 0.075 0 0 0.075 0 0.025 0.1 
0.0242682 -0.00196925 0.074659 0.0243032 -0.001795 0.100039 0.0242968 -0.0018908 0.125425 
0 0 0.125 0.0243422 -0.00181611 0.150756 0 0.025 0.175 
0 0.025 0.15 0 0 0.175 0 0.025 0.125 
0.0242483 -0.0018324 0.176195 0 0.025 0.2 0.0233763 -0.00141296 0.202165 
0.0243285 0.0237789 0.0239057 0 0.05 0.025 0.0237379 0.0240252 -0.00178654 
0.0240233 0.0493463 -0.00159097 0.0243454 0.0749225 -0.00187723 0 0.075 0.025 
0 0.075 0 0.0242979 0.023795 0.0493564 0 0.05 0.075 
0 0.075 0.05 0.0483923 0.0744644 0.0230724 0.02444 0.0748305 0.0237171 
0.0479802 0.0488726 0.0232499 0.0241831 0.0493275 0.0238406 0.0481996 0.0232308 0.0744388 
0.0479555 0.0233657 0.0488517 0 0.075 0.075 0.0485853 0.0744305 0.0486039 
0.0481864 0.0232047 0.0999438 0.0243898 0.0237108 0.0747162 0.0244448 0.0237758 0.125386 
0.0485286 0.0229936 0.125635 0.0244004 0.0236977 0.100043 0 0.05 0.125 
0 0.075 0.125 0 0.075 0.1 0 0.05 0.175 
0.0243792 0.0238133 0.150725 0.0243854 0.0747394 0.176289 0.0242481 0.0493098 0.176168 
0.0482429 0.0744178 0.176832 0 0.075 0.15 0.0480488 0.0488497 0.176747 
0.048367 0.0231358 0.151224 0.0243541 0.0237803 0.176133 0.0243231 0.0748517 0.201925 
0.0240752 0.0493349 0.201614 0.0237441 0.0240272 0.201815 0 0.075 0.175 
0 0.075 0.2 0 0.125 0 0.0243573 0.100199 -0.00190041 
0 0.1 0.025 0.0486294 0.100095 0.0229444 0 0.125 0.025 
0 0.125 0.05 0.0245197 0.125443 0.0237921 0.0244556 0.100146 0.0237724 
0 0.1 0.075 0.048597 0.125663 0.0230027 0 0.125 0.075 
0 0.1 0.125 0.0484432 0.151308 0.125645 0.0483866 0.125641 0.151334 
0.0482587 0.100012 0.151453 0.0483443 0.151384 0.100008 0.0485427 0.125685 0.0486512 
0.048481 0.100077 0.0485682 0 0.125 0.1 0.0482474 0.0486376 0.0999544 
0.0484595 0.0486214 0.125619 0.0950276 0.100032 0.100009 0.0485413 0.15131 0.151314 
0.0483373 0.125612 0.17687 0 0.125 0.175 0 0.125 0.15 
0.0244762 0.125392 0.17628 0.0244027 0.100091 0.176276 0 0.1 0.175 
0 0.125 0.125 0.0482456 0.0999911 0.176875 0.0485244 0.0486842 0.151294 
0.0243213 0.100137 0.201994 0 0.125 0.2 0 0.15 0.025 
0.0243144 0.150776 -0.00155761 0.0238079 0.175948 -0.00169143 0.024346 0.176127 0.0239316 
0.0243369 0.125487 -0.00174102 0 0.175 0.025 0 0.175 0 
0.0244227 0.150768 0.0239138 0.0242904 0.17618 0.0493845 0.0484242 0.15129 0.0232081 
0.0480945 0.17675 0.0489032 0 0.175 0.05 0 0.15 0.075 
0.0482737 0.176798 0.074491 0.0244074 0.176266 0.0747316 0.0482842 0.176785 0.100016 
0.0244192 0.176259 0.100066 0 0.175 0.1 0.0244529 0.176228 0.125411 
0 0.175 0.075 0.0485374 0.176971 0.12567 0 0.15 0.125 
0 0.175 0.125 0.0485654 0.151291 0.0486973 0 0.15 0.175 
0.0244093 0.150713 0.176184 0.0243819 0.176154 0.150739 0.0483264 0.151173 0.176829 
0 0.175 0.15 0.0484542 0.176896 0.151253 0.0243728 0.176101 0.176148 
0.0243035 0.150707 0.201688 0.0237937 0.17589 0.201777 0 0.175 0.175 
0.0242989 0.12544 0.201859 0 0.175 0.2 0.0233916 0.201379 -0.00208115 
0.0242323 0.20179 0.0238686 0 0.2 0.025 0.0243263 0.201857 0.0492994 
0 0.2 0.075 0.0243286 0.201749 0.100068 0.0243127 0.201857 0.125444 
0.0242745 0.201921 0.0746942 0 0.2 0.125 0.0243578 0.201775 0.150795 
0 0.2 0.175 0.024268 0.201735 0.176194 0.0233808 0.201325 0.202153 
0.0474491 -0.00236572 0.0231807 0.0709723 -0.00272278 -0.00265707 0.0712182 0.0228498 -0.00276233 
0.0475439 0.0232615 -0.00248771 0.0712263 -0.00270012 0.0229019 0.0714837 0.0228997 0.0228194 
0.0479539 0.0233195 0.0231561 0.0714761 -0.00276296 0.0742098 0.0714462 -0.00273361 0.0485033 
0.0477925 -0.00237924 0.0743922 0.0716223 -0.00284499 0.0999756 0.0478157 -0.00242456 0.125601 
0.0714997 0.0228106 0.177246 0.0711759 -0.00283155 0.177177 0.0713377 -0.00293921 0.151443 
0.0716014 -0.00304602 0.125762 0.0479823 0.0232623 0.176865 0.0474363 -0.00241605 0.176877 
0.0712048 0.0227999 0.202809 0.0709136 -0.00280034 0.202735 0.0475509 0.0232396 0.20253 
0.0713373 0.0485598 -0.00286097 0.0478425 0.0744582 -0.00243523 0.0478338 0.074415 0.202421 
0.0713724 0.0485435 0.202889 0.0715615 0.074214 -0.002965 0.0716387 0.10001 -0.00301317 
0.0480077 0.125704 -0.00243895 0.071667 0.125786 -0.00310569 0.047925 0.125592 0.202457 
0.0715685 0.0999584 0.202888 0.0715327 0.0742222 0.202905 0.0715774 0.125674 0.202973 
0.0476954 0.17695 -0.0024564 0.0481261 0.176833 0.0232258 0.0715411 0.151691 -0.00290793 
0.0481024 0.176758 0.176875 0.0476598 0.176824 0.202573 0.071562 0.151509 0.202952 
0.0474124 0.202455 0.0232496 0.0709714 0.203041 -0.00255415 0.0713148 0.177468 -0.0027322 
0.0715229 0.202809 0.0743274 0.0478148 0.202364 0.0744608 0.0712351 0.202982 0.0229811 
0.0716467 0.177353 0.0228545 0.0714231 0.202902 0.0486069 0.0717083 0.202848 0.100063 
0.0478718 0.202381 0.125656 0.0474622 0.202414 0.176904 0.0716283 0.177214 0.177292 
0.0714036 0.202923 0.151544 0.0712596 0.202849 0.17725 0.0716704 0.202981 0.12581 
0.0709672 0.202819 0.202775 0.0712972 0.177241 0.202862 0.0949811 0.0226184 -0.00309282 
0.0950821 -0.0030304 0.022565 0.119053 -0.00275616 -0.00277787 0.118879 -0.00278201 0.0227784 
0.0951129 0.0225322 0.022515 0.118712 -0.00284115 0.0484583 0.0952055 -0.00330318 0.0740843 
0.118445 0.0485186 0.0226989 0.0950964 0.048305 0.0225098 0.0950984 0.0483348 0.151618 
0.141705 0.0487586 0.125671 0.141711 0.0486732 0.10004 0.118372 0.0485391 0.0484467 
0.0951429 0.0483195 0.0483913 0.0950923 -0.00346835 0.125712 0.118606 -0.00290963 0.0742095 
0.118515 -0.00302954 0.125675 0.118252 0.0484749 0.15164 0.11843 -0.00290657 0.0999984 
0.0949168 0.0225017 0.177535 0.0949246 -0.00310183 0.177385 0.0950522 0.0483871 0.17756 
0.118409 -0.00285925 0.151439 0.118308 0.0483997 0.177364 0.0949473 0.022525 0.203195 
0.118984 -0.00291111 0.202653 0.118725 -0.00283203 0.177086 0.0950162 0.0741595 -0.00337052 
0.11881 0.0227959 -0.00284439 0.118678 0.0228431 0.022728 0.118667 0.0484666 -0.00292651 
0.118412 0.074183 -0.00300479 0.118728 0.0226662 0.202799 0.118493 0.0227424 0.177254 
0.0951487 0.0741828 0.203447 0.118508 0.0741207 0.203125 0.118675 0.0483561 0.202972 
0.141681 0.100005 0.0485298 0.118323 0.0999628 -0.00306035 0.0950532 0.12593 -0.00343406 
0.141693 0.12563 0.0486223 0.118319 0.151675 0.0485757 0.0951847 0.15175 0.0484616 
0.141551 0.0998535 0.177109 0.141634 0.0999 0.151483 0.141488 0.125556 0.151462 
0.0951636 0.151645 0.177562 0.0951101 0.15159 0.151579 0.11842 0.151624 0.177303 
0.118241 0.151563 0.151493 0.141612 0.125474 0.177059 0.118508 0.0998793 0.203186 
0.0952479 0.125867 0.203492 0.0950112 0.177638 -0.00320548 0.0950672 0.177711 0.0225293 
0.118469 0.177387 0.0228216 0.118721 0.177452 -0.0027852 0.118322 0.151631 -0.00291199 
0.141843 0.151271 0.0487833 0.118372 0.177392 0.0485312 0.095148 0.17763 0.0483722 
0.118354 0.125842 -0.00292059 0.0949658 0.17739 0.177625 0.0950368 0.177428 0.203345 
0.118492 0.177276 0.177281 0.118787 0.177228 0.202855 0.141884 0.151067 0.176981 
0.118627 0.151438 0.203055 0.11857 0.125624 0.203175 0.0950372 0.203328 0.0226548 
0.118872 0.203001 0.0229326 0.119073 0.203048 -0.00261166 0.095235 0.203414 0.074227 
0.118637 0.203034 0.0485488 0.0951247 0.203368 0.125855 0.14202 0.176927 0.100049 
0.118631 0.203088 0.100086 0.14198 0.151392 0.100026 0.11854 0.202979 0.125869 
0.118639 0.203097 0.0742899 0.0949723 0.203076 0.177473 0.11838 0.20279 0.151595 
0.118777 0.202803 0.177176 0.119095 0.202834 0.202728 0.142606 -0.00266025 0.0231003 
0.142445 0.0230731 -0.00273885 0.166676 -0.00143106 -0.00233616 0.166233 0.023986 -0.00204258 
0.142135 0.0230937 0.0230013 0.16564 0.049259 0.049099 0.165633 0.0236152 0.0746208 
0.165608 0.0491572 0.0745838 0.141962 0.0487289 0.023067 0.165776 -0.00182975 0.0236793 
0.16568 0.0237729 0.0236009 0.142118 -0.00254851 0.0744579 0.165663 -0.00179867 0.0491678 
0.165665 0.0237627 0.0491033 0.16571 -0.00199352 0.0746075 0.165611 0.0235373 0.100001 
0.142067 -0.00253887 0.125622 0.165514 0.0488897 0.12536 0.165567 0.0489833 0.100016 
0.141833 0.0487424 0.0487258 0.165711 -0.00188565 0.100024 0.165608 0.0235388 0.125365 
0.165596 0.0492533 0.150853 0.142542 -0.00264544 0.176798 0.165637 -0.0017601 0.150782 
0.165632 0.023791 0.150838 0.142037 0.0230423 0.176983 0.165658 0.0237492 0.176317 
0.16575 -0.00184928 0.176235 0.141878 0.0486171 0.176984 0.165717 -0.00208758 0.125393 
0.142394 0.0229385 0.202693 0.166214 0.0239121 0.201955 0.166639 -0.00149347 0.202227 
0.142013 0.0744621 -0.00269073 0.165764 0.0492625 -0.00190579 0.165623 0.0746481 0.0235836 
0.165641 0.0492035 0.0236084 0.165778 0.0491829 0.201823 0.1656 0.0745671 0.176334 
0.16561 0.0491476 0.176316 0.142119 0.0743115 0.202743 0.165561 0.100042 0.0489471 
0.165497 0.125385 0.048796 0.165641 0.0746189 -0.00199364 0.165529 0.0999548 0.0235027 
0.165569 0.099943 -0.002045 0.141876 0.125718 -0.00258137 0.165553 0.12536 0.0234288 
0.165576 0.125234 -0.00200644 0.165633 0.125036 0.201967 0.165549 0.125184 0.176363 
0.165592 0.0999129 0.176317 0.165674 0.0745292 0.201917 0.165625 0.0997966 0.202023 
0.142138 0.125491 0.20265 0.142314 0.176866 -0.002485 0.142024 0.176854 0.023146 
0.165654 0.150823 0.0490123 0.141926 0.176898 0.0488007 0.165815 0.150755 -0.00179947 
0.165687 0.150808 0.0235829 0.1659 0.150565 0.20178 0.142416 0.176769 0.20256 
0.14201 0.176768 0.176907 0.165697 0.150598 0.176347 0.142644 0.202467 0.0232581 
0.166629 0.201489 -0.00229578 0.166203 0.176072 -0.00198479 0.165814 0.201918 0.0236872 
0.165717 0.17629 0.0236568 0.165718 0.201976 0.0492077 0.165682 0.17632 0.0745061 
0.165752 0.201998 0.0746469 0.142269 0.202527 0.0745303 0.165691 0.176285 0.0490853 
0.142204 0.20254 0.125567 0.165878 0.176197 0.10003 0.165794 0.201762 0.100062 
0.165647 0.176134 0.176233 0.165668 0.201806 0.150803 0.165686 0.176068 0.150898 
0.165659 0.176013 0.125537 0.14262 0.202427 0.176824 0.165777 0.201761 0.176268 
0.165681 0.201729 0.125452 0.166224 0.175909 0.2019 0.166614 0.201344 0.202244 
0.19 0.025 0 0.19 0 0.025 0.19 0.025 0.025 
0.19 0.025 0.05 0.19 0.025 0.075 0.19 0 0.075 
0.19 0.025 0.1 0.19 0 0.125 0.19 0.025 0.125 
0.19 0.025 0.15 0.19 0 0.175 0.19 0.025 0.175 
0.19 0.025 0.2 0.19 0.075 0.025 0.19 0.075 0 
0.19 0.05 0.025 0.19 0.075 0.05 0.19 0.05 0.075 
0.19 0.075 0.125 0.19 0.075 0.075 0.19 0.075 0.1 
0.19 0.05 0.125 0.19 0.075 0.15 0.19 0.05 0.175 
0.19 0.075 0.175 0.19 0.075 0.2 0.19 0.1 0.025 
0.19 0.125 0 0.19 0.1 0.075 0.19 0.125 0.025 
0.19 0.125 0.05 0.19 0.125 0.075 0.19 0.1 0.125 
0.19 0.125 0.1 0.19 0.125 0.125 0.19 0.125 0.15 
0.19 0.125 0.175 0.19 0.1 0.175 0.19 0.125 0.2 
0.19 0.175 0 0.19 0.175 0.025 0.19 0.15 0.025 
0.19 0.15 0.075 0.19 0.175 0.05 0.19 0.175 0.125 
0.19 0.15 0.125 0.19 0.175 0.075 0.19 0.175 0.1 
0.19 0.15 0.175 0.19 0.175 0.15 0.19 0.175 0.175 
0.19 0.175 0.2 0.19 0.2 0.025 0.19 0.2 0.075 
0.19 0.2 0.125 0.19 0.2 0.175 

CELLS 236 2596
10 69 93 88 68 452 510 453 449 450 451 
10 28 47 45 44 255 323 256 257 318 319 
10 93 69 88 94 452 453 510 523 454 511 
10 43 49 86 85 308 342 309 310 343 503 
10 5 1 26 6 102 103 120 121 104 127 
10 82 86 81 63 495 493 494 421 422 423 
10 7 11 48 6 136 163 137 128 129 130 
10 37 17 54 38 208 209 285 286 210 290 
10 55 13 12 51 182 171 172 361 183 173 
10 90 86 49 85 505 342 344 504 503 343 
10 37 52 50 36 287 352 288 282 283 284 
10 91 92 65 86 519 433 434 506 507 435 
10 82 65 86 63 436 435 495 421 424 422 
10 25 5 0 26 122 98 99 243 120 100 
10 46 32 6 48 268 131 132 326 269 130 
10 57 46 58 62 327 328 383 384 329 387 
10 26 41 25 46 247 244 243 248 299 245 
10 22 38 39 17 235 291 236 211 210 212 
10 55 49 12 54 345 174 172 373 346 175 
10 26 5 6 30 120 121 127 249 123 133 
10 25 30 26 46 246 249 243 245 264 248 
10 11 15 16 34 164 194 165 166 195 201 
10 82 65 87 86 436 437 496 495 435 508 
10 15 34 36 37 195 276 196 197 277 282 
10 43 85 64 48 310 425 311 312 336 337 
10 1 5 26 0 102 120 103 101 98 100 
10 52 37 50 53 287 288 352 368 289 353 
10 60 80 59 86 404 398 399 405 489 400 
10 48 7 6 43 137 128 130 312 138 134 
10 92 71 96 91 462 463 521 519 464 520 
10 26 7 43 6 139 138 250 127 128 134 
10 6 26 46 42 127 248 132 135 251 303 
10 32 15 10 11 198 160 161 167 164 162 
10 90 71 70 49 465 459 460 344 347 348 
10 28 9 8 3 154 146 147 112 113 114 
10 68 69 50 66 449 354 355 439 440 356 
10 49 90 54 70 344 374 346 348 460 375 
10 28 43 7 44 258 138 140 257 313 141 
10 92 72 71 67 469 466 462 445 446 447 
10 71 56 51 72 381 362 363 466 382 364 
10 50 37 16 53 288 202 203 353 289 204 
10 5 6 30 32 121 133 123 124 131 265 
10 39 19 35 40 224 225 279 292 226 280 
10 12 11 50 48 168 169 176 177 163 338 
10 21 15 37 16 199 197 233 205 194 202 
10 28 4 9 3 117 118 154 112 115 113 
10 80 84 58 85 490 388 389 491 499 390 
10 15 36 20 37 196 230 200 197 282 231 
10 15 20 21 37 200 232 199 197 231 233 
10 19 18 35 13 218 219 225 184 185 186 
10 39 51 35 18 293 281 279 220 221 219 
10 15 34 37 16 195 277 197 194 201 202 
10 19 23 39 18 227 239 224 218 222 220 
10 5 6 32 11 121 131 124 125 129 167 
10 10 5 32 11 126 124 161 162 125 167 
10 19 33 14 13 228 192 193 184 187 188 
10 26 41 46 42 247 299 248 251 300 303 
10 24 19 39 40 229 224 241 242 226 292 
10 51 91 67 65 365 448 366 367 434 438 
10 17 21 37 16 213 233 208 206 205 202 
10 37 22 21 17 237 234 233 208 211 213 
10 49 91 65 86 349 434 350 342 506 435 
10 7 1 26 2 105 103 139 107 106 108 
10 17 55 12 54 214 172 178 209 373 175 
10 19 33 13 35 228 187 184 225 272 186 
10 7 2 26 27 107 108 139 142 109 252 
10 33 9 8 31 155 146 148 266 156 149 
10 55 18 39 17 223 220 294 214 215 212 
10 23 22 39 17 238 236 239 216 211 212 
10 18 23 39 17 222 239 220 215 216 212 
10 26 7 27 43 139 142 252 250 138 253 
10 32 15 11 34 198 164 167 270 195 166 
10 39 19 18 35 224 218 220 279 225 219 
10 23 19 39 24 227 224 239 240 229 241 
10 28 9 31 8 154 156 259 147 146 149 
10 28 4 29 9 117 119 260 154 118 157 
10 51 91 49 71 365 349 351 363 464 347 
10 96 71 90 91 463 465 515 520 464 516 
10 13 55 12 17 182 172 171 189 214 178 
10 92 71 91 67 462 464 519 445 447 448 
10 25 5 26 30 122 120 243 246 123 249 
10 47 61 45 60 331 324 323 332 406 325 
10 33 49 8 13 273 150 148 187 190 151 
10 85 90 64 48 504 426 425 336 339 337 
10 13 9 8 33 158 146 151 187 155 148 
10 78 64 84 83 427 428 484 485 429 497 
10 6 32 11 48 131 167 129 130 269 163 
10 16 37 54 53 202 285 207 204 289 371 
10 47 33 8 31 274 148 152 267 266 149 
10 1 7 26 6 105 139 103 104 128 127 
10 76 80 60 81 479 404 407 480 492 408 
10 90 94 69 95 517 454 455 518 524 456 
10 90 50 70 66 357 358 460 441 356 442 
10 7 2 27 28 107 109 142 140 110 254 
10 29 28 47 45 260 255 261 262 256 323 
10 3 7 8 28 116 143 114 112 140 147 
10 29 28 31 47 260 259 263 261 255 267 
10 47 33 49 8 274 273 333 152 148 150 
10 28 8 31 47 147 149 259 255 152 267 
10 90 70 69 66 460 457 455 441 442 440 
10 71 97 92 96 467 522 462 463 526 521 
10 58 46 64 62 328 330 391 387 329 417 
10 13 9 33 14 158 155 187 188 159 192 
10 39 56 40 51 295 297 292 293 362 298 
10 3 7 28 2 116 140 112 111 107 110 
10 46 57 58 41 327 383 328 299 301 302 
10 90 50 48 70 357 338 339 460 358 340 
10 90 54 70 48 374 375 460 339 341 340 
10 58 43 64 42 314 311 391 304 305 306 
10 28 43 27 7 258 253 254 140 138 142 
10 8 49 47 44 150 333 152 153 320 318 
10 28 8 47 44 147 152 255 257 153 318 
10 43 49 12 44 308 174 179 313 320 180 
10 12 49 13 44 174 190 171 180 320 191 
10 49 8 13 44 150 151 190 320 153 191 
10 12 13 7 44 171 144 145 180 191 141 
10 43 12 7 44 179 145 138 313 180 141 
10 13 8 7 44 151 143 144 191 153 141 
10 7 8 28 44 143 147 140 141 153 257 
10 91 51 49 65 365 351 349 434 367 350 
10 92 87 65 86 509 437 433 507 508 435 
10 63 61 60 82 414 406 409 421 415 410 
10 60 61 77 82 406 416 411 410 415 483 
10 67 51 72 71 366 364 446 447 363 466 
10 91 92 67 65 519 445 448 434 433 438 
10 63 60 81 82 409 408 423 421 410 494 
10 76 60 77 82 407 411 481 482 410 483 
10 60 76 81 82 407 480 408 410 482 494 
10 39 56 51 55 295 362 293 294 379 361 
10 18 35 13 51 219 186 185 221 281 183 
10 55 13 51 18 182 183 361 223 185 221 
10 49 55 12 51 345 172 174 351 361 173 
10 35 33 13 51 272 187 186 281 275 183 
10 33 49 13 51 273 190 187 275 351 183 
10 49 12 13 51 174 171 190 351 173 183 
10 55 13 18 17 182 185 223 214 189 215 
10 71 56 55 51 381 379 380 363 362 361 
10 51 40 39 35 298 292 293 281 280 279 
10 37 36 50 34 282 284 288 277 276 278 
10 47 60 44 65 332 321 318 334 412 322 
10 49 47 44 65 333 318 320 350 334 322 
10 47 61 60 63 331 406 332 335 414 409 
10 43 44 60 65 313 321 315 316 322 412 
10 43 49 44 65 308 320 313 316 350 322 
10 39 51 18 55 293 221 220 294 361 223 
10 54 39 38 17 296 291 290 209 212 210 
10 90 70 95 69 460 461 518 455 457 456 
10 49 12 54 85 174 175 346 343 181 376 
10 71 49 54 70 347 346 377 459 348 375 
10 51 91 71 67 365 464 363 366 448 447 
10 49 55 51 71 345 361 351 347 380 363 
10 6 43 26 42 134 250 127 135 305 251 
10 73 58 78 57 392 393 471 385 383 386 
10 37 22 17 38 237 211 208 286 235 210 
10 43 49 65 86 308 350 316 309 342 435 
10 59 43 60 86 317 315 399 400 309 405 
10 60 43 65 86 315 316 412 405 309 435 
10 63 60 65 86 409 412 424 422 405 435 
10 60 63 81 86 409 423 408 405 422 493 
10 37 17 16 54 208 206 202 285 209 207 
10 71 95 90 70 468 518 465 459 461 460 
10 49 55 71 54 345 380 347 346 373 377 
10 95 71 90 96 468 465 518 525 463 515 
10 88 69 66 89 453 440 443 512 458 444 
10 90 49 54 85 344 346 374 504 343 376 
10 78 64 62 84 427 417 418 484 428 419 
10 90 66 89 64 441 444 513 426 430 431 
10 54 90 85 48 374 504 376 341 339 336 
10 69 68 88 66 449 451 453 440 439 443 
10 9 29 28 31 157 260 154 156 263 259 
10 54 12 50 48 175 176 359 341 177 338 
10 88 69 89 94 453 458 512 511 454 514 
10 78 58 62 57 393 387 418 386 383 384 
10 69 54 50 70 378 359 354 457 375 358 
10 90 86 91 49 505 506 516 344 342 349 
10 12 54 85 48 175 376 181 177 341 336 
10 89 66 88 64 444 443 512 431 430 432 
10 88 84 89 64 500 501 512 432 428 431 
10 69 70 50 66 457 358 354 440 442 356 
10 49 43 12 85 308 179 174 343 310 181 
10 92 72 97 71 469 470 522 462 466 467 
10 90 94 89 69 517 514 513 455 454 458 
10 69 54 53 50 378 371 372 354 359 353 
10 68 69 52 50 449 369 370 355 354 352 
10 48 7 43 12 137 138 312 177 145 179 
10 69 90 66 89 455 441 440 458 513 444 
10 59 43 86 85 317 309 400 401 310 503 
10 60 80 86 81 404 489 405 408 492 493 
10 69 53 52 50 372 368 369 354 353 352 
10 90 71 49 91 465 347 344 516 464 349 
10 50 37 34 16 288 277 278 203 202 201 
10 54 16 53 50 207 204 371 359 203 353 
10 46 32 30 6 268 265 264 132 131 133 
10 32 34 11 50 270 166 167 271 278 169 
10 12 17 54 50 178 209 175 176 217 359 
10 17 16 54 50 206 207 209 217 203 359 
10 11 17 12 50 170 178 168 169 217 176 
10 11 16 17 50 165 206 170 169 203 217 
10 11 34 16 50 166 201 165 169 278 203 
10 11 7 48 12 136 137 163 168 145 177 
10 64 50 90 66 360 357 426 430 356 441 
10 90 89 84 64 513 501 502 426 431 428 
10 85 59 58 80 401 394 390 491 398 389 
10 60 45 47 44 325 323 332 321 319 318 
10 11 32 50 48 167 271 169 163 269 338 
10 50 64 90 48 360 426 357 338 337 339 
10 43 12 85 48 179 181 310 312 177 336 
10 59 43 85 64 317 310 401 402 311 425 
10 30 6 26 46 133 127 249 264 132 248 
10 46 41 58 42 299 302 328 303 300 304 
10 90 84 85 64 502 499 504 426 428 425 
10 84 62 78 79 419 418 484 487 420 486 
10 70 54 50 48 375 359 358 340 341 338 
10 78 74 79 58 473 474 486 393 395 396 
10 58 46 42 64 328 303 304 391 330 306 
10 54 39 17 55 296 212 209 373 294 214 
10 43 6 48 42 134 130 312 305 135 307 
10 84 64 62 58 428 417 419 388 391 387 
10 58 80 75 74 389 477 397 395 475 476 
10 47 60 65 63 332 412 334 335 409 424 
10 58 80 74 79 389 475 395 396 488 474 
10 85 59 64 58 401 402 425 390 394 391 
10 84 85 64 58 499 425 428 388 390 391 
10 60 75 80 76 413 477 404 407 478 479 
10 48 6 46 42 130 132 326 307 135 303 
10 58 43 59 64 314 317 394 391 311 402 
10 64 43 48 42 311 312 337 306 305 307 
10 64 48 46 42 337 326 330 306 307 303 
10 86 59 85 80 400 401 503 489 398 491 
10 59 58 80 75 394 389 398 403 397 477 
10 60 75 59 80 413 403 399 404 477 398 
10 62 84 58 79 419 388 387 420 487 396 
10 88 84 64 83 500 428 432 498 497 429 
10 80 84 79 58 490 487 488 389 388 396 
10 78 58 79 62 393 396 486 418 387 420 
10 78 74 58 73 473 395 393 471 472 392 

CELL_TYPES 236
24
24
24
24
24
24
24
24
24
24
24
24
24
24
24
24
24
24
24
24
24
24
24
24
24
24
24
24
24
24
24
24
24
24
24
24
24
24
24
24
24
24
24
24
24
24
24
24
24
24
24
24
24
24
24
24
24
24
24
24
24
24
24
24
24
24
24
24
24
24
24
24
24
24
24
24
24
24
24
24
24
24
24
24
24
24
24
24
24
24
24
24
24
24
24
24
24
24
24
24
24
24
24
24
24
24
24
24
24
24
24
24
24
24
24
24
24
24
24
24
24
24
24
24
24
24
24
24
24
24
24
24
24
24
24
24
24
24
24
24
24
24
24
24
24
24
24
24
24
24
24
24
24
24
24
24
24
24
24
24
24
24
24
24
24
24
24
24
24
24
24
24
24
24
24
24
24
24
24
24
24
24
24
24
24
24
24
24
24
24
24
24
24
24
24
24
24
24
24
24
24
24
24
24
24
24
24
24
24
24
24
24
24
24
24
24
24
24
24
24
24
24
24
24
24
24
24
24
24
24
24
24
24
24
24
24

POINT_DATA 527
VECTORS displacement float
0 0 0
0 0 0
0 0 0
0 0 0
0 0 0
0 0 0
0 0 0
0 0 0
0 0 0
0 0 0
0 0 0
0 0 0
0 0 0
0 0 0
0 0 0
0 0 0
0 0 0
0 0 0
0 0 0
0 0 0
0 0 0
0 0 0
0 0 0
0 0 0
0 0 0
-0.00299992 -0.0024132 -0.00235105
-0.00233895 -0.0022433 -0.00114389
-0.00205142 -0.00240316 -7.99367e-06
-0.00224437 -0.00238054 0.00117364
-0.00305894 -0.00244393 0.00242177
-0.00227266 -0.00109575 -0.00239288
-0.002221 -0.00111569 0.00240078
-0.00211333 4.7807e-05 -0.00239397
-0.00222943 -5.86694e-05 0.00234103
-0.00195881 0.00133596 -0.00233767
-0.00198876 0.00121171 0.00242764
-0.00304909 0.00257411 -0.00228581
-0.00233491 0.00229007 -0.00110521
-0.00200096 0.00236909 5.584e-05
-0.00220189 0.00237956 0.00124212
-0.0030542 0.00248196 0.0024358
-0.00501787 -0.00290189 -0.00303743
-0.00485156 -0.00327548 -0.00170328
-0.00482211 -0.00329047 -6.2647e-05
-0.00520551 -0.00339049 0.00155234
-0.00505509 -0.00302075 0.00305913
-0.00507122 -0.00165947 -0.00327768
-0.0050442 -0.00167082 0.00340259
-0.00489241 6.4102e-06 -0.00339679
-0.00474884 3.04324e-05 0.00343411
-0.00505549 0.00180271 -0.00352879
-0.00491041 0.00161935 0.00355047
-0.00498837 0.00320737 -0.00298619
-0.00497372 0.00346611 -0.0015651
-0.00468851 0.00331973 7.90129e-05
-0.00518802 0.00327007 0.00167082
-0.00495997 0.00297691 0.00316848
-0.00692026 -0.00268522 -0.0024595
-0.00768462 -0.00259915 -0.00113946
-0.00804041 -0.00249688 5.92262e-05
-0.00777959 -0.00247725 0.00106798
-0.00698972 -0.00278346 0.00233902
-0.00782471 -0.00119273 -0.00276359
-0.00780221 -0.00132547 0.00279568
-0.00816447 6.0624e-05 -0.00264537
-0.00793211 -0.000102564 0.00266704
-0.00808093 0.00125427 -0.00252542
-0.00780744 0.00107 0.00258848
-0.00695359 0.00251874 -0.00232206
-0.00754241 0.00252067 -0.0010018
-0.00778741 0.00251284 7.57385e-05
-0.00765489 0.00254583 0.00107694
-0.00694572 0.0024593 0.002399
-0.01 0 0
-0.01 0 0
-0.01 0 0
-0.01 0 0
-0.01 0 0
-0.01 0 0
-0.01 0 0
-0.01 0 0
-0.01 0 0
-0.01 0 0
-0.01 0 0
-0.01 0 0
-0.01 0 0
-0.01 0 0
-0.01 0 0
-0.01 0 0
-0.01 0 0
-0.01 0 0
-0.01 0 0
-0.01 0 0
-0.01 0 0
-0.01 0 0
-0.01 0 0
-0.01 0 0
-0.01 0 0
0 0 0
-0.00158892 -0.00140951 -0.00214032
-0.000771734 -0.00184005 -0.00119716
0 0 0
0 0 0
-0.000676883 -0.00187935 -0.000719241
0 0 0
0 0 0
0 0 0
0 0 0
-0.000731824 -0.00196925 -0.000341034
-0.000696765 -0.001795 3.92912e-05
-0.000703194 -0.0018908 0.000424848
0 0 0
-0.000657848 -0.00181611 0.00075552
0 0 0
0 0 0
0 0 0
0 0 0
-0.000751738 -0.0018324 0.00119511
0 0 0
-0.00162369 -0.00141296 0.00216528
-0.000671517 -0.00122108 -0.00109435
0 0 0
-0.00126208 -0.000974808 -0.00178654
-0.000976671 -0.000653716 -0.00159097
-0.000654557 -7.75307e-05 -0.00187723
0 0 0
0 0 0
-0.000702064 -0.00120504 -0.000643563
0 0 0
0 0 0
-0.00160771 -0.000535588 -0.00192764
-0.000559982 -0.000169546 -0.00128293
-0.00201984 -0.0011274 -0.00175014
-0.000816918 -0.000672533 -0.00115945
-0.00180038 -0.0017692 -0.000561184
-0.00204455 -0.0016343 -0.00114827
0 0 0
-0.0014147 -0.000569452 -0.00139614
-0.00181363 -0.00179531 -5.62258e-05
-0.0006102 -0.00128922 -0.000283758
-0.000555211 -0.0012242 0.000385908
-0.00147143 -0.00200639 0.000634723
-0.000599635 -0.00130234 4.34793e-05
0 0 0
0 0 0
0 0 0
0 0 0
-0.000620782 -0.00118666 0.000725189
-0.000614553 -0.000260584 0.00128876
-0.000751927 -0.000690156 0.00116782
-0.00175708 -0.000582245 0.00183175
0 0 0
-0.00195118 -0.00115027 0.00174734
-0.00163299 -0.0018642 0.00122373
-0.000645913 -0.00121966 0.00113264
-0.000676928 -0.000148288 0.0019246
-0.000924832 -0.000665103 0.00161381
-0.00125592 -0.000972805 0.00181493
0 0 0
0 0 0
0 0 0
-0.000642674 0.00019929 -0.00190041
0 0 0
-0.00137056 9.49652e-05 -0.00205564
0 0 0
0 0 0
-0.000480319 0.000442664 -0.0012079
-0.000544445 0.000145556 -0.00122758
0 0 0
-0.00140301 0.000662856 -0.00199725
0 0 0
0 0 0
-0.00155683 0.00130777 0.000645055
-0.00161335 0.00064088 0.00133383
-0.00174134 1.21412e-05 0.0014533
-0.0016557 0.00138375 8.15645e-06
-0.00145735 0.000684887 -0.00134883
-0.00151898 7.67164e-05 -0.00143179
0 0 0
-0.00175261 -0.00136241 -4.55828e-05
-0.00154052 -0.00137864 0.000618824
-0.00497243 3.24048e-05 8.70595e-06
-0.00145874 0.00131012 0.00131441
-0.00166271 0.000611868 0.00187044
0 0 0
0 0 0
-0.000523849 0.000392154 0.00128048
-0.000597321 9.13194e-05 0.0012758
0 0 0
0 0 0
-0.00175435 -8.85933e-06 0.00187468
-0.00147558 -0.00131581 0.00129428
-0.00067868 0.000136637 0.00199379
0 0 0
0 0 0
-0.000685588 0.00077561 -0.00155761
-0.00119215 0.000948375 -0.00169143
-0.000653973 0.00112704 -0.00106843
-0.000663087 0.000487156 -0.00174102
0 0 0
0 0 0
-0.000577272 0.000768063 -0.00108624
-0.000709569 0.00117977 -0.000615524
-0.00157582 0.00129006 -0.00179191
-0.00190546 0.00174994 -0.00109678
0 0 0
0 0 0
-0.00172629 0.00179834 -0.000508983
-0.000592563 0.00126585 -0.000268392
-0.00171581 0.001785 1.62131e-05
-0.000580789 0.00125911 6.64714e-05
0 0 0
-0.000547112 0.00122849 0.000410916
0 0 0
-0.00146258 0.00197062 0.000670199
0 0 0
0 0 0
-0.00143461 0.00129107 -0.00130267
0 0 0
-0.000590744 0.000712923 0.00118406
-0.000618102 0.00115388 0.000738873
-0.00167356 0.00117265 0.00182899
0 0 0
-0.00154576 0.00189645 0.00125347
-0.000627184 0.00110125 0.00114844
-0.000696461 0.000706744 0.00168829
-0.00120632 0.000890028 0.00177748
0 0 0
-0.00070112 0.000439648 0.00185904
0 0 0
-0.00160836 0.00137874 -0.00208115
-0.00076769 0.00178993 -0.0011314
0 0 0
-0.000673717 0.00185706 -0.000700604
0 0 0
-0.00067143 0.00174914 6.80605e-05
-0.000687342 0.00185657 0.000443693
-0.000725493 0.00192081 -0.000305827
0 0 0
-0.000642166 0.00177469 0.000795314
0 0 0
-0.000732044 0.00173538 0.00119433
-0.00161916 0.00132505 0.00215338
-0.00255088 -0.00236572 -0.00181929
-0.00402771 -0.00272278 -0.00265707
-0.00378176 -0.00215021 -0.00276233
-0.00245611 -0.00173854 -0.00248771
-0.00377366 -0.00270012 -0.00209807
-0.00351629 -0.00210032 -0.00218063
-0.00204605 -0.00168046 -0.0018439
-0.00352395 -0.00276296 -0.000790195
-0.00355385 -0.00273361 -0.00149672
-0.00220752 -0.00237924 -0.000607769
-0.00337768 -0.00284499 -2.44329e-05
-0.00218435 -0.00242456 0.000601391
-0.00350031 -0.00218939 0.00224608
-0.00382413 -0.00283155 0.00217731
-0.00366229 -0.00293921 0.00144304
-0.00339865 -0.00304602 0.000762472
-0.00201766 -0.00173766 0.00186499
-0.00256369 -0.00241605 0.00187671
-0.0037952 -0.00220006 0.0028089
-0.00408638 -0.00280034 0.00273465
-0.00244911 -0.00176037 0.00253003
-0.00366268 -0.00144016 -0.00286097
-0.0021575 -0.000541757 -0.00243523
-0.00216616 -0.00058496 0.00242107
-0.00362762 -0.00145646 0.00288879
-0.00343848 -0.000785985 -0.002965
-0.00336133 1.03758e-05 -0.00301317
-0.00199234 0.000703998 -0.00243895
-0.00333301 0.000785722 -0.00310569
-0.00207499 0.000591748 0.00245705
-0.00343148 -4.15875e-05 0.00288786
-0.00346729 -0.000777799 0.00290502
-0.00342261 0.000674347 0.00297344
-0.00230463 0.00195003 -0.0024564
-0.0018739 0.00183323 -0.00177423
-0.00345891 0.00169133 -0.00290793
-0.00189763 0.00175845 0.00187506
-0.00234022 0.001824 0.00257256
-0.00343803 0.00150877 0.00295153
-0.0025876 0.00245472 -0.00175039
-0.0040286 0.00304066 -0.00255415
-0.00368517 0.0024683 -0.0027322
-0.00347709 0.00280855 -0.000672642
-0.00218517 0.00236426 -0.000539186
-0.00376493 0.00298207 -0.00201886
-0.00335333 0.00235271 -0.00214546
-0.00357693 0.00290177 -0.00139315
-0.00329174 0.00284815 6.33757e-05
-0.00212821 0.00238114 0.000656099
-0.00253782 0.00241413 0.00190409
-0.00337171 0.002214 0.00229173
-0.00359643 0.00292319 0.00154391
-0.00374045 0.00284947 0.00225047
-0.00332961 0.00298138 0.00080995
-0.0040328 0.00281921 0.00277512
-0.00370281 0.00224102 0.00286201
-0.00501886 -0.00238163 -0.00309282
-0.00491787 -0.0030304 -0.00243501
-0.00594741 -0.00275616 -0.00277787
-0.00612103 -0.00278201 -0.00222158
-0.00488706 -0.00246783 -0.00248504
-0.00628784 -0.00284115 -0.00154166
-0.00479449 -0.00330318 -0.000915716
-0.00655532 -0.00148139 -0.00230109
-0.00490359 -0.00169504 -0.0024902
-0.00490165 -0.0016652 0.00161849
-0.00829524 -0.00124144 0.000671075
-0.00828927 -0.00132684 4.03645e-05
-0.00662815 -0.00146088 -0.00155328
-0.00485708 -0.00168054 -0.0016087
-0.00490772 -0.00346835 0.000711787
-0.00639391 -0.00290963 -0.000790469
-0.00648452 -0.00302954 0.00067539
-0.00674823 -0.00152512 0.00164004
-0.00657045 -0.00290657 -1.56836e-06
-0.00508319 -0.0024983 0.00253483
-0.00507538 -0.00310183 0.00238512
-0.00494785 -0.00161289 0.00255978
-0.00659122 -0.00285925 0.00143858
-0.00669231 -0.00160026 0.00236428
-0.00505272 -0.00247502 0.00319499
-0.0060164 -0.00291111 0.00265328
-0.00627542 -0.00283203 0.00208629
-0.00498379 -0.000840549 -0.00337052
-0.00618996 -0.00220405 -0.00284439
-0.00632244 -0.00215693 -0.00227198
-0.00633282 -0.00153335 -0.00292651
-0.00658824 -0.000816963 -0.00300479
-0.0062721 -0.00233381 0.0027992
-0.00650741 -0.00225756 0.00225434
-0.00485131 -0.000817194 0.00344736
-0.00649234 -0.00087928 0.00312505
-0.00632454 -0.00164393 0.00297162
-0.00831911 5.23361e-06 -0.00147015
-0.00667721 -3.72087e-05 -0.00306035
-0.00494681 0.000930089 -0.00343406
-0.0083075 0.000630318 -0.00137772
-0.00668101 0.00167513 -0.00142428
-0.00481526 0.00174963 -0.00153845
-0.00844863 -0.000146463 0.00210857
-0.00836551 -9.99821e-05 0.00148263
-0.00851208 0.000556312 0.00146206
-0.00483638 0.00164538 0.00256197
-0.00488994 0.00159044 0.00157876
-0.00658007 0.00162399 0.0023027
-0.00675886 0.00156347 0.00149333
-0.00838767 0.000473928 0.00205877
-0.00649152 -0.000120744 0.00318647
-0.00475209 0.00086712 0.0034921
-0.00498881 0.00263809 -0.00320548
-0.00493283 0.00271113 -0.00247067
-0.0065307 0.00238734 -0.00217841
-0.00627859 0.0024518 -0.0027852
-0.00667776 0.00163092 -0.00291199
-0.0081571 0.00127113 -0.00121667
-0.00662759 0.00239221 -0.00146878
-0.00485202 0.00263004 -0.00162783
-0.00664551 0.000842048 -0.00292059
-0.00503421 0.00238962 0.00262497
-0.00496315 0.00242775 0.00334519
-0.00650752 0.00227645 0.00228103
-0.0062126 0.0022282 0.00285524
-0.00811572 0.00106748 0.00198082
-0.00637343 0.00143813 0.00305455
-0.00643032 0.000623734 0.00317477
-0.00496277 0.00332818 -0.00234517
-0.00612766 0.00300103 -0.00206741
-0.00592725 0.00304791 -0.00261166
-0.00476502 0.00341352 -0.000773033
-0.00636301 0.00303357 -0.00145122
-0.00487531 0.00336811 0.000854732
-0.00798022 0.00192696 4.94067e-05
-0.00636913 0.00308785 8.64613e-05
-0.00801987 0.00139245 2.62673e-05
-0.00645971 0.0029793 0.000869098
-0.00636115 0.00309672 -0.000710155
-0.00502768 0.00307638 0.002473
-0.00662003 0.00279003 0.00159465
-0.00622339 0.00280341 0.00217623
-0.0059046 0.00283425 0.00272775
-0.00739377 -0.00266025 -0.00189971
-0.0075547 -0.0019269 -0.00273885
-0.00832386 -0.00143106 -0.00233616
-0.00876734 -0.00101399 -0.00204258
-0.00786516 -0.00190633 -0.00199867
-0.00936047 -0.000741044 -0.000901022
-0.0093669 -0.00138477 -0.000379253
-0.00939151 -0.000842852 -0.000416235
-0.00803764 -0.00127108 -0.00193296
-0.00922422 -0.00182975 -0.00132066
-0.00931987 -0.00122714 -0.0013991
-0.00788172 -0.00254851 -0.00054214
-0.00933696 -0.00179867 -0.000832204
-0.00933545 -0.00123727 -0.000896713
-0.0092895 -0.00199352 -0.000392509
-0.00938875 -0.00146265 5.69693e-07
-0.00793288 -0.00253887 0.000621692
-0.00948636 -0.00111032 0.000360359
-0.00943317 -0.00101668 1.55497e-05
-0.00816683 -0.00125756 -0.00127421
-0.00928946 -0.00188565 2.41594e-05
-0.00939171 -0.00146117 0.000365486
-0.00940432 -0.000746693 0.000852589
-0.00745819 -0.00264544 0.00179755
-0.0093628 -0.0017601 0.000782044
-0.00936776 -0.00120903 0.000838329
-0.00796299 -0.00195773 0.00198327
-0.0093422 -0.00125084 0.00131681
-0.00924954 -0.00184928 0.00123479
-0.00812195 -0.00138288 0.00198436
-0.00928321 -0.00208758 0.000393376
-0.00760645 -0.00206147 0.00269304
-0.0087863 -0.00108791 0.00195532
-0.00836053 -0.00149347 0.00222693
-0.00798663 -0.000537943 -0.00269073
-0.00923615 -0.000737473 -0.00190579
-0.0093775 -0.000351902 -0.00141644
-0.00935914 -0.000796494 -0.00139158
-0.00922186 -0.00081708 0.00182339
-0.00939997 -0.000432932 0.00133353
-0.00938989 -0.000852424 0.00131587
-0.00788056 -0.00068853 0.00274256
-0.00943914 4.19214e-05 -0.00105295
-0.00950304 0.000385441 -0.001204
-0.00935939 -0.000381124 -0.00199364
-0.00947113 -4.52296e-05 -0.00149732
-0.0094308 -5.69699e-05 -0.002045
-0.00812434 0.000718423 -0.00258137
-0.00944656 0.000360167 -0.00157124
-0.00942406 0.000233845 -0.00200644
-0.00936744 3.58092e-05 0.00196725
-0.00945093 0.000184184 0.00136266
-0.00940844 -8.71369e-05 0.00131704
-0.00932604 -0.000470828 0.00191697
-0.00937524 -0.000203395 0.00202332
-0.00786178 0.000491358 0.00265034
-0.00768609 0.0018662 -0.002485
-0.00797595 0.00185395 -0.00185397
-0.00934591 0.000822616 -0.000987676
-0.0080741 0.00189824 -0.00119933
-0.00918524 0.000755419 -0.00179947
-0.00931317 0.000807789 -0.00141711
-0.00910045 0.00056465 0.00177982
-0.00758429 0.0017688 0.00256003
-0.00799042 0.00176809 0.00190712
-0.00930297 0.000597714 0.00134745
-0.00735572 0.00246729 -0.00174187
-0.00837129 0.00148935 -0.00229578
-0.00879691 0.00107244 -0.00198479
-0.00918643 0.00191807 -0.0013128
-0.00928282 0.0012896 -0.00134319
-0.00928227 0.0019761 -0.00079227
-0.00931791 0.00132043 -0.000493945
-0.00924843 0.00199759 -0.0003531
-0.00773064 0.00252696 -0.000469691
-0.00930896 0.00128511 -0.000914702
-0.00779567 0.00254017 0.000567075
-0.00912202 0.00119693 3.04956e-05
-0.00920595 0.00176211 6.19589e-05
-0.00935304 0.00113382 0.00123348
-0.00933155 0.00180594 0.000803097
-0.0093142 0.00106792 0.000897889
-0.00934071 0.00101303 0.000537111
-0.00737953 0.00242697 0.0018237
-0.00922315 0.00176135 0.00126796
-0.00931939 0.0017291 0.00045242
-0.00877622 0.000909197 0.00190004
-0.00838642 0.0013442 0.00224439
-0.01 0 0
-0.01 0 0
-0.01 0 0
-0.01 0 0
-0.01 0 0
-0.01 0 0
-0.01 0 0
-0.01 0 0
-0.01 0 0
-0.01 0 0
-0.01 0 0
-0.01 0 0
-0.01 0 0
-0.01 0 0
-0.01 0 0
-0.01 0 0
-0.01 0 0
-0.01 0 0
-0.01 0 0
-0.01 0 0
-0.01 0 0
-0.01 0 0
-0.01 0 0
-0.01 0 0
-0.01 0 0
-0.01 0 0
-0.01 0 0
-0.01 0 0
-0.01 0 0
-0.01 0 0
-0.01 0 0
-0.01 0 0
-0.01 0 0
-0.01 0 0
-0.01 0 0
-0.01 0 0
-0.01 0 0
-0.01 0 0
-0.01 0 0
-0.01 0 0
-0.01 0 0
-0.01 0 0
-0.01 0 0
-0.01 0 0
-0.01 0 0
-0.01 0 0
-0.01 0 0
-0.01 0 0
-0.01 0 0
-0.01 0 0
-0.01 0 0
-0.01 0 0
-0.01 0 0
-0.01 0 0
-0.01 0 0
-0.01 0 0

CELL_DATA 236
TENSORS stress float
-3805.64 -354.348 329.013
-354.348 -752.859 106.84
329.013 106.84 -179.033

-3492.82 -82.2803 126.97
-82.2803 -378.741 160.495
126.97 160.495 -234.245

-4196.12 -1084.14 884.502
-1084.14 -2532.21 -103.09
884.502 -103.09 -2689.1

-3126.9 87.7505 -278.405
87.7505 -366.905 108.629
-278.405 108.629 -234.138

-3412.05 -899.312 -651.917
-899.312 -1707.71 117.786
-651.917 117.786 -1981.36

-4451.83 433.271 -827.473
433.271 -3245.75 -29.3351
-827.473 -29.3351 -3084.6

-5163.61 -77.3723 -356.813
-77.3723 -3547.01 -68.4734
-356.813 -68.4734 -3617.17

-3061.08 64.7302 13.6989
64.7302 -209.759 -5.96883
13.6989 -5.96883 -327.841

-4055.82 190.447 280.506
190.447 -1007.12 -21.7633
280.506 -21.7633 -1099.35

-6657.12 -140.007 -362.612
-140.007 -5050.32 -24.6917
-362.612 -24.6917 -5056.28

-2788.94 -44.8236 -40.4697
-44.8236 150.754 59.9526
-40.4697 59.9526 72.1228

-3288.84 -155.757 -984.625
-155.757 -2296.88 -29.8311
-984.625 -29.8311 -1872.44

-2783.74 204.151 -787.763
204.151 -717.777 -27.1851
-787.763 -27.1851 -201.042

-3804.08 -354.511 -291.351
-354.511 -734.089 -42.6006
-291.351 -42.6006 -171.348

-2990.73 42.0024 36.1314
42.0024 174.132 -65.6806
36.1314 -65.6806 -162.055

-2895.77 -52.9616 -36.2193
-52.9616 567.49 -51.6337
-36.2193 -51.6337 461.245

-2809.96 -9.52957 -19.9916
-9.52957 81.687 -52.3118
-19.9916 -52.3118 51.0707

-3095.3 573.788 113.318
573.788 -550.295 57.6312
113.318 57.6312 -996.286

-4270.12 169.951 103.487
169.951 -620.696 17.4672
103.487 17.4672 -530.761

-3357.95 -535.366 -640.598
-535.366 -843.63 -11.8888
-640.598 -11.8888 -989.685

-2939.36 -57.9459 44.5249
-57.9459 403.565 -1.30479
44.5249 -1.30479 237.186

-4412.12 372.831 -746.268
372.831 -3425 6.88484
-746.268 6.88484 -3237.55

-3955.17 168.351 -1136.49
168.351 -2875.85 -38.1405
-1136.49 -38.1405 -2296.77

-3169.16 154.817 -180.68
154.817 -811.331 -42.655
-180.68 -42.655 -328.253

-3507.15 -2.50536 93.0364
-2.50536 -274.766 -90.6073
93.0364 -90.6073 -252.188

-4123.73 -1037.1 -766.534
-1037.1 -2512.28 145.426
-766.534 145.426 -2721.04

-2977.48 83.5201 -146.48
83.5201 202.779 114.322
-146.48 114.322 311.8

-4119.98 422.24 -189.129
422.24 -2164.9 151.179
-189.129 151.179 -2148.47

-3253.64 -134.925 -133.43
-134.925 -508.875 -164.512
-133.43 -164.512 -627.313

-3528.57 -829.509 -795.956
-829.509 -1901.96 68.1152
-795.956 68.1152 -2272.25

-3625.07 -328.901 -170.168
-328.901 -770.731 -74.7868
-170.168 -74.7868 -1136.95

-3011.2 -196.048 -218.099
-196.048 131.177 66.8167
-218.099 66.8167 110.972

-3315.22 215.439 -1055.73
215.439 -2235.51 11.8833
-1055.73 11.8833 -1735.9

-4026.39 -272.434 -96.4448
-272.434 -972.267 -124.561
-96.4448 -124.561 -957.147

-3015.23 -896.045 689.568
-896.045 -1455.78 -106.365
689.568 -106.365 -1708.6

-2762.81 -4.0117 14.3876
-4.0117 687.437 76.9183
14.3876 76.9183 496.88

-3837.54 -134.506 -79.0309
-134.506 -488.156 -28.2876
-79.0309 -28.2876 -543.614

-2802.76 104.135 128.284
104.135 -258.69 -78.1504
128.284 -78.1504 198.868

-3292.05 -184.761 -120.293
-184.761 -586.662 -69.2106
-120.293 -69.2106 -277.567

-2722.04 22.8685 -71.5311
22.8685 106.468 -115.238
-71.5311 -115.238 99.3074

-3160.22 85.8286 -261.803
85.8286 6.52652 -70.3077
-261.803 -70.3077 14.9514

-3383.18 -186.988 -520.718
-186.988 -774.186 -210.152
-520.718 -210.152 -754.828

-3270.45 137.05 182.351
137.05 -844.029 4.89521
182.351 4.89521 -373.79

-3130.31 78.3017 -400.762
78.3017 -286.004 66.8024
-400.762 66.8024 -181.415

-3282.62 865.255 -647.519
865.255 -1568.86 -84.2133
-647.519 -84.2133 -1837.2

-4187.29 -1025.68 775.045
-1025.68 -2613 -152.174
775.045 -152.174 -2840.43

-3298.19 418.453 308.661
418.453 -1931.2 -47.9419
308.661 -47.9419 -1993.09

-3788.17 358.777 -270.017
358.777 -695.658 5.43666
-270.017 5.43666 -237.298

-4046.21 985.024 -736.263
985.024 -2407.23 -104.137
-736.263 -104.137 -2689.2

-4886.04 339.273 776.955
339.273 -3882.06 -2.56487
776.955 -2.56487 -3646.07

-3187.88 190.594 228.894
190.594 -324.05 74.3757
228.894 74.3757 -292.263

-2254.2 523.913 -694.088
523.913 -283.854 -5.2634
-694.088 -5.2634 -84.3045

-2860.45 849.59 711.898
849.59 -1309.61 75.2126
711.898 75.2126 -1540.37

-3167.26 -118.347 -930.579
-118.347 -2143.55 -3.44628
-930.579 -3.44628 -1784.53

-3274.71 31.6764 -1114.16
31.6764 -2229.55 -41.1018
-1114.16 -41.1018 -1700

-3664.63 172.982 1098.45
172.982 -2531.01 -7.28103
1098.45 -7.28103 -1979.51

-2728.92 -149.086 -99.9499
-149.086 214.079 -117.391
-99.9499 -117.391 259.805

-3804.02 348.024 297.7
348.024 -740.044 -35.2783
297.7 -35.2783 -234.033

-3223.25 -141.789 -146.937
-141.789 -226.003 -20.1313
-146.937 -20.1313 -242.195

-4466.43 885.509 -260.077
885.509 -2987.37 -35.8252
-260.077 -35.8252 -3364.01

-3404.4 1133.24 -232.729
1133.24 -1803.11 -20.8116
-232.729 -20.8116 -2209.26

-3347.66 -79.079 -321.157
-79.079 -1011.96 -10.3288
-321.157 -10.3288 -959.033

-3578.71 -1151.86 -250.677
-1151.86 -1936.23 21.6143
-250.677 21.6143 -2388.55

-3575.74 334.579 178.047
334.579 -865.737 69.862
178.047 69.862 -673.548

-2785.13 238.238 592.631
238.238 -903.673 -10.3068
592.631 -10.3068 -306.94

-3290.91 -546.02 -68.6252
-546.02 -677.578 99.0954
-68.6252 99.0954 -1186.19

-3431.48 -258.943 507.565
-258.943 -1004.56 227.194
507.565 227.194 -813.739

-2896.12 210.257 215.963
210.257 -754.066 -92.1877
215.963 -92.1877 -612.194

-3279.36 1098.14 334.958
1098.14 -1765.24 24.3497
334.958 24.3497 -2161.67

-3214.58 899.746 400.554
899.746 -1817.35 39.5366
400.554 39.5366 -2151.59

-3218.5 -72.3434 -39.0248
-72.3434 -247.853 -36.7142
-39.0248 -36.7142 -409.842

-2523.88 270.584 -603.29
270.584 -667.116 27.7148
-603.29 27.7148 -174.067

-2500.98 505.892 702.217
505.892 -449.829 -12.1304
702.217 -12.1304 -287.591

-4078.03 958.457 785.718
958.457 -2513.97 111.647
785.718 111.647 -2774.98

-3357.31 -529.065 608.396
-529.065 -914.342 -23.2358
608.396 -23.2358 -1050.16

-3845.11 -355.675 292.666
-355.675 -767.243 58.1649
292.666 58.1649 -183.816

-4241.62 -237.698 -102.637
-237.698 -1181.36 -324.373
-102.637 -324.373 -935.792

-3972.54 -762.582 -494.921
-762.582 -2306.72 33.3179
-494.921 33.3179 -2696.04

-5585.49 343.489 238.323
343.489 -3895.27 23.9849
238.323 23.9849 -3899.32

-3416.54 -484.294 -650.424
-484.294 -987.079 -37.687
-650.424 -37.687 -1202.08

-3349.71 -144.053 -148.629
-144.053 -637.216 6.8222
-148.629 6.8222 -308.353

-2698.81 -76.3655 -60.5142
-76.3655 145.856 74.04
-60.5142 74.04 109.728

-4057.31 -126.357 368.947
-126.357 -1631.42 47.0596
368.947 47.0596 -1480.18

-5086.01 -88.194 214.795
-88.194 -2623.77 -50.2485
214.795 -50.2485 -2559.96

-3707.34 -180.707 917.857
-180.707 -2589.14 23.584
917.857 23.584 -2223.74

-3782.37 111.415 1225.37
111.415 -2733.45 7.92968
1225.37 7.92968 -2320.59

-2909.84 -39.6999 -257.597
-39.6999 -616.969 -91.1187
-257.597 -91.1187 -794.885

-3242.34 67.7058 -106.299
67.7058 -565.82 28.2443
-106.299 28.2443 -279.245

-3254.73 -120.506 90.1593
-120.506 -448.214 67.6125
90.1593 67.6125 -349.449

-4389.24 -900.125 -286.655
-900.125 -2887.01 35.6387
-286.655 35.6387 -3257.54

-2895.46 1018.17 -440.828
1018.17 -1406.11 86.2298
-440.828 86.2298 -1580.35

-4148.35 -1152.8 311.738
-1152.8 -2465.21 21.3161
311.738 21.3161 -2857.23

-3065.94 -292.744 210.309
-292.744 -6.86176 -19.4263
210.309 -19.4263 -58.1567

-3209.76 -582.818 97.5011
-582.818 -590.089 -30.2712
97.5011 -30.2712 -1073.76

-2843.99 -10.9526 33.5427
-10.9526 153.439 74.6157
33.5427 74.6157 33.8792

-2987.85 -915.17 393.174
-915.17 -1556.16 -43.4925
393.174 -43.4925 -1896.29

-2912.73 -43.7362 -47.6153
-43.7362 485.488 10.107
-47.6153 10.107 295.914

-2781.17 -44.5621 54.1766
-44.5621 282.283 13.4624
54.1766 13.4624 62.8223

-3165.47 -305.998 217.853
-305.998 -174.256 -104.32
217.853 -104.32 -40.3849

-3709.24 -263.445 123.379
-263.445 -831.855 -6.46716
123.379 -6.46716 -878.754

-3874.63 -986.391 -847.936
-986.391 -2285.93 114.913
-847.936 114.913 -2468.39

-3273.56 21.591 30.1745
21.591 72.4729 -5.69939
30.1745 -5.69939 121.567

-3507.87 -20.2294 1143.95
-20.2294 -2420.24 51.3446
1143.95 51.3446 -1841.54

-2793.3 -50.2944 61.3656
-50.2944 140.223 -59.2129
61.3656 -59.2129 26.9813

-3353.12 -1100.91 316.797
-1100.91 -1788.33 -28.4832
316.797 -28.4832 -2243.05

-2741.83 -68.9248 92.6681
-68.9248 150.561 -44.1999
92.6681 -44.1999 106.733

-3931.57 -211.766 153.894
-211.766 -754.875 80.2653
153.894 80.2653 -763.772

-3808.59 -201.649 66.7451
-201.649 -467.89 14.4303
66.7451 14.4303 -504.975

-3439.73 88.199 108.811
88.199 7.37431 -26.302
108.811 -26.302 123.471

-2931.76 -111.219 32.9858
-111.219 -108.223 -149.498
32.9858 -149.498 -120.165

-3967.53 -44.6581 77.1452
-44.6581 -686.767 74.2044
77.1452 74.2044 -829.356

-3278.46 14.8042 -159.972
14.8042 -417.549 178.724
-159.972 178.724 -299.863

-4160.04 -176.073 131.583
-176.073 -414.485 46.9338
131.583 46.9338 -389.93

-3795.28 -162.629 310.216
-162.629 -800.4 87.5756
310.216 87.5756 -983.491

-2852.68 -180.451 115.847
-180.451 -224.617 205.46
115.847 205.46 -378.292

-5582.04 -364.454 216.131
-364.454 -3946.4 9.95253
216.131 9.95253 -3915.87

-3215.2 -339.234 239.61
-339.234 -409.968 -115.123
239.61 -115.123 -148.823

-5122.63 -381.806 249.978
-381.806 -3604.5 80.3894
249.978 80.3894 -3580.48

-2883.04 -242.259 173.243
-242.259 -636.028 144.816
173.243 144.816 -525.307

-2864.98 -61.6809 90.461
-61.6809 351.907 -149.645
90.461 -149.645 240.16

-3669.28 23.4983 -1189.13
23.4983 -2655.37 -82.9603
-1189.13 -82.9603 -2042.59

-3507.96 250.154 -179.7
250.154 -900.389 29.6177
-179.7 29.6177 -525.936

-3769.12 454.88 -306.979
454.88 -757.641 85.1207
-306.979 85.1207 -155.54

-2815.51 -49.2638 33.0806
-49.2638 649.07 -156.928
33.0806 -156.928 430.931

-3433.24 -223.938 -627.348
-223.938 -1057.45 -146.499
-627.348 -146.499 -889.724

-2972.7 558.311 -686.805
558.311 -853.485 -57.414
-686.805 -57.414 -645.389

-4124.07 1055.8 -845.635
1055.8 -2565.65 -133.025
-845.635 -133.025 -2749.84

-3341.12 916.309 -786.709
916.309 -1883.34 -84.5045
-786.709 -84.5045 -1974.31

-3517.18 1.75135 172.371
1.75135 -259.197 -107.141
172.371 -107.141 -151.923

-3223.46 209.776 411.957
209.776 -769.483 -31.6735
411.957 -31.6735 -529.013

-3146.63 229.635 245.399
229.635 -455.183 -160.509
245.399 -160.509 -565.812

-3899.48 97.617 157.147
97.617 -499.207 -55.1253
157.147 -55.1253 -314.7

-3177.09 133.539 79.3391
133.539 -347.226 -22.2305
79.3391 -22.2305 -317.598

-2550.58 80.6786 73.8101
80.6786 528.274 18.1185
73.8101 18.1185 239.752

-3377.33 144.429 360.664
144.429 -540.363 -72.9023
360.664 -72.9023 -771.038

-4879.23 407.977 303.991
407.977 -3332.09 -41.1475
303.991 -41.1475 -3347.85

-2781.47 -26.5328 -51.0118
-26.5328 319.397 -98.6582
-51.0118 -98.6582 404.741

-2853.89 -42.8491 -50.2766
-42.8491 523.43 24.1531
-50.2766 24.1531 408.488

-2963.06 4.44374 68.029
4.44374 423.077 -23.6305
68.029 -23.6305 293.746

-3118.85 20.314 24.8703
20.314 145.959 112.288
24.8703 112.288 196.676

-2690.66 42.9571 -129.285
42.9571 1411.76 -20.2663
-129.285 -20.2663 1336.55

-2700.91 -11.2943 98.7215
-11.2943 663.622 83.1573
98.7215 83.1573 548.16

-3134.36 182.82 -177.544
182.82 279.871 142.354
-177.544 142.354 425.245

-4234.43 87.0567 -63.2195
87.0567 -369.985 3.72654
-63.2195 3.72654 -349.197

-3237.65 -114.619 -105.135
-114.619 -351.127 -163.339
-105.135 -163.339 -287.582

-2850.96 94.7003 37.423
94.7003 -128.777 139.58
37.423 139.58 -135.694

-3546.69 -630.304 126.412
-630.304 -644.107 -79.8849
126.412 -79.8849 -1029.57

-4041.8 48.8068 -22.2333
48.8068 -494.077 62.4639
-22.2333 62.4639 -480.29

-3617.7 -38.9819 -109.018
-38.9819 -121.486 62.5763
-109.018 62.5763 75.055

-3220.94 -258.324 -214.727
-258.324 -4.92483 -15.6984
-214.727 -15.6984 -325.039

-2432.04 -131.145 -208.357
-131.145 1273.9 68.658
-208.357 68.658 1557.68

-3414.58 -110.901 -122.979
-110.901 -548.262 -95.1189
-122.979 -95.1189 -395.431

-3832.74 431.328 335.078
431.328 -777.235 -117.978
335.078 -117.978 -151.506

-3180.28 544.152 -39.8561
544.152 -608.147 -94.4379
-39.8561 -94.4379 -1087.18

-3696.34 -180.261 -14.5854
-180.261 -586.825 64.8756
-14.5854 64.8756 -606.928

-3219.14 83.6728 -66.7123
83.6728 -109.577 132.732
-66.7123 132.732 -242.206

-3359.48 204.077 -237.334
204.077 -468.688 -47.4453
-237.334 -47.4453 -308.558

-3747.22 283.535 -313.033
283.535 -1294.02 18.3788
-313.033 18.3788 -983.848

-2816.67 357.741 -594.263
357.741 -616.084 -110.679
-594.263 -110.679 -550.288

-3534.3 298.625 -122.664
298.625 -826.213 67.1273
-122.664 67.1273 -1073.79

-3564.56 -753.476 -172.489
-753.476 -608.363 -110.681
-172.489 -110.681 -1089.24

-3328.65 -184.104 -142.399
-184.104 314.778 2.04472
-142.399 2.04472 614.518

-4041.33 -986.379 -358.242
-986.379 -2415 44.2112
-358.242 44.2112 -2853.57

-3401.74 -480.346 639.08
-480.346 -1149.02 37.0408
639.08 37.0408 -1230.88

-3906.73 -258.895 -237.483
-258.895 -871.149 -96.9705
-237.483 -96.9705 -670.308

-2653.18 108.828 834.004
108.828 -663.843 -31.7542
834.004 -31.7542 -123.574

-3814.51 -332.323 402.236
-332.323 -1750.62 153.59
402.236 153.59 -1814.06

-3703.89 -218.572 147.4
-218.572 -751.745 130.633
147.4 130.633 -610.272

-3284.26 -113.655 87.2372
-113.655 -749.936 43.4121
87.2372 43.4121 -423.608

-3362.33 -139.718 132.972
-139.718 -676.217 -10.8382
132.972 -10.8382 -320.233

-4100.74 122.931 -85.6392
122.931 -496.033 0.834253
-85.6392 0.834253 -360.587

-3533.11 -940.909 813.293
-940.909 -1881.72 -47.5431
813.293 -47.5431 -2151.24

-3522.36 215.804 162.596
215.804 -778.384 -53.5314
162.596 -53.5314 -432.172

-3666.58 -45.0531 103.407
-45.0531 -209.347 -2.4602
103.407 -2.4602 -122.958

-5473.72 -157.434 -396.642
-157.434 -3854.68 -51.4377
-396.642 -51.4377 -3848.42

-4156.11 40.5178 -15.4232
40.5178 -568.813 -110.637
-15.4232 -110.637 -594.528

-2993.56 -334.701 675.962
-334.701 -681.89 206.429
675.962 206.429 -746.91

-3621.23 -254.423 1136.29
-254.423 -2536.51 -13.3448
1136.29 -13.3448 -2346.93

-3167.81 -104.706 152.17
-104.706 165.049 59.4236
152.17 59.4236 193.282

-4149.31 -29.3173 20.2074
-29.3173 -588.876 -131.142
20.2074 -131.142 -552.329

-3816.91 -345.459 -302.216
-345.459 -720.583 -66.1956
-302.216 -66.1956 -150.314

-3660.15 -946.659 506.501
-946.659 -2015.57 5.31222
506.501 5.31222 -2348.16

-2505.57 -178.164 176.476
-178.164 1309.7 -9.74655
176.476 -9.74655 1429.93

-2792.06 36.6564 100.952
36.6564 185.655 79.8983
100.952 79.8983 126.014

-3680.96 -269.241 -192.56
-269.241 -898.33 -121.827
-192.56 -121.827 -679.351

-2980.41 -531.392 399.639
-531.392 -758.253 57.1069
399.639 57.1069 -836.43

-4879.46 156.701 -124.532
156.701 -2312.19 -0.465938
-124.532 -0.465938 -2370.64

-4119.08 611.306 -430.459
611.306 -2926.15 77.3765
-430.459 77.3765 -2943.45

-3238.04 -88.398 139.673
-88.398 -147.787 158.227
139.673 158.227 -31.88

-2818.69 -308.953 -290.538
-308.953 -276.209 -52.1411
-290.538 -52.1411 -371.231

-3217.58 173.187 -200.32
173.187 -510.541 -3.7189
-200.32 -3.7189 -408.614

-3971.47 118.421 -93.3282
118.421 -900.313 34.4513
-93.3282 34.4513 -752.719

-3242.05 -66.1206 -100.172
-66.1206 -405.124 -106.803
-100.172 -106.803 -406.704

-2954.94 86.4297 -72.6402
86.4297 -198.383 59.9977
-72.6402 59.9977 -490.501

-3743.77 291.57 -154.174
291.57 -1073.78 60.8937
-154.174 60.8937 -823.501

-2754.72 104.117 -218.398
104.117 -246.102 254.827
-218.398 254.827 -254.538

-4754.37 243.549 -368.326
243.549 -3151.92 19.878
-368.326 19.878 -3102.22

-4599.81 248.194 -418.052
248.194 -3017.84 79.6022
-418.052 79.6022 -3133.26

-2471.3 158.005 -378.728
158.005 -69.7391 98.9805
-378.728 98.9805 -196.471

-5664.31 -125.171 -402.898
-125.171 -4031.97 -19.5904
-402.898 -19.5904 -4031.09

-3582.07 -158.971 170.861
-158.971 -571.568 70.0618
170.861 70.0618 -552.651

-3610.74 -276.322 861.226
-276.322 -2591.96 -50.8645
861.226 -50.8645 -2537.16

-3520.93 430.908 33.5649
430.908 -1328 -121.677
33.5649 -121.677 -1502.19

-2567.47 98.9349 -77.1172
98.9349 508.501 180.302
-77.1172 180.302 635.473

-2970.77 35.6359 130.865
35.6359 -36.0609 6.69834
130.865 6.69834 -414.661

-3006.85 -50.6862 169.615
-50.6862 511.683 123.863
169.615 123.863 204.795

-4103.52 -8.73449 -40.6379
-8.73449 -456.312 124.021
-40.6379 124.021 -473.679

-3519.04 131.097 46.6281
131.097 -596.644 -29.6349
46.6281 -29.6349 -474.911

-3162.84 -323.466 -235.514
-323.466 -237.197 62.8974
-235.514 62.8974 13.3296

-3126.64 135.848 146.084
135.848 -133.281 -112.742
146.084 -112.742 -42.9102

-5899.58 -190.061 604.824
-190.061 -5016.1 -38.2223
604.824 -38.2223 -4891.28

-4777.84 373.663 871.369
373.663 -3514.62 11.7099
871.369 11.7099 -3347.8

-3744.55 -110.087 175.898
-110.087 239.177 -90.2893
175.898 -90.2893 435.166

-3602.74 908.176 831.618
908.176 -2127.17 62.6221
831.618 62.6221 -2193.57

-3318.49 5.84712 54.5837
5.84712 -2.57984 -27.4428
54.5837 -27.4428 29.9256

-2954.23 -75.2632 122.24
-75.2632 -376.034 54.8448
122.24 54.8448 81.9629

-3523.67 -125.499 -55.6512
-125.499 -279.004 -55.1237
-55.6512 -55.1237 -120.72

-3812.52 210.032 264.025
210.032 -1317.12 -76.6564
264.025 -76.6564 -1021.4

-3752.2 1201.55 297.284
1201.55 -2175.03 -33.7236
297.284 -33.7236 -2508.49

-3157.71 48.3568 60.0179
48.3568 124.137 57.5109
60.0179 57.5109 107.583

-2968.82 996.391 463.528
996.391 -1420.89 -41.0365
463.528 -41.0365 -1554.73

-3530.39 262.08 160.691
262.08 -1004.73 -123.318
160.691 -123.318 -943.884

-3301.03 150.937 437.269
150.937 -1289.75 -65.7719
437.269 -65.7719 -1135.16

-3777.19 1242.84 -300.944
1242.84 -2180.96 84.1976
-300.944 84.1976 -2596.29

-3757.52 -49.8117 -94.4809
-49.8117 -566.339 -80.0637
-94.4809 -80.0637 -625.998

-3444.71 41.4802 71.8138
41.4802 -45.4624 -0.806345
71.8138 -0.806345 22.2309

-3889.11 109.269 82.9618
109.269 -136.612 60.8654
82.9618 60.8654 -61.0425

-2853.52 44.6011 216.005
44.6011 1006.37 -11.9282
216.005 -11.9282 982.347

-4868.14 552.645 -160.379
552.645 -3785.27 -42.9251
-160.379 -42.9251 -3912.48

-3067.48 682.217 46.8377
682.217 -590.79 13.8926
46.8377 13.8926 -909.665

-2864.79 647.753 -89.2355
647.753 -420.811 -117.244
-89.2355 -117.244 -800.96

-2757.34 341.301 611.96
341.301 -490.543 60.0183
611.96 60.0183 -416.297

-3120.68 -67.6727 1299.97
-67.6727 -2138.64 12.3262
1299.97 12.3262 -1686.64

-4225.4 569.101 438.653
569.101 -2926.29 -32.9294
438.653 -32.9294 -2923.86

-3141.02 526.172 705.96
526.172 -906.611 27.6654
705.96 27.6654 -717.457

-4133.4 1039.32 904.168
1039.32 -2549.64 114.303
904.168 114.303 -2684.9

