# vtk DataFile Version 3.0
vtk output at time 0.4
ASCII
DATASET UNSTRUCTURED_GRID
POINTS 527 float
0 0 0 0 0 0.05 0 0 0.1 
0 0 0.15 0 0 0.2 0 0.05 0 
0 0.05 0.05 0 0.05 0.1 0 0.05 0.15 
0 0.05 0.2 0 0.1 0 0 0.1 0.05 
0 0.1 0.1 0 0.1 0.15 0 0.1 0.2 
0 0.15 0 0 0.15 0.05 0 0.15 0.1 
0 0.15 0.15 0 0.15 0.2 0 0.2 0 
0 0.2 0.05 0 0.2 0.1 0 0.2 0.15 
0 0.2 0.2 0.05 0 0 0.05 0 0.05 
0.05 0 0.1 0.05 0 0.15 0.05 0 0.2 
0.05 0.05 0 0.05 0.05 0.2 0.05 0.1 0 
0.05 0.1 0.2 0.05 0.15 0 0.05 0.15 0.2 
0.05 0.2 0 0.05 0.2 0.05 0.05 0.2 0.1 
0.05 0.2 0.15 0.05 0.2 0.2 0.1 0 0 
0.1 0 0.05 0.1 0 0.1 0.1 0 0.15 
0.1 0 0.2 0.1 0.05 0 0.1 0.05 0.2 
0.1 0.1 0 0.1 0.1 0.2 0.1 0.15 0 
0.1 0.15 0.2 0.1 0.2 0 0.1 0.2 0.05 
0.1 0.2 0.1 0.1 0.2 0.15 0.1 0.2 0.2 
0.15 0 0 0.15 0 0.05 0.15 0 0.1 
0.15 0 0.15 0.15 0 0.2 0.15 0.05 0 
0.15 0.05 0.2 0.15 0.1 0 0.15 0.1 0.2 
0.15 0.15 0 0.15 0.15 0.2 0.15 0.2 0 
0.15 0.2 0.05 0.15 0.2 0.1 0.15 0.2 0.15 
0.15 0.2 0.2 0.2 0 0 0.2 0 0.05 
0.2 0 0.1 0.2 0 0.15 0.2 0 0.2 
0.2 0.05 0 0.2 0.05 0.05 0.2 0.05 0.1 
0.2 0.05 0.15 0.2 0.05 0.2 0.2 0.1 0 
0.2 0.1 0.05 0.2 0.1 0.1 0.2 0.1 0.15 
0.2 0.1 0.2 0.2 0.15 0 0.2 0.15 0.05 
0.2 0.15 0.1 0.2 0.15 0.15 0.2 0.15 0.2 
0.2 0.2 0 0.2 0.2 0.05 0.2 0.2 0.1 
0.2 0.2 0.15 0.2 0.2 0.2 0 0.025 0 
0.025 0 0 0.025 0 0.025 0 0 0.025 
0 0.025 0.025 0.025 0 0.05 0 0.025 0.05 
0 0.025 0.075 0 0 0.075 0 0.025 0.1 
0.025 0 0.075 0.025 0 0.1 0.025 0 0.125 
0 0 0.125 0.025 0 0.15 0 0.025 0.175 
0 0.025 0.15 0 0 0.175 0 0.025 0.125 
0.025 0 0.175 0 0.025 0.2 0.025 0 0.2 
0.025 0.025 0.025 0 0.05 0.025 0.025 0.025 0 
0.025 0.05 0 0.025 0.075 0 0 0.075 0.025 
0 0.075 0 0.025 0.025 0.05 0 0.05 0.075 
0 0.075 0.05 0.05 0.075 0.025 0.025 0.075 0.025 
0.05 0.05 0.025 0.025 0.05 0.025 0.05 0.025 0.075 
0.05 0.025 0.05 0 0.075 0.075 0.05 0.075 0.05 
0.05 0.025 0.1 0.025 0.025 0.075 0.025 0.025 0.125 
0.05 0.025 0.125 0.025 0.025 0.1 0 0.05 0.125 
0 0.075 0.125 0 0.075 0.1 0 0.05 0.175 
0.025 0.025 0.15 0.025 0.075 0.175 0.025 0.05 0.175 
0.05 0.075 0.175 0 0.075 0.15 0.05 0.05 0.175 
0.05 0.025 0.15 0.025 0.025 0.175 0.025 0.075 0.2 
0.025 0.05 0.2 0.025 0.025 0.2 0 0.075 0.175 
0 0.075 0.2 0 0.125 0 0.025 0.1 0 
0 0.1 0.025 0.05 0.1 0.025 0 0.125 0.025 
0 0.125 0.05 0.025 0.125 0.025 0.025 0.1 0.025 
0 0.1 0.075 0.05 0.125 0.025 0 0.125 0.075 
0 0.1 0.125 0.05 0.15 0.125 0.05 0.125 0.15 
0.05 0.1 0.15 0.05 0.15 0.1 0.05 0.125 0.05 
0.05 0.1 0.05 0 0.125 0.1 0.05 0.05 0.1 
0.05 0.05 0.125 0.1 0.1 0.1 0.05 0.15 0.15 
0.05 0.125 0.175 0 0.125 0.175 0 0.125 0.15 
0.025 0.125 0.175 0.025 0.1 0.175 0 0.1 0.175 
0 0.125 0.125 0.05 0.1 0.175 0.05 0.05 0.15 
0.025 0.1 0.2 0 0.125 0.2 0 0.15 0.025 
0.025 0.15 0 0.025 0.175 0 0.025 0.175 0.025 
0.025 0.125 0 0 0.175 0.025 0 0.175 0 
0.025 0.15 0.025 0.025 0.175 0.05 0.05 0.15 0.025 
0.05 0.175 0.05 0 0.175 0.05 0 0.15 0.075 
0.05 0.175 0.075 0.025 0.175 0.075 0.05 0.175 0.1 
0.025 0.175 0.1 0 0.175 0.1 0.025 0.175 0.125 
0 0.175 0.075 0.05 0.175 0.125 0 0.15 0.125 
0 0.175 0.125 0.05 0.15 0.05 0 0.15 0.175 
0.025 0.15 0.175 0.025 0.175 0.15 0.05 0.15 0.175 
0 0.175 0.15 0.05 0.175 0.15 0.025 0.175 0.175 
0.025 0.15 0.2 0.025 0.175 0.2 0 0.175 0.175 
0.025 0.125 0.2 0 0.175 0.2 0.025 0.2 0 
0.025 0.2 0.025 0 0.2 0.025 0.025 0.2 0.05 
0 0.2 0.075 0.025 0.2 0.1 0.025 0.2 0.125 
0.025 0.2 0.075 0 0.2 0.125 0.025 0.2 0.15 
0 0.2 0.175 0.025 0.2 0.175 0.025 0.2 0.2 
0.05 0 0.025 0.075 0 0 0.075 0.025 0 
0.05 0.025 0 0.075 0 0.025 0.075 0.025 0.025 
0.05 0.025 0.025 0.075 0 0.075 0.075 0 0.05 
0.05 0 0.075 0.075 0 0.1 0.05 0 0.125 
0.075 0.025 0.175 0.075 0 0.175 0.075 0 0.15 
0.075 0 0.125 0.05 0.025 0.175 0.05 0 0.175 
0.075 0.025 0.2 0.075 0 0.2 0.05 0.025 0.2 
0.075 0.05 0 0.05 0.075 0 0.05 0.075 0.2 
0.075 0.05 0.2 0.075 0.075 0 0.075 0.1 0 
0.05 0.125 0 0.075 0.125 0 0.05 0.125 0.2 
0.075 0.1 0.2 0.075 0.075 0.2 0.075 0.125 0.2 
0.05 0.175 0 0.05 0.175 0.025 0.075 0.15 0 
0.05 0.175 0.175 0.05 0.175 0.2 0.075 0.15 0.2 
0.05 0.2 0.025 0.075 0.2 0 0.075 0.175 0 
0.075 0.2 0.075 0.05 0.2 0.075 0.075 0.2 0.025 
0.075 0.175 0.025 0.075 0.2 0.05 0.075 0.2 0.1 
0.05 0.2 0.125 0.05 0.2 0.175 0.075 0.175 0.175 
0.075 0.2 0.15 0.075 0.2 0.175 0.075 0.2 0.125 
0.075 0.2 0.2 0.075 0.175 0.2 0.1 0.025 0 
0.1 0 0.025 0.125 0 0 0.125 0 0.025 
0.1 0.025 0.025 0.125 0 0.05 0.1 0 0.075 
0.125 0.05 0.025 0.1 0.05 0.025 0.1 0.05 0.15 
0.15 0.05 0.125 0.15 0.05 0.1 0.125 0.05 0.05 
0.1 0.05 0.05 0.1 0 0.125 0.125 0 0.075 
0.125 0 0.125 0.125 0.05 0.15 0.125 0 0.1 
0.1 0.025 0.175 0.1 0 0.175 0.1 0.05 0.175 
0.125 0 0.15 0.125 0.05 0.175 0.1 0.025 0.2 
0.125 0 0.2 0.125 0 0.175 0.1 0.075 0 
0.125 0.025 0 0.125 0.025 0.025 0.125 0.05 0 
0.125 0.075 0 0.125 0.025 0.2 0.125 0.025 0.175 
0.1 0.075 0.2 0.125 0.075 0.2 0.125 0.05 0.2 
0.15 0.1 0.05 0.125 0.1 0 0.1 0.125 0 
0.15 0.125 0.05 0.125 0.15 0.05 0.1 0.15 0.05 
0.15 0.1 0.175 0.15 0.1 0.15 0.15 0.125 0.15 
0.1 0.15 0.175 0.1 0.15 0.15 0.125 0.15 0.175 
0.125 0.15 0.15 0.15 0.125 0.175 0.125 0.1 0.2 
0.1 0.125 0.2 0.1 0.175 0 0.1 0.175 0.025 
0.125 0.175 0.025 0.125 0.175 0 0.125 0.15 0 
0.15 0.15 0.05 0.125 0.175 0.05 0.1 0.175 0.05 
0.125 0.125 0 0.1 0.175 0.175 0.1 0.175 0.2 
0.125 0.175 0.175 0.125 0.175 0.2 0.15 0.15 0.175 
0.125 0.15 0.2 0.125 0.125 0.2 0.1 0.2 0.025 
0.125 0.2 0.025 0.125 0.2 0 0.1 0.2 0.075 
0.125 0.2 0.05 0.1 0.2 0.125 0.15 0.175 0.1 
0.125 0.2 0.1 0.15 0.15 0.1 0.125 0.2 0.125 
0.125 0.2 0.075 0.1 0.2 0.175 0.125 0.2 0.15 
0.125 0.2 0.175 0.125 0.2 0.2 0.15 0 0.025 
0.15 0.025 0 0.175 0 0 0.175 0.025 0 
0.15 0.025 0.025 0.175 0.05 0.05 0.175 0.025 0.075 
0.175 0.05 0.075 0.15 0.05 0.025 0.175 0 0.025 
0.175 0.025 0.025 0.15 0 0.075 0.175 0 0.05 
0.175 0.025 0.05 0.175 0 0.075 0.175 0.025 0.1 
0.15 0 0.125 0.175 0.05 0.125 0.175 0.05 0.1 
0.15 0.05 0.05 0.175 0 0.1 0.175 0.025 0.125 
0.175 0.05 0.15 0.15 0 0.175 0.175 0 0.15 
0.175 0.025 0.15 0.15 0.025 0.175 0.175 0.025 0.175 
0.175 0 0.175 0.15 0.05 0.175 0.175 0 0.125 
0.15 0.025 0.2 0.175 0.025 0.2 0.175 0 0.2 
0.15 0.075 0 0.175 0.05 0 0.175 0.075 0.025 
0.175 0.05 0.025 0.175 0.05 0.2 0.175 0.075 0.175 
0.175 0.05 0.175 0.15 0.075 0.2 0.175 0.1 0.05 
0.175 0.125 0.05 0.175 0.075 0 0.175 0.1 0.025 
0.175 0.1 0 0.15 0.125 0 0.175 0.125 0.025 
0.175 0.125 0 0.175 0.125 0.2 0.175 0.125 0.175 
0.175 0.1 0.175 0.175 0.075 0.2 0.175 0.1 0.2 
0.15 0.125 0.2 0.15 0.175 0 0.15 0.175 0.025 
0.175 0.15 0.05 0.15 0.175 0.05 0.175 0.15 0 
0.175 0.15 0.025 0.175 0.15 0.2 0.15 0.175 0.2 
0.15 0.175 0.175 0.175 0.15 0.175 0.15 0.2 0.025 
0.175 0.2 0 0.175 0.175 0 0.175 0.2 0.025 
0.175 0.175 0.025 0.175 0.2 0.05 0.175 0.175 0.075 
0.175 0.2 0.075 0.15 0.2 0.075 0.175 0.175 0.05 
0.15 0.2 0.125 0.175 0.175 0.1 0.175 0.2 0.1 
0.175 0.175 0.175 0.175 0.2 0.15 0.175 0.175 0.15 
0.175 0.175 0.125 0.15 0.2 0.175 0.175 0.2 0.175 
0.175 0.2 0.125 0.175 0.175 0.2 0.175 0.2 0.2 
0.2 0.025 0 0.2 0 0.025 0.2 0.025 0.025 
0.2 0.025 0.05 0.2 0.025 0.075 0.2 0 0.075 
0.2 0.025 0.1 0.2 0 0.125 0.2 0.025 0.125 
0.2 0.025 0.15 0.2 0 0.175 0.2 0.025 0.175 
0.2 0.025 0.2 0.2 0.075 0.025 0.2 0.075 0 
0.2 0.05 0.025 0.2 0.075 0.05 0.2 0.05 0.075 
0.2 0.075 0.125 0.2 0.075 0.075 0.2 0.075 0.1 
0.2 0.05 0.125 0.2 0.075 0.15 0.2 0.05 0.175 
0.2 0.075 0.175 0.2 0.075 0.2 0.2 0.1 0.025 
0.2 0.125 0 0.2 0.1 0.075 0.2 0.125 0.025 
0.2 0.125 0.05 0.2 0.125 0.075 0.2 0.1 0.125 
0.2 0.125 0.1 0.2 0.125 0.125 0.2 0.125 0.15 
0.2 0.125 0.175 0.2 0.1 0.175 0.2 0.125 0.2 
0.2 0.175 0 0.2 0.175 0.025 0.2 0.15 0.025 
0.2 0.15 0.075 0.2 0.175 0.05 0.2 0.175 0.125 
0.2 0.15 0.125 0.2 0.175 0.075 0.2 0.175 0.1 
0.2 0.15 0.175 0.2 0.175 0.15 0.2 0.175 0.175 
0.2 0.175 0.2 0.2 0.2 0.025 0.2 0.2 0.075 
0.2 0.2 0.125 0.2 0.2 0.175 

CELLS 236 2596
10 69 93 88 68 452 510 453 449 450 451 
10 28 47 45 44 255 323 256 257 318 319 
10 93 69 88 94 452 453 510 523 454 511 
10 43 49 86 85 308 342 309 310 343 503 
10 5 1 26 6 102 103 120 121 104 127 
10 82 86 81 63 495 493 494 421 422 423 
10 7 11 48 6 136 163 137 128 129 130 
10 37 17 54 38 208 209 285 286 210 290 
10 55 13 12 51 182 171 172 361 183 173 
10 90 86 49 85 505 342 344 504 503 343 
10 37 52 50 36 287 352 288 282 283 284 
10 91 92 65 86 519 433 434 506 507 435 
10 82 65 86 63 436 435 495 421 424 422 
10 25 5 0 26 122 98 99 243 120 100 
10 46 32 6 48 268 131 132 326 269 130 
10 57 46 58 62 327 328 383 384 329 387 
10 26 41 25 46 247 244 243 248 299 245 
10 22 38 39 17 235 291 236 211 210 212 
10 55 49 12 54 345 174 172 373 346 175 
10 26 5 6 30 120 121 127 249 123 133 
10 25 30 26 46 246 249 243 245 264 248 
10 11 15 16 34 164 194 165 166 195 201 
10 82 65 87 86 436 437 496 495 435 508 
10 15 34 36 37 195 276 196 197 277 282 
10 43 85 64 48 310 425 311 312 336 337 
10 1 5 26 0 102 120 103 101 98 100 
10 52 37 50 53 287 288 352 368 289 353 
10 60 80 59 86 404 398 399 405 489 400 
10 48 7 6 43 137 128 130 312 138 134 
10 92 71 96 91 462 463 521 519 464 520 
10 26 7 43 6 139 138 250 127 128 134 
10 6 26 46 42 127 248 132 135 251 303 
10 32 15 10 11 198 160 161 167 164 162 
10 90 71 70 49 465 459 460 344 347 348 
10 28 9 8 3 154 146 147 112 113 114 
10 68 69 50 66 449 354 355 439 440 356 
10 49 90 54 70 344 374 346 348 460 375 
10 28 43 7 44 258 138 140 257 313 141 
10 92 72 71 67 469 466 462 445 446 447 
10 71 56 51 72 381 362 363 466 382 364 
10 50 37 16 53 288 202 203 353 289 204 
10 5 6 30 32 121 133 123 124 131 265 
10 39 19 35 40 224 225 279 292 226 280 
10 12 11 50 48 168 169 176 177 163 338 
10 21 15 37 16 199 197 233 205 194 202 
10 28 4 9 3 117 118 154 112 115 113 
10 80 84 58 85 490 388 389 491 499 390 
10 15 36 20 37 196 230 200 197 282 231 
10 15 20 21 37 200 232 199 197 231 233 
10 19 18 35 13 218 219 225 184 185 186 
10 39 51 35 18 293 281 279 220 221 219 
10 15 34 37 16 195 277 197 194 201 202 
10 19 23 39 18 227 239 224 218 222 220 
10 5 6 32 11 121 131 124 125 129 167 
10 10 5 32 11 126 124 161 162 125 167 
10 19 33 14 13 228 192 193 184 187 188 
10 26 41 46 42 247 299 248 251 300 303 
10 24 19 39 40 229 224 241 242 226 292 
10 51 91 67 65 365 448 366 367 434 438 
10 17 21 37 16 213 233 208 206 205 202 
10 37 22 21 17 237 234 233 208 211 213 
10 49 91 65 86 349 434 350 342 506 435 
10 7 1 26 2 105 103 139 107 106 108 
10 17 55 12 54 214 172 178 209 373 175 
10 19 33 13 35 228 187 184 225 272 186 
10 7 2 26 27 107 108 139 142 109 252 
10 33 9 8 31 155 146 148 266 156 149 
10 55 18 39 17 223 220 294 214 215 212 
10 23 22 39 17 238 236 239 216 211 212 
10 18 23 39 17 222 239 220 215 216 212 
10 26 7 27 43 139 142 252 250 138 253 
10 32 15 11 34 198 164 167 270 195 166 
10 39 19 18 35 224 218 220 279 225 219 
10 23 19 39 24 227 224 239 240 229 241 
10 28 9 31 8 154 156 259 147 146 149 
10 28 4 29 9 117 119 260 154 118 157 
10 51 91 49 71 365 349 351 363 464 347 
10 96 71 90 91 463 465 515 520 464 516 
10 13 55 12 17 182 172 171 189 214 178 
10 92 71 91 67 462 464 519 445 447 448 
10 25 5 26 30 122 120 243 246 123 249 
10 47 61 45 60 331 324 323 332 406 325 
10 33 49 8 13 273 150 148 187 190 151 
10 85 90 64 48 504 426 425 336 339 337 
10 13 9 8 33 158 146 151 187 155 148 
10 78 64 84 83 427 428 484 485 429 497 
10 6 32 11 48 131 167 129 130 269 163 
10 16 37 54 53 202 285 207 204 289 371 
10 47 33 8 31 274 148 152 267 266 149 
10 1 7 26 6 105 139 103 104 128 127 
10 76 80 60 81 479 404 407 480 492 408 
10 90 94 69 95 517 454 455 518 524 456 
10 90 50 70 66 357 358 460 441 356 442 
10 7 2 27 28 107 109 142 140 110 254 
10 29 28 47 45 260 255 261 262 256 323 
10 3 7 8 28 116 143 114 112 140 147 
10 29 28 31 47 260 259 263 261 255 267 
10 47 33 49 8 274 273 333 152 148 150 
10 28 8 31 47 147 149 259 255 152 267 
10 90 70 69 66 460 457 455 441 442 440 
10 71 97 92 96 467 522 462 463 526 521 
10 58 46 64 62 328 330 391 387 329 417 
10 13 9 33 14 158 155 187 188 159 192 
10 39 56 40 51 295 297 292 293 362 298 
10 3 7 28 2 116 140 112 111 107 110 
10 46 57 58 41 327 383 328 299 301 302 
10 90 50 48 70 357 338 339 460 358 340 
10 90 54 70 48 374 375 460 339 341 340 
10 58 43 64 42 314 311 391 304 305 306 
10 28 43 27 7 258 253 254 140 138 142 
10 8 49 47 44 150 333 152 153 320 318 
10 28 8 47 44 147 152 255 257 153 318 
10 43 49 12 44 308 174 179 313 320 180 
10 12 49 13 44 174 190 171 180 320 191 
10 49 8 13 44 150 151 190 320 153 191 
10 12 13 7 44 171 144 145 180 191 141 
10 43 12 7 44 179 145 138 313 180 141 
10 13 8 7 44 151 143 144 191 153 141 
10 7 8 28 44 143 147 140 141 153 257 
10 91 51 49 65 365 351 349 434 367 350 
10 92 87 65 86 509 437 433 507 508 435 
10 63 61 60 82 414 406 409 421 415 410 
10 60 61 77 82 406 416 411 410 415 483 
10 67 51 72 71 366 364 446 447 363 466 
10 91 92 67 65 519 445 448 434 433 438 
10 63 60 81 82 409 408 423 421 410 494 
10 76 60 77 82 407 411 481 482 410 483 
10 60 76 81 82 407 480 408 410 482 494 
10 39 56 51 55 295 362 293 294 379 361 
10 18 35 13 51 219 186 185 221 281 183 
10 55 13 51 18 182 183 361 223 185 221 
10 49 55 12 51 345 172 174 351 361 173 
10 35 33 13 51 272 187 186 281 275 183 
10 33 49 13 51 273 190 187 275 351 183 
10 49 12 13 51 174 171 190 351 173 183 
10 55 13 18 17 182 185 223 214 189 215 
10 71 56 55 51 381 379 380 363 362 361 
10 51 40 39 35 298 292 293 281 280 279 
10 37 36 50 34 282 284 288 277 276 278 
10 47 60 44 65 332 321 318 334 412 322 
10 49 47 44 65 333 318 320 350 334 322 
10 47 61 60 63 331 406 332 335 414 409 
10 43 44 60 65 313 321 315 316 322 412 
10 43 49 44 65 308 320 313 316 350 322 
10 39 51 18 55 293 221 220 294 361 223 
10 54 39 38 17 296 291 290 209 212 210 
10 90 70 95 69 460 461 518 455 457 456 
10 49 12 54 85 174 175 346 343 181 376 
10 71 49 54 70 347 346 377 459 348 375 
10 51 91 71 67 365 464 363 366 448 447 
10 49 55 51 71 345 361 351 347 380 363 
10 6 43 26 42 134 250 127 135 305 251 
10 73 58 78 57 392 393 471 385 383 386 
10 37 22 17 38 237 211 208 286 235 210 
10 43 49 65 86 308 350 316 309 342 435 
10 59 43 60 86 317 315 399 400 309 405 
10 60 43 65 86 315 316 412 405 309 435 
10 63 60 65 86 409 412 424 422 405 435 
10 60 63 81 86 409 423 408 405 422 493 
10 37 17 16 54 208 206 202 285 209 207 
10 71 95 90 70 468 518 465 459 461 460 
10 49 55 71 54 345 380 347 346 373 377 
10 95 71 90 96 468 465 518 525 463 515 
10 88 69 66 89 453 440 443 512 458 444 
10 90 49 54 85 344 346 374 504 343 376 
10 78 64 62 84 427 417 418 484 428 419 
10 90 66 89 64 441 444 513 426 430 431 
10 54 90 85 48 374 504 376 341 339 336 
10 69 68 88 66 449 451 453 440 439 443 
10 9 29 28 31 157 260 154 156 263 259 
10 54 12 50 48 175 176 359 341 177 338 
10 88 69 89 94 453 458 512 511 454 514 
10 78 58 62 57 393 387 418 386 383 384 
10 69 54 50 70 378 359 354 457 375 358 
10 90 86 91 49 505 506 516 344 342 349 
10 12 54 85 48 175 376 181 177 341 336 
10 89 66 88 64 444 443 512 431 430 432 
10 88 84 89 64 500 501 512 432 428 431 
10 69 70 50 66 457 358 354 440 442 356 
10 49 43 12 85 308 179 174 343 310 181 
10 92 72 97 71 469 470 522 462 466 467 
10 90 94 89 69 517 514 513 455 454 458 
10 69 54 53 50 378 371 372 354 359 353 
10 68 69 52 50 449 369 370 355 354 352 
10 48 7 43 12 137 138 312 177 145 179 
10 69 90 66 89 455 441 440 458 513 444 
10 59 43 86 85 317 309 400 401 310 503 
10 60 80 86 81 404 489 405 408 492 493 
10 69 53 52 50 372 368 369 354 353 352 
10 90 71 49 91 465 347 344 516 464 349 
10 50 37 34 16 288 277 278 203 202 201 
10 54 16 53 50 207 204 371 359 203 353 
10 46 32 30 6 268 265 264 132 131 133 
10 32 34 11 50 270 166 167 271 278 169 
10 12 17 54 50 178 209 175 176 217 359 
10 17 16 54 50 206 207 209 217 203 359 
10 11 17 12 50 170 178 168 169 217 176 
10 11 16 17 50 165 206 170 169 203 217 
10 11 34 16 50 166 201 165 169 278 203 
10 11 7 48 12 136 137 163 168 145 177 
10 64 50 90 66 360 357 426 430 356 441 
10 90 89 84 64 513 501 502 426 431 428 
10 85 59 58 80 401 394 390 491 398 389 
10 60 45 47 44 325 323 332 321 319 318 
10 11 32 50 48 167 271 169 163 269 338 
10 50 64 90 48 360 426 357 338 337 339 
10 43 12 85 48 179 181 310 312 177 336 
10 59 43 85 64 317 310 401 402 311 425 
10 30 6 26 46 133 127 249 264 132 248 
10 46 41 58 42 299 302 328 303 300 304 
10 90 84 85 64 502 499 504 426 428 425 
10 84 62 78 79 419 418 484 487 420 486 
10 70 54 50 48 375 359 358 340 341 338 
10 78 74 79 58 473 474 486 393 395 396 
10 58 46 42 64 328 303 304 391 330 306 
10 54 39 17 55 296 212 209 373 294 214 
10 43 6 48 42 134 130 312 305 135 307 
10 84 64 62 58 428 417 419 388 391 387 
10 58 80 75 74 389 477 397 395 475 476 
10 47 60 65 63 332 412 334 335 409 424 
10 58 80 74 79 389 475 395 396 488 474 
10 85 59 64 58 401 402 425 390 394 391 
10 84 85 64 58 499 425 428 388 390 391 
10 60 75 80 76 413 477 404 407 478 479 
10 48 6 46 42 130 132 326 307 135 303 
10 58 43 59 64 314 317 394 391 311 402 
10 64 43 48 42 311 312 337 306 305 307 
10 64 48 46 42 337 326 330 306 307 303 
10 86 59 85 80 400 401 503 489 398 491 
10 59 58 80 75 394 389 398 403 397 477 
10 60 75 59 80 413 403 399 404 477 398 
10 62 84 58 79 419 388 387 420 487 396 
10 88 84 64 83 500 428 432 498 497 429 
10 80 84 79 58 490 487 488 389 388 396 
10 78 58 79 62 393 396 486 418 387 420 
10 78 74 58 73 473 395 393 471 472 392 

CELL_TYPES 236
24
24
24
24
24
24
24
24
24
24
24
24
24
24
24
24
24
24
24
24
24
24
24
24
24
24
24
24
24
24
24
24
24
24
24
24
24
24
24
24
24
24
24
24
24
24
24
24
24
24
24
24
24
24
24
24
24
24
24
24
24
24
24
24
24
24
24
24
24
24
24
24
24
24
24
24
24
24
24
24
24
24
24
24
24
24
24
24
24
24
24
24
24
24
24
24
24
24
24
24
24
24
24
24
24
24
24
24
24
24
24
24
24
24
24
24
24
24
24
24
24
24
24
24
24
24
24
24
24
24
24
24
24
24
24
24
24
24
24
24
24
24
24
24
24
24
24
24
24
24
24
24
24
24
24
24
24
24
24
24
24
24
24
24
24
24
24
24
24
24
24
24
24
24
24
24
24
24
24
24
24
24
24
24
24
24
24
24
24
24
24
24
24
24
24
24
24
24
24
24
24
24
24
24
24
24
24
24
24
24
24
24
24
24
24
24
24
24
24
24
24
24
24
24
24
24
24
24
24
24
24
24
24
24
24
24

POINT_DATA 527
VECTORS displacement float
0 0 0
0 0 0
0 0 0
0 0 0
0 0 0
0 0 0
0 0 0
0 0 0
0 0 0
0 0 0
0 0 0
0 0 0
0 0 0
0 0 0
0 0 0
0 0 0
0 0 0
0 0 0
0 0 0
0 0 0
0 0 0
0 0 0
0 0 0
0 0 0
0 0 0
-0.00616507 -0.00455654 -0.00446999
-0.0046956 -0.00425677 -0.00220612
-0.00412185 -0.0045271 -2.16101e-05
-0.00452609 -0.00451624 0.00223818
-0.00629414 -0.00464959 0.00458104
-0.00462703 -0.00207338 -0.00452607
-0.00451641 -0.00215845 0.00454208
-0.00421304 0.000126593 -0.00448521
-0.00445554 -0.000107024 0.00442838
-0.00393791 0.00257096 -0.00440662
-0.00402318 0.00231816 0.00460712
-0.00625003 0.00487358 -0.00430442
-0.00468599 0.00435097 -0.0021027
-0.0040099 0.00446242 0.000123542
-0.00443473 0.00449566 0.00239096
-0.00627277 0.00469663 0.00461737
-0.0100283 -0.00551744 -0.00580207
-0.00967163 -0.00623534 -0.00328857
-0.00962521 -0.00622219 -0.000131622
-0.0104044 -0.00646873 0.0029859
-0.0101126 -0.00579161 0.00582972
-0.01014 -0.00317849 -0.00624471
-0.0100807 -0.00323848 0.00649061
-0.00975903 3.54773e-05 -0.00641727
-0.00948129 2.12497e-05 0.00652915
-0.0100824 0.00348618 -0.00669326
-0.00980873 0.00309262 0.00677774
-0.00995922 0.0061499 -0.00567392
-0.00990984 0.00662113 -0.00297302
-0.00932494 0.00630119 0.000180322
-0.0103479 0.00622647 0.00326172
-0.0099097 0.00566297 0.00610887
-0.0136559 -0.00510381 -0.00470191
-0.0152585 -0.00492948 -0.00222631
-0.0160259 -0.00471681 0.000103654
-0.0154801 -0.0047101 0.00207002
-0.0138018 -0.00532668 0.00443601
-0.0155354 -0.00227173 -0.00527604
-0.0155038 -0.00257619 0.00530857
-0.0162751 0.000130187 -0.00500118
-0.0158229 -0.00021924 0.00504837
-0.0160628 0.00242115 -0.0048008
-0.0155495 0.00200987 0.00495294
-0.0137346 0.00477423 -0.00441414
-0.0149756 0.00477211 -0.00194184
-0.0155193 0.00474163 0.000169389
-0.0152286 0.00481069 0.00213457
-0.0137061 0.00462035 0.00460452
-0.02 0 0
-0.02 0 0
-0.02 0 0
-0.02 0 0
-0.02 0 0
-0.02 0 0
-0.02 0 0
-0.02 0 0
-0.02 0 0
-0.02 0 0
-0.02 0 0
-0.02 0 0
-0.02 0 0
-0.02 0 0
-0.02 0 0
-0.02 0 0
-0.02 0 0
-0.02 0 0
-0.02 0 0
-0.02 0 0
-0.02 0 0
-0.02 0 0
-0.02 0 0
-0.02 0 0
-0.02 0 0
0 0 0
-0.00337752 -0.00265898 -0.00403221
-0.00167161 -0.00350121 -0.00229302
0 0 0
0 0 0
-0.00145351 -0.00354629 -0.00139013
0 0 0
0 0 0
0 0 0
0 0 0
-0.00155462 -0.00370059 -0.000659525
-0.00144205 -0.00337759 7.37078e-05
-0.00148892 -0.00355897 0.00081343
0 0 0
-0.00141177 -0.0034399 0.00145235
0 0 0
0 0 0
0 0 0
0 0 0
-0.00163349 -0.00350154 0.00228804
0 0 0
-0.00345417 -0.00268157 0.00407538
-0.00139603 -0.00234399 -0.00208937
0 0 0
-0.00265512 -0.00185364 -0.00339621
-0.00204358 -0.00123785 -0.00299975
-0.0013746 -0.000112174 -0.00352306
0 0 0
0 0 0
-0.00141637 -0.00229351 -0.00123861
0 0 0
0 0 0
-0.00318243 -0.00100293 -0.00366429
-0.00113117 -0.000300888 -0.00241787
-0.00405189 -0.00213928 -0.0033353
-0.0016714 -0.00127375 -0.00220065
-0.00359245 -0.00335464 -0.00108878
-0.00408039 -0.00311377 -0.00221045
0 0 0
-0.00276613 -0.00106811 -0.00266867
-0.00360734 -0.00339678 -0.000105586
-0.00123345 -0.00244498 -0.000557158
-0.00112937 -0.00231874 0.000743111
-0.00292999 -0.00381638 0.00121584
-0.00121154 -0.00246069 8.02663e-05
0 0 0
0 0 0
0 0 0
0 0 0
-0.00126725 -0.00226203 0.00138925
-0.00124112 -0.000496482 0.00244674
-0.00153349 -0.00132956 0.00222044
-0.00350549 -0.00113505 0.00348382
0 0 0
-0.00390261 -0.00222469 0.00332943
-0.00325914 -0.00356804 0.00234312
-0.00135352 -0.00235236 0.00216325
-0.00143176 -0.000274153 0.00362076
-0.00193345 -0.00128639 0.00304809
-0.00264419 -0.00186881 0.0034516
0 0 0
0 0 0
0 0 0
-0.0013632 0.000409464 -0.00355194
0 0 0
-0.0027184 0.000196349 -0.0038678
0 0 0
0 0 0
-0.000977764 0.000869246 -0.00226837
-0.0010944 0.000300614 -0.00229857
0 0 0
-0.00277661 0.00129155 -0.00377143
0 0 0
0 0 0
-0.00304248 0.00252518 0.00125605
-0.00318662 0.0012341 0.00255204
-0.00344448 1.90998e-05 0.00277747
-0.00324839 0.00264337 2.90922e-05
-0.00284668 0.00133323 -0.0025696
-0.00296423 0.000166797 -0.00271218
0 0 0
-0.00345742 -0.00259542 -7.93998e-05
-0.00301659 -0.0026523 0.00119974
-0.00991648 6.44713e-05 2.59522e-05
-0.00286862 0.00252358 0.00252444
-0.0033087 0.00117344 0.00355581
0 0 0
0 0 0
-0.00106805 0.000760954 0.00243003
-0.00120128 0.000182063 0.00241769
0 0 0
0 0 0
-0.0034946 -3.0146e-05 0.00355729
-0.00291434 -0.00253931 0.00247951
-0.00145403 0.000268792 0.00374723
0 0 0
0 0 0
-0.0014165 0.00150017 -0.00293367
-0.00247995 0.00180035 -0.00320683
-0.00135371 0.0021626 -0.00203622
-0.00138727 0.000952084 -0.00327206
0 0 0
0 0 0
-0.00116698 0.00148582 -0.00204681
-0.00142435 0.00225105 -0.00117752
-0.00313527 0.00248229 -0.00339099
-0.00377442 0.00335339 -0.00209166
0 0 0
0 0 0
-0.00342402 0.00342486 -0.000969137
-0.00119574 0.00240048 -0.00051876
-0.00338875 0.00338687 4.81568e-05
-0.00116919 0.00237601 0.000131856
0 0 0
-0.00111377 0.00232406 0.000797604
0 0 0
-0.00290366 0.00375094 0.00130195
0 0 0
0 0 0
-0.00282663 0.00248599 -0.00247543
0 0 0
-0.00119951 0.00137343 0.00225446
-0.00125856 0.00218887 0.0014234
-0.00333399 0.00224839 0.00349275
0 0 0
-0.00308303 0.00361822 0.00241469
-0.00130745 0.00210727 0.00220538
-0.00145756 0.00136202 0.00320011
-0.00252557 0.00168651 0.00339058
0 0 0
-0.00148217 0.000847055 0.00351655
0 0 0
-0.0033931 0.00259147 -0.00390585
-0.00164645 0.00340336 -0.00216002
0 0 0
-0.00144084 0.00350702 -0.00134582
0 0 0
-0.00138685 0.00328625 0.000139204
-0.00145207 0.003488 0.000861263
-0.00153409 0.00360801 -0.000581695
0 0 0
-0.00137299 0.00334757 0.00154352
0 0 0
-0.00157521 0.00329594 0.00230124
-0.00342781 0.00248694 0.00406207
-0.00522152 -0.00447805 -0.00348384
-0.00814131 -0.00515964 -0.00506599
-0.00762819 -0.00408619 -0.00525647
-0.00503278 -0.00329622 -0.00471795
-0.00760179 -0.00512452 -0.00402941
-0.00706273 -0.0040041 -0.0041701
-0.00415194 -0.00319318 -0.00352257
-0.00704543 -0.00522707 -0.00153026
-0.00710229 -0.00519471 -0.00288566
-0.00445254 -0.00448563 -0.00117687
-0.00674608 -0.00537159 -5.61553e-05
-0.00440672 -0.00457017 0.00114997
-0.00703033 -0.00420716 0.00428043
-0.00771865 -0.00540356 0.00415245
-0.00733511 -0.00558845 0.00275798
-0.00679858 -0.00576574 0.00145434
-0.00409796 -0.00333282 0.00355472
-0.00526275 -0.00459373 0.00356821
-0.00765559 -0.00422774 0.00533171
-0.00826987 -0.00535281 0.00518604
-0.00501942 -0.00338082 0.00479279
-0.00736577 -0.00273611 -0.00543147
-0.00436528 -0.00100732 -0.0045813
-0.00438636 -0.00113287 0.00457269
-0.00729032 -0.0028189 0.00548459
-0.00688082 -0.00148434 -0.00560853
-0.00669806 4.50887e-05 -0.00567078
-0.00401487 0.00136428 -0.00457221
-0.00666333 0.00153078 -0.00584655
-0.00420123 0.00112369 0.00464089
-0.00685678 -0.000100664 0.00546934
-0.00695379 -0.00151858 0.00550729
-0.00686774 0.00127536 0.00562576
-0.00469226 0.00372832 -0.00463364
-0.00377506 0.00350754 -0.00336563
-0.00691003 0.00324994 -0.00549338
-0.00383671 0.00335306 0.00358785
-0.00478799 0.00347879 0.00488499
-0.00689567 0.00287654 0.00561123
-0.00527982 0.00464912 -0.00331555
-0.00813251 0.00580205 -0.00482332
-0.00740545 0.00472887 -0.00516159
-0.00693319 0.00533038 -0.00127032
-0.0043964 0.00446139 -0.00101916
-0.00756599 0.00568412 -0.00383357
-0.00669761 0.00451302 -0.00407376
-0.00713451 0.00553381 -0.00264498
-0.00655355 0.00538855 0.000143595
-0.00428221 0.00448411 0.00127574
-0.00518881 0.00456556 0.00363554
-0.00674685 0.00422743 0.00439059
-0.007183 0.00554801 0.00298469
-0.0075239 0.00541055 0.00432388
-0.00663894 0.00564719 0.00157605
-0.00814906 0.00535061 0.0052933
-0.00746323 0.0042672 0.00545075
-0.0100295 -0.00454139 -0.00590477
-0.00981848 -0.00576505 -0.00468581
-0.0117993 -0.00522002 -0.00531154
-0.012147 -0.00526893 -0.00427229
-0.00975956 -0.00471665 -0.00476949
-0.0125069 -0.00537968 -0.00298212
-0.00955595 -0.00627184 -0.00177435
-0.0130829 -0.00282984 -0.00440391
-0.00979004 -0.00324394 -0.00475749
-0.00978416 -0.0031983 0.00310655
-0.0165976 -0.00238177 0.00128155
-0.0165894 -0.00252885 6.82481e-05
-0.01325 -0.00279343 -0.00298832
-0.00970219 -0.00321439 -0.00308119
-0.00979226 -0.00658718 0.00137097
-0.012734 -0.00549791 -0.001541
-0.0129405 -0.00574173 0.00129219
-0.0135012 -0.00293355 0.00314751
-0.0131071 -0.00547823 -2.05785e-05
-0.0101667 -0.00480324 0.00485289
-0.0101556 -0.00593793 0.00457336
-0.00987794 -0.00311858 0.00490137
-0.0131495 -0.00544911 0.00276247
-0.0133672 -0.00309248 0.00451454
-0.0101059 -0.0047625 0.00609445
-0.0119488 -0.00556858 0.00503737
-0.0124854 -0.00540973 0.00398579
-0.00994931 -0.00161023 -0.00639232
-0.0122896 -0.00418611 -0.00541901
-0.012574 -0.00410498 -0.00435462
-0.0125849 -0.0029167 -0.00556166
-0.0131361 -0.0015517 -0.00570377
-0.0124696 -0.0044892 0.00530974
-0.0129746 -0.00433949 0.00430211
-0.00968136 -0.0016071 0.0065689
-0.0129456 -0.00171949 0.00593737
-0.0125786 -0.00318119 0.00563509
-0.0166656 6.74406e-06 -0.00281013
-0.0133352 -5.53964e-05 -0.00579029
-0.0098698 0.00180575 -0.00651074
-0.016617 0.00120812 -0.00263891
-0.0133403 0.00321782 -0.00272423
-0.0095837 0.00337466 -0.00293204
-0.0169154 -0.000301478 0.00402901
-0.0167756 -0.000211857 0.00285149
-0.0170829 0.00104305 0.00283864
-0.00964182 0.00313668 0.00492086
-0.00975443 0.00303864 0.00305085
-0.0131394 0.00309324 0.0044403
-0.0135217 0.00298187 0.00289591
-0.0167836 0.000890719 0.00394916
-0.0129743 -0.000258057 0.00605577
-0.00948429 0.00164015 0.00665292
-0.00995299 0.00507682 -0.00609082
-0.00983127 0.00520443 -0.00470898
-0.0129988 0.0045782 -0.00414781
-0.012481 0.00469885 -0.00528009
-0.0132971 0.00314856 -0.00551769
-0.0162954 0.00243516 -0.00234069
-0.0132191 0.00457607 -0.00280922
-0.00965263 0.00505024 -0.00310505
-0.013251 0.00163497 -0.0055327
-0.0100494 0.00456229 0.00505476
-0.00992374 0.00462751 0.006419
-0.0129731 0.00433533 0.00440649
-0.0123573 0.00423568 0.00547459
-0.016251 0.00201871 0.00383339
-0.0127158 0.00272322 0.0058435
-0.0128359 0.00115699 0.00605884
-0.00989602 0.00636335 -0.00447289
-0.0121551 0.00571998 -0.00394163
-0.0117443 0.00582445 -0.00495071
-0.00947443 0.00650857 -0.00145309
-0.0126595 0.00578402 -0.00277155
-0.00970391 0.0064038 0.00168918
-0.0159414 0.00366237 0.000114465
-0.0126948 0.00585097 0.000194176
-0.0160454 0.00266318 6.67326e-05
-0.0128828 0.00564509 0.00171515
-0.0126603 0.00589036 -0.00134904
-0.0100398 0.00585792 0.00479966
-0.0132039 0.00530127 0.00311115
-0.0123721 0.00531396 0.00421565
-0.0117085 0.00536978 0.00523564
-0.014621 -0.00505524 -0.00366446
-0.0149475 -0.0036853 -0.00522302
-0.0164091 -0.00270843 -0.00446408
-0.0173714 -0.00195299 -0.00396197
-0.015616 -0.003643 -0.00384538
-0.0186913 -0.00142884 -0.0017619
-0.0186955 -0.00266931 -0.000755844
-0.0187614 -0.00162114 -0.000810108
-0.0160096 -0.00243339 -0.00371057
-0.0182808 -0.00349436 -0.00260233
-0.0185308 -0.00236308 -0.00274853
-0.0156837 -0.00482958 -0.00106853
-0.0185529 -0.00342259 -0.00164982
-0.0186167 -0.00238204 -0.00176398
-0.0184593 -0.00379101 -0.000777323
-0.0187431 -0.00279947 -9.93323e-06
-0.0157969 -0.00481031 0.00121211
-0.0189659 -0.00216127 0.000698687
-0.0188615 -0.0019565 2.93177e-05
-0.0163078 -0.00241453 -0.00245585
-0.0184994 -0.00357508 3.99116e-05
-0.0187383 -0.00279729 0.000706911
-0.0187859 -0.00144636 0.00164213
-0.0147674 -0.005055 0.0034381
-0.018617 -0.00335457 0.00152677
-0.0186922 -0.0023336 0.00162597
-0.0158342 -0.00377307 0.00379127
-0.0185872 -0.00242113 0.00255894
-0.0183426 -0.00354735 0.00240268
-0.0161943 -0.00268499 0.0037839
-0.0184431 -0.00395588 0.000760737
-0.0150683 -0.00398412 0.0051121
-0.0174243 -0.0021106 0.00375657
-0.0164943 -0.00284544 0.00422432
-0.0158939 -0.00101435 -0.00511804
-0.0183674 -0.00142999 -0.00366814
-0.0187082 -0.000677876 -0.00273364
-0.0186626 -0.0015466 -0.00270821
-0.0183542 -0.00160697 0.00347315
-0.0187687 -0.000852427 0.00254882
-0.0187309 -0.00166797 0.00252756
-0.0156921 -0.00134675 0.00519957
-0.0188706 8.32369e-05 -0.00202147
-0.0189861 0.000744552 -0.00231914
-0.0186105 -0.00073627 -0.00381408
-0.0189062 -8.13662e-05 -0.00286764
-0.0187378 -0.000110778 -0.00388237
-0.0161595 0.00139144 -0.00489436
-0.0188382 0.000694556 -0.00302074
-0.018732 0.00045488 -0.00382967
-0.0186446 3.90091e-05 0.00372418
-0.0188762 0.000345803 0.00259551
-0.0188022 -0.000178887 0.00250674
-0.0185654 -0.000927642 0.00363343
-0.0186413 -0.000418091 0.00382189
-0.0156554 0.000909363 0.00504455
-0.0152372 0.00358094 -0.00472454
-0.015854 0.00354933 -0.00355466
-0.0186517 0.00158588 -0.00191379
-0.0160915 0.00362687 -0.00230557
-0.0182606 0.00146335 -0.00344935
-0.0185611 0.00156198 -0.00273677
-0.0181222 0.00105133 0.00340438
-0.0150436 0.00334306 0.00490299
-0.015913 0.00334823 0.00369957
-0.0185811 0.00112772 0.00259529
-0.0145475 0.00467945 -0.00333728
-0.0165123 0.00283022 -0.0043767
-0.0174308 0.002067 -0.00384207
-0.0181898 0.00366675 -0.00257007
-0.0184546 0.00248453 -0.00262636
-0.0184216 0.00376066 -0.0015586
-0.0186021 0.00252765 -0.000973522
-0.018389 0.00376885 -0.000684692
-0.0153915 0.00478004 -0.000901595
-0.0185529 0.00246999 -0.00179147
-0.0155305 0.00480035 0.00113476
-0.0182082 0.00226021 6.99801e-05
-0.0183469 0.00330795 0.000135028
-0.0186309 0.00214255 0.00241644
-0.018558 0.00340588 0.00160148
-0.0185943 0.00202059 0.0017694
-0.0186768 0.00191048 0.00107677
-0.0146093 0.00456995 0.00354069
-0.018308 0.00332608 0.00249505
-0.0185713 0.00323488 0.000908822
-0.0174081 0.00169621 0.00367542
-0.0165524 0.00249974 0.00429397
-0.02 0 0
-0.02 0 0
-0.02 0 0
-0.02 0 0
-0.02 0 0
-0.02 0 0
-0.02 0 0
-0.02 0 0
-0.02 0 0
-0.02 0 0
-0.02 0 0
-0.02 0 0
-0.02 0 0
-0.02 0 0
-0.02 0 0
-0.02 0 0
-0.02 0 0
-0.02 0 0
-0.02 0 0
-0.02 0 0
-0.02 0 0
-0.02 0 0
-0.02 0 0
-0.02 0 0
-0.02 0 0
-0.02 0 0
-0.02 0 0
-0.02 0 0
-0.02 0 0
-0.02 0 0
-0.02 0 0
-0.02 0 0
-0.02 0 0
-0.02 0 0
-0.02 0 0
-0.02 0 0
-0.02 0 0
-0.02 0 0
-0.02 0 0
-0.02 0 0
-0.02 0 0
-0.02 0 0
-0.02 0 0
-0.02 0 0
-0.02 0 0
-0.02 0 0
-0.02 0 0
-0.02 0 0
-0.02 0 0
-0.02 0 0
-0.02 0 0
-0.02 0 0
-0.02 0 0
-0.02 0 0
-0.02 0 0
-0.02 0 0

CELL_DATA 236
TENSORS stress float
-6421.36 -394.044 295.21
-394.044 -1282.06 171.152
295.21 171.152 -84.1734

-5961.61 -84.1653 174.061
-84.1653 -759.526 302.039
174.061 302.039 -436.468

-7299.02 -1598.36 1329.36
-1598.36 -4336.65 -425.81
1329.36 -425.81 -4681.9

-5104.4 109.551 -504.423
109.551 -452.682 231.732
-504.423 231.732 -169.89

-6063.53 -1389.82 -1028.08
-1389.82 -2891.51 357.195
-1028.08 357.195 -3509.09

-7812.35 637.095 -1150.53
637.095 -5782.62 -140.646
-1150.53 -140.646 -5401.59

-9029.54 -33.607 -400.887
-33.607 -6180.68 -113.166
-400.887 -113.166 -6316.63

-5231.21 8.40478 54.395
8.40478 -333.513 -27.8042
54.395 -27.8042 -474.124

-6752.25 320.874 425.019
320.874 -1656.53 -26.0563
425.019 -26.0563 -1846.99

-11697.1 -219.972 -408.36
-219.972 -9191.73 -29.3354
-408.36 -29.3354 -9196.97

-4791.95 -154.574 0.530739
-154.574 344.771 114.082
0.530739 114.082 161.292

-5660.48 -253.129 -1579.61
-253.129 -4007.67 -46.2932
-1579.61 -46.2932 -3022.7

-4738.62 338.019 -1294.42
338.019 -1173.89 -118.327
-1294.42 -118.327 -101.086

-6439.93 -410.718 -219.306
-410.718 -1272.64 -43.3075
-219.306 -43.3075 -124.756

-5110.36 135.539 183.271
135.539 497.969 -115.192
183.271 -115.192 -291.429

-4932.8 -183.711 -127.717
-183.711 1174.74 -90.9338
-127.717 -90.9338 928.728

-4836.51 35.9917 23.9911
35.9917 196.789 -98.1738
23.9911 -98.1738 122.546

-5338.72 865.103 178.293
865.103 -798.9 128.989
178.293 128.989 -1733.09

-7133.53 274.278 182.781
274.278 -1087.49 70.8122
182.781 70.8122 -905.625

-5721.72 -865.332 -956.302
-865.332 -1333.86 68.1023
-956.302 68.1023 -1634.75

-5026.45 -7.0328 162.508
-7.0328 873.838 9.94906
162.508 9.94906 494.693

-7814.39 536.587 -1052.05
536.587 -6260.14 -50.3335
-1052.05 -50.3335 -5841.11

-6994.88 252.94 -1687.12
252.94 -5257.56 -140.651
-1687.12 -140.651 -3903.54

-5441.31 128.685 -190.704
128.685 -1543.64 -112.724
-190.704 -112.724 -539.768

-5870.35 -36.4196 113.713
-36.4196 -345.608 -175.806
113.713 -175.806 -297.312

-7200.78 -1533.47 -1139.7
-1533.47 -4339.09 467.002
-1139.7 467.002 -4848.39

-5081.4 83.2711 -203.807
83.2711 462.16 224.492
-203.807 224.492 709.428

-7045.03 561.583 -294.497
561.583 -3654.34 297.185
-294.497 297.185 -3731.44

-5535.44 -164.653 -195.556
-164.653 -794.046 -306.16
-195.556 -306.16 -1020.15

-6229.71 -1304.25 -1288.19
-1304.25 -3351.35 262.465
-1288.19 262.465 -4041.78

-6194.87 -418.381 -258.298
-418.381 -1306.71 -143.639
-258.298 -143.639 -1913.69

-5079.47 -306.063 -315.62
-306.063 440.127 163.147
-315.62 163.147 361.098

-5851.4 345.865 -1620.06
345.865 -4073.09 -44.2713
-1620.06 -44.2713 -2915.44

-6789.99 -367.323 -159.203
-367.323 -1738.16 -237.281
-159.203 -237.281 -1671.54

-5323.52 -1448.45 1115.18
-1448.45 -2416.88 -342.84
1115.18 -342.84 -2976.76

-4730.27 123.959 -59.1589
123.959 1379.82 152.142
-59.1589 152.142 976.369

-6447.91 -159.628 -132.573
-159.628 -786.561 -48.2116
-132.573 -48.2116 -876.991

-4699.74 267.58 265.644
267.58 -413.611 -173.971
265.644 -173.971 595.307

-5603.4 -179.986 -84.6227
-179.986 -1044.97 -102.428
-84.6227 -102.428 -397.773

-4689.1 98.7249 -54.9551
98.7249 246.851 -226.669
-54.9551 -226.669 218.793

-5325.2 82.3705 -399.138
82.3705 156.13 -159.655
-399.138 -159.655 158.545

-5826.11 -231.712 -739.743
-231.712 -1285.81 -369.832
-739.743 -369.832 -1237.4

-5598.86 101.466 198.06
101.466 -1607.02 36.6708
198.06 36.6708 -615.132

-4993.67 141.642 -685.769
141.642 -187.182 120.401
-685.769 120.401 -34.5106

-5830.61 1347.98 -1029.16
1347.98 -2617.27 -276.556
-1029.16 -276.556 -3210.68

-7350.49 -1509.61 1138.7
-1509.61 -4546.29 -479.672
1138.7 -479.672 -5079.98

-5854.31 674.456 491.105
674.456 -3396.19 -64.5695
491.105 -64.5695 -3523.41

-6413.39 416.325 -195.775
416.325 -1200.27 -21.6868
-195.775 -21.6868 -284.673

-7099.04 1458.58 -1093.32
1458.58 -4179.88 -364.928
-1093.32 -364.928 -4820.67

-8585.21 469.133 1055.54
469.133 -7040.68 55.628
1055.54 55.628 -6513.15

-5385.12 297.309 356.024
297.309 -514.392 189.995
356.024 189.995 -450.409

-3797.66 893.13 -1168.28
893.13 -325.009 -104.871
-1168.28 -104.871 82.6466

-5067.9 1372.7 1168.15
1372.7 -2153.98 274.724
1168.15 274.724 -2638.88

-5426.56 -172.297 -1495.89
-172.297 -3769.92 7.65878
-1495.89 7.65878 -2941.24

-5758.6 67.755 -1729.57
67.755 -4067.01 -91.5877
-1729.57 -91.5877 -2820.85

-6434.52 261.266 1654.69
261.266 -4601.81 45.1478
1654.69 45.1478 -3316.96

-4717.65 -223.084 -119.07
-223.084 439.293 -229.677
-119.07 -229.677 558.342

-6453.42 403.7 225.681
403.7 -1295.71 -35.108
225.681 -35.108 -268.735

-5513.04 -207.252 -128.635
-207.252 -323.054 -15.6739
-128.635 -15.6739 -440.042

-7725.69 1338.03 -378.516
1338.03 -5292.2 -129.071
-378.516 -129.071 -6109.66

-5851 1785.66 -377.783
1785.66 -2939.22 -94.2342
-377.783 -94.2342 -3926.39

-5957.71 -111.547 -369.834
-111.547 -1803.68 -8.46133
-369.834 -8.46133 -1796.77

-6169.97 -1791.86 -409.152
-1791.86 -3181.41 101.441
-409.152 101.441 -4270.8

-5895.26 535.781 339.17
535.781 -1397.55 166.383
339.17 166.383 -960.601

-4804.15 399.512 931.118
399.512 -1551.88 15.9715
931.118 15.9715 -323.666

-5663.88 -804.686 -103.288
-804.686 -1032.01 188.765
-103.288 188.765 -2083.4

-5919.06 -382.992 717.234
-382.992 -1737.3 396.772
717.234 396.772 -1357.86

-5143.61 166.829 316.841
166.829 -1327.2 -161.26
316.841 -161.26 -948.624

-5714.11 1734.01 549.687
1734.01 -2953.54 124.969
549.687 124.969 -3890.63

-5636.99 1458.37 651.407
1458.37 -3195.67 157.746
651.407 157.746 -3925.84

-5500.16 -26.6461 -41.6624
-26.6461 -396.163 -53.4985
-41.6624 -53.4985 -635.557

-4391.67 464.957 -953.735
464.957 -1147.27 9.68904
-953.735 9.68904 -120.929

-4251.56 839.264 1165.86
839.264 -663.457 75.9329
1165.86 75.9329 -284.706

-7187.08 1414.22 1171.1
1414.22 -4408.56 386.789
1171.1 386.789 -4967.09

-5759 -840.3 894.684
-840.3 -1508.44 -146.801
894.684 -146.801 -1758.59

-6506.16 -414.148 205.753
-414.148 -1338.41 73.5557
205.753 73.5557 -148.511

-6965.21 -290.911 -145.842
-290.911 -2143.79 -646.798
-145.842 -646.798 -1650.61

-6975.97 -1157.66 -764.954
-1157.66 -3985.92 150.48
-764.954 150.48 -4789.99

-9760.71 456.996 331.666
456.996 -7027.96 59.3126
331.666 59.3126 -7019.85

-5873.62 -718.715 -946.987
-718.715 -1651.56 23.2608
-946.987 23.2608 -1983.45

-5753.33 -131.95 -112.944
-131.95 -1172.16 37.6875
-112.944 37.6875 -495.613

-4640.21 -182.964 -50.7966
-182.964 322.34 136.147
-50.7966 136.147 236.418

-6965.21 -172.093 461.201
-172.093 -2888.21 63.3632
461.201 63.3632 -2734.3

-8785.54 -114.17 249.636
-114.17 -4649.49 -102.912
249.636 -102.912 -4650.18

-6327.58 -280.471 1436.1
-280.471 -4530.5 19.2249
1436.1 19.2249 -3699.97

-6654.36 148.616 1842.24
148.616 -4952.84 68.3945
1842.24 68.3945 -3880.77

-5073.55 -19.7142 -294.682
-19.7142 -931.554 -146.897
-294.682 -146.897 -1367.16

-5538.56 24.4795 -150.309
24.4795 -1018.84 27.2068
-150.309 27.2068 -389.731

-5585.4 -163.965 8.96399
-163.965 -713.91 123.381
8.96399 123.381 -599.64

-7616.62 -1356.44 -425.687
-1356.44 -5099.37 132.572
-425.687 132.572 -5919.26

-5033.56 1682.5 -729.961
1682.5 -2224.48 75.9287
-729.961 75.9287 -2681.11

-7197.01 -1729.85 478.526
-1729.85 -4193.15 -40.6384
478.526 -40.6384 -5128.51

-5212.88 -447.902 325.625
-447.902 157.572 -62.7433
325.625 -62.7433 35.7003

-5538.73 -867.175 146.737
-867.175 -865.301 -70.7119
146.737 -70.7119 -1891.26

-4882.49 52.2734 -1.45922
52.2734 347.041 141.301
-1.45922 141.301 93.2556

-5177.22 -1506.42 644.719
-1506.42 -2621.96 -164.612
644.719 -164.612 -3385.87

-4974.89 30.2482 -177.964
30.2482 1020.26 9.53405
-177.964 9.53405 613.605

-4773.33 -55.9677 -4.72352
-55.9677 702.447 22.3518
-4.72352 22.3518 177.315

-5363.21 -491.585 308.153
-491.585 -211.799 -245.19
308.153 -245.19 47.5706

-6345.9 -321.384 167.074
-321.384 -1499.46 -32.8947
167.074 -32.8947 -1563.92

-6753.04 -1476.73 -1322.94
-1476.73 -3935.42 411.07
-1322.94 411.07 -4295.57

-5524.68 -45.2873 -41.8126
-45.2873 286.289 -10.2365
-41.8126 -10.2365 333.419

-6140.15 -32.1522 1763.09
-32.1522 -4403.25 99.9211
1763.09 99.9211 -3047.28

-4801.74 -162.496 39.4186
-162.496 316.258 -109.803
39.4186 -109.803 73.3323

-5852.88 -1727.33 509.321
-1727.33 -2998.84 -129.414
509.321 -129.414 -4064.27

-4715.56 -165.889 122.73
-165.889 323.428 -74.4725
122.73 -74.4725 235.16

-6555.22 -304.973 220.63
-304.973 -1332.79 151.955
220.63 151.955 -1354.36

-6402.16 -289.873 94.7888
-289.873 -767.47 17.3149
94.7888 17.3149 -799.589

-5809.88 97.4839 139.033
97.4839 82.3904 -37.2647
139.033 -37.2647 375.437

-5045.12 -85.5791 48.5881
-85.5791 -139.253 -311.802
48.5881 -311.802 -85.009

-6585.01 -50.3327 68.3823
-50.3327 -1189.24 128.236
68.3823 128.236 -1513.55

-5525.09 108.126 -385.569
108.126 -671.81 344.761
-385.569 344.761 -438.31

-6947.84 -282.454 214.956
-282.454 -691.115 62.7339
214.956 62.7339 -634.848

-6343.67 -279.081 474.586
-279.081 -1239.96 159.465
474.586 159.465 -1619.14

-4762.9 -313.145 111.64
-313.145 -185.792 407.199
111.64 407.199 -538.443

-9753.43 -481.769 288.149
-481.769 -7109.04 8.56026
288.149 8.56026 -7041.12

-5292.24 -546.119 474.242
-546.119 -508.578 -257.222
474.242 -257.222 78.249

-8978.82 -469.39 289.579
-469.39 -6347.89 132.513
289.579 132.513 -6293.8

-5134.57 -220.818 229.521
-220.818 -1163.11 267.925
229.521 267.925 -819.847

-4761.28 -63.0422 273.199
-63.0422 904.78 -294.561
273.199 -294.561 637.199

-6528.34 45.4697 -1826.38
45.4697 -4916.6 -178.796
-1826.38 -178.796 -3479.93

-5953.6 302.204 -191.168
302.204 -1677.12 1.32202
-191.168 1.32202 -909.828

-6376.21 571.239 -228.903
571.239 -1294.08 116.972
-228.903 116.972 -80.4652

-4812.55 27.8231 146.479
27.8231 1363.94 -320.716
146.479 -320.716 860.482

-5897.8 -330.657 -930.848
-330.657 -1875.17 -239.133
-930.848 -239.133 -1451.79

-5042.14 912.745 -1108.65
912.745 -1389.39 -231.82
-1108.65 -231.82 -914.859

-7258.49 1573.81 -1258.21
1573.81 -4473.12 -464.114
-1258.21 -464.114 -4881.35

-5890.51 1474.77 -1264.76
1474.77 -3259.37 -316.928
-1264.76 -316.928 -3427.64

-5932.68 -43.9558 261.445
-43.9558 -457.642 -195.684
261.445 -195.684 -198.622

-5535.16 309.093 574.419
309.093 -1193.11 -37.2767
574.419 -37.2767 -801.153

-5295.32 379.11 352.137
379.11 -696.669 -300.699
352.137 -300.699 -935.748

-6508.67 136.868 240.31
136.868 -798.696 -101.115
240.31 -101.115 -478.994

-5461.47 208.917 3.80701
208.917 -531.17 -35.6721
3.80701 -35.6721 -563.424

-4311.94 135.202 96.0294
135.202 1258.79 53.8931
96.0294 53.8931 606.138

-5773.62 247.024 552.627
247.024 -780.99 -137.488
552.627 -137.488 -1266

-8377.37 549.394 417.905
549.394 -5731.68 -49.2355
417.905 -49.2355 -5755.48

-4797.27 -15.697 -35.2265
-15.697 658.248 -189.854
-35.2265 -189.854 863.059

-4866.12 -203.138 -194.483
-203.138 1092.4 63.7837
-194.483 63.7837 837.075

-5033.3 -124.436 219.297
-124.436 913.323 -61.2977
219.297 -61.2977 617.353

-5305.97 -21.9451 132.271
-21.9451 372.075 222.586
132.271 222.586 455.624

-4642.37 95.0363 -193.983
95.0363 2850.03 -53.7859
-193.983 -53.7859 2625.39

-4603.65 -101.07 252.996
-101.07 1383.56 152.666
252.996 152.666 1121.24

-5318.14 270.052 -294.514
270.052 662.558 270.056
-294.514 270.056 997.991

-6983.78 123.945 -98.6137
123.945 -628.069 -13.589
-98.6137 -13.589 -588.921

-5456.13 -282.199 -262.729
-282.199 -524.299 -311.077
-262.729 -311.077 -414.236

-4898.19 57.3856 57.1625
57.3856 -189.671 291.967
57.1625 291.967 -112.681

-6027.74 -939.848 203.44
-939.848 -892.917 -155.977
203.44 -155.977 -1675.54

-6716.53 91.9994 -46.8598
91.9994 -740.565 142.484
-46.8598 142.484 -707.335

-6095.88 -26.9295 -163.905
-26.9295 -193.641 146.811
-163.905 146.811 297.772

-5402.8 -330.776 -270.623
-330.776 267.719 -20.5362
-270.623 -20.5362 -444.8

-4131.19 -285.298 -347.674
-285.298 2526.04 156.826
-347.674 156.826 3128.6

-5838.61 -111.076 -179.508
-111.076 -996.507 -163.013
-179.508 -163.013 -637.241

-6471.71 523.992 268.548
523.992 -1332.07 -192.568
268.548 -192.568 -38.2988

-5470.49 811.519 -48.2392
811.519 -904.405 -178.241
-48.2392 -178.241 -1890.64

-6178.62 -345.097 20.0748
-345.097 -906.499 113.239
20.0748 113.239 -957.667

-5486.9 59.8777 -78.8004
59.8777 -49.6478 249.398
-78.8004 249.398 -262.85

-5686.25 301.468 -376.869
301.468 -798.172 -126.862
-376.869 -126.862 -451.039

-6362.6 414.447 -436.082
414.447 -2307.84 9.61282
-436.082 9.61282 -1710.3

-4744.45 593.167 -991.262
593.167 -869.591 -299.388
-991.262 -299.388 -719.562

-6084.91 309.942 -169.864
309.942 -1452.84 135.951
-169.864 135.951 -1775.93

-6153.01 -1145.03 -290.219
-1145.03 -905.253 -204.644
-290.219 -204.644 -1916.62

-5580.75 -311.401 -250.673
-311.401 701.472 25.3092
-250.673 25.3092 1363.43

-7117.16 -1493.74 -568.142
-1493.74 -4263.58 168.077
-568.142 168.077 -5202.79

-5792.35 -735.921 958.686
-735.921 -1896.94 -33.3322
958.686 -33.3322 -1984.24

-6516.13 -406.885 -432.027
-406.885 -1388.45 -174.031
-432.027 -174.031 -957.966

-4486.64 165.015 1416.85
165.015 -1084.75 -9.83202
1416.85 -9.83202 76.4914

-6604.69 -501.326 596.19
-501.326 -3144.27 246.641
596.19 246.641 -3257

-6231.88 -317.057 238.257
-317.057 -1176.45 257.107
238.257 257.107 -903.153

-5599.79 -84.7154 43.0486
-84.7154 -1352.78 37.9775
43.0486 37.9775 -682.411

-5764.99 -124.084 88.0223
-124.084 -1262.09 -49.3227
88.0223 -49.3227 -515.986

-6839.66 191.969 -133.645
191.969 -870.9 -18.5445
-133.645 -18.5445 -595.762

-6245.54 -1479.91 1297.56
-1479.91 -3286.9 -255.419
1297.56 -255.419 -3814.43

-5929.09 232.77 167.457
232.77 -1391.52 -59.8658
167.457 -59.8658 -672.304

-6206.25 -1.32868 129.831
-1.32868 -392.101 -24.3888
129.831 -24.3888 -180.257

-9468.65 -200.342 -457.721
-200.342 -6677.84 -83.9261
-457.721 -83.9261 -6670.06

-6888.53 75.9983 -29.1715
75.9983 -877.261 -248.59
-29.1715 -248.59 -942.122

-5147.05 -528.42 1026.78
-528.42 -1027.89 340.174
1026.78 340.174 -1114.93

-6313.42 -401.994 1793.72
-401.994 -4532.61 -87.5139
1793.72 -87.5139 -3938.88

-5348.02 -82.1551 209.7
-82.1551 504.909 94.8507
209.7 94.8507 582.144

-6889.11 -57.693 32.2456
-57.693 -945.023 -290.665
32.2456 -290.665 -864.38

-6473.3 -382.429 -238.383
-382.429 -1245.07 -98.8844
-238.383 -98.8844 -68.8538

-6324.67 -1487.35 807.872
-1487.35 -3344.64 -95.9332
807.872 -95.9332 -4091.01

-4271.23 -298.855 318.739
-298.855 2711.28 -24.5517
318.739 -24.5517 3003.64

-4803.55 139.777 122.154
139.777 421.71 148.271
122.154 148.271 275.32

-6171.63 -420.707 -330.726
-420.707 -1504.11 -233.509
-330.726 -233.509 -1043.61

-5041.18 -889.591 650.15
-889.591 -1142.12 40.2062
650.15 40.2062 -1298.79

-8384.57 172.63 -162.017
172.63 -4133.01 -23.9933
-162.017 -23.9933 -4097.86

-7218.95 945.291 -666.527
945.291 -5252.84 77.2096
-666.527 77.2096 -5316.92

-5505.94 -99.5513 199.726
-99.5513 -253.264 308.101
199.726 308.101 9.07775

-4769.46 -472.618 -475.976
-472.618 -301.272 -63.2478
-475.976 -63.2478 -503.646

-5386.59 260.752 -304.628
260.752 -827.831 -40.0426
-304.628 -40.0426 -652.959

-6627.57 147.682 -128.888
147.682 -1696.93 47.4715
-128.888 47.4715 -1375.33

-5568.1 -45.8504 -24.543
-45.8504 -640.879 -194.013
-24.543 -194.013 -723.364

-5091.02 133.925 21.1843
133.925 -224.304 108.124
21.1843 108.124 -881.429

-6294.72 438.494 -256.727
438.494 -1793.57 108.594
-256.727 108.594 -1307.51

-4622.85 98.5671 -362.266
98.5671 -320.65 493.184
-362.266 493.184 -287.098

-8267.62 353.116 -534.275
353.116 -5561.31 27.0213
-534.275 27.0213 -5479.04

-8063.26 306.636 -566.913
306.636 -5246 137.769
-566.913 137.769 -5478

-4367.37 206.909 -523.192
206.909 73.4537 173.471
-523.192 173.471 -253.983

-9816.07 -185.325 -538.136
-185.325 -7104.61 -18.8955
-538.136 -18.8955 -7113.19

-6092.81 -230.061 222.773
-230.061 -887.388 120.029
222.773 120.029 -924.146

-5960.45 -456.592 1409.36
-456.592 -4256.2 -149.846
1409.36 -149.846 -4011.95

-5753.39 703.393 32.0001
703.393 -2087.79 -223.008
32.0001 -223.008 -2430.59

-4401.65 146.884 -92.8695
146.884 1083.2 363.844
-92.8695 363.844 1363.77

-4967.4 52.4175 287.334
52.4175 136.616 -9.62332
287.334 -9.62332 -690.099

-5081.68 -48.1703 229.012
-48.1703 1210.54 237.527
229.012 237.527 508.334

-6788.28 -19.073 -79.3351
-19.073 -649.83 280.072
-79.3351 280.072 -690.181

-5887.34 181.293 60.4413
181.293 -961.108 -47.8161
60.4413 -47.8161 -689.912

-5348.31 -532.575 -347.323
-532.575 -288.353 154.18
-347.323 154.18 163.343

-5339.2 200.344 231.866
200.344 -217.685 -215.752
231.866 -215.752 -19.4032

-10424.3 -261.978 833.041
-261.978 -9329.94 -90.0395
833.041 -90.0395 -9047.99

-8406.36 522.882 1171.33
522.882 -6271.85 98.4291
1171.33 98.4291 -5846.86

-6203.77 -180.857 296.23
-180.857 604.263 -211.365
296.23 -211.365 1044.43

-6324.17 1434.39 1337.96
1434.39 -3721.89 280.662
1337.96 280.662 -3805.14

-5640.08 -60.0301 15.6198
-60.0301 50.4036 -53.7699
15.6198 -53.7699 103.311

-4992.53 -211.439 229.197
-211.439 -671.095 123.682
229.197 123.682 353.474

-5910.08 -176.44 -70.8809
-176.44 -403.035 -86.6711
-70.8809 -86.6711 -78.6275

-6509.27 270.534 348.524
270.534 -2377.65 -132.858
348.524 -132.858 -1805.92

-6555.24 1863.95 484.757
1863.95 -3674.14 9.78362
484.757 9.78362 -4523.08

-5375.41 17.826 209.029
17.826 343.053 119.368
209.029 119.368 251.943

-5123.35 1642.45 773.242
1642.45 -2194.55 8.67707
773.242 8.67707 -2548.99

-6057.72 375.775 220.533
375.775 -1753.56 -223.658
220.533 -223.658 -1621.01

-5479.76 217.915 706.522
217.915 -2005.25 -101.976
706.522 -101.976 -1653.99

-6589.75 1906.5 -480.088
1906.5 -3638.45 80.0114
-480.088 80.0114 -4682.04

-6342.04 -30.6289 -95.1324
-30.6289 -1008.16 -142.874
-95.1324 -142.874 -1169.28

-5832.74 -12.3484 64.0233
-12.3484 -32.7405 13.9393
64.0233 13.9393 177.194

-6502.65 141.95 120.445
141.95 -187.064 144.736
120.445 144.736 -39.3511

-4801.6 59.4137 341.894
59.4137 2171.77 -3.54986
341.894 -3.54986 2065.89

-8373.56 817.657 -265.646
817.657 -6639.38 -102.458
-265.646 -102.458 -6925.19

-5300.19 1041.21 64.8046
1041.21 -880.549 43.9602
64.8046 43.9602 -1554.33

-4816.41 1022.25 -136.541
1022.25 -416.63 -237.247
-136.541 -237.247 -1211.11

-4535.2 574.979 1057.46
574.979 -668.794 182.86
1057.46 182.86 -462.646

-5533.04 -116.846 2080.6
-116.846 -3904.89 1.26641
2080.6 1.26641 -2729.56

-7275.97 880.035 676.989
880.035 -5067.2 -9.76095
676.989 -9.76095 -5072.68

-5334.69 832.023 1137.62
832.023 -1507.18 157.948
1137.62 157.948 -1037.16

-7238.38 1543.47 1368.64
1543.47 -4433.21 437.298
1368.64 437.298 -4686.98

