# vtk DataFile Version 3.0
vtk output at time 0.5
ASCII
DATASET UNSTRUCTURED_GRID
POINTS 527 float
0 0 0 0 0 0.05 0 0 0.1 
0 0 0.15 0 0 0.2 0 0.05 0 
0 0.05 0.05 0 0.05 0.1 0 0.05 0.15 
0 0.05 0.2 0 0.1 0 0 0.1 0.05 
0 0.1 0.1 0 0.1 0.15 0 0.1 0.2 
0 0.15 0 0 0.15 0.05 0 0.15 0.1 
0 0.15 0.15 0 0.15 0.2 0 0.2 0 
0 0.2 0.05 0 0.2 0.1 0 0.2 0.15 
0 0.2 0.2 0.05 0 0 0.05 0 0.05 
0.05 0 0.1 0.05 0 0.15 0.05 0 0.2 
0.05 0.05 0 0.05 0.05 0.2 0.05 0.1 0 
0.05 0.1 0.2 0.05 0.15 0 0.05 0.15 0.2 
0.05 0.2 0 0.05 0.2 0.05 0.05 0.2 0.1 
0.05 0.2 0.15 0.05 0.2 0.2 0.1 0 0 
0.1 0 0.05 0.1 0 0.1 0.1 0 0.15 
0.1 0 0.2 0.1 0.05 0 0.1 0.05 0.2 
0.1 0.1 0 0.1 0.1 0.2 0.1 0.15 0 
0.1 0.15 0.2 0.1 0.2 0 0.1 0.2 0.05 
0.1 0.2 0.1 0.1 0.2 0.15 0.1 0.2 0.2 
0.15 0 0 0.15 0 0.05 0.15 0 0.1 
0.15 0 0.15 0.15 0 0.2 0.15 0.05 0 
0.15 0.05 0.2 0.15 0.1 0 0.15 0.1 0.2 
0.15 0.15 0 0.15 0.15 0.2 0.15 0.2 0 
0.15 0.2 0.05 0.15 0.2 0.1 0.15 0.2 0.15 
0.15 0.2 0.2 0.2 0 0 0.2 0 0.05 
0.2 0 0.1 0.2 0 0.15 0.2 0 0.2 
0.2 0.05 0 0.2 0.05 0.05 0.2 0.05 0.1 
0.2 0.05 0.15 0.2 0.05 0.2 0.2 0.1 0 
0.2 0.1 0.05 0.2 0.1 0.1 0.2 0.1 0.15 
0.2 0.1 0.2 0.2 0.15 0 0.2 0.15 0.05 
0.2 0.15 0.1 0.2 0.15 0.15 0.2 0.15 0.2 
0.2 0.2 0 0.2 0.2 0.05 0.2 0.2 0.1 
0.2 0.2 0.15 0.2 0.2 0.2 0 0.025 0 
0.025 0 0 0.025 0 0.025 0 0 0.025 
0 0.025 0.025 0.025 0 0.05 0 0.025 0.05 
0 0.025 0.075 0 0 0.075 0 0.025 0.1 
0.025 0 0.075 0.025 0 0.1 0.025 0 0.125 
0 0 0.125 0.025 0 0.15 0 0.025 0.175 
0 0.025 0.15 0 0 0.175 0 0.025 0.125 
0.025 0 0.175 0 0.025 0.2 0.025 0 0.2 
0.025 0.025 0.025 0 0.05 0.025 0.025 0.025 0 
0.025 0.05 0 0.025 0.075 0 0 0.075 0.025 
0 0.075 0 0.025 0.025 0.05 0 0.05 0.075 
0 0.075 0.05 0.05 0.075 0.025 0.025 0.075 0.025 
0.05 0.05 0.025 0.025 0.05 0.025 0.05 0.025 0.075 
0.05 0.025 0.05 0 0.075 0.075 0.05 0.075 0.05 
0.05 0.025 0.1 0.025 0.025 0.075 0.025 0.025 0.125 
0.05 0.025 0.125 0.025 0.025 0.1 0 0.05 0.125 
0 0.075 0.125 0 0.075 0.1 0 0.05 0.175 
0.025 0.025 0.15 0.025 0.075 0.175 0.025 0.05 0.175 
0.05 0.075 0.175 0 0.075 0.15 0.05 0.05 0.175 
0.05 0.025 0.15 0.025 0.025 0.175 0.025 0.075 0.2 
0.025 0.05 0.2 0.025 0.025 0.2 0 0.075 0.175 
0 0.075 0.2 0 0.125 0 0.025 0.1 0 
0 0.1 0.025 0.05 0.1 0.025 0 0.125 0.025 
0 0.125 0.05 0.025 0.125 0.025 0.025 0.1 0.025 
0 0.1 0.075 0.05 0.125 0.025 0 0.125 0.075 
0 0.1 0.125 0.05 0.15 0.125 0.05 0.125 0.15 
0.05 0.1 0.15 0.05 0.15 0.1 0.05 0.125 0.05 
0.05 0.1 0.05 0 0.125 0.1 0.05 0.05 0.1 
0.05 0.05 0.125 0.1 0.1 0.1 0.05 0.15 0.15 
0.05 0.125 0.175 0 0.125 0.175 0 0.125 0.15 
0.025 0.125 0.175 0.025 0.1 0.175 0 0.1 0.175 
0 0.125 0.125 0.05 0.1 0.175 0.05 0.05 0.15 
0.025 0.1 0.2 0 0.125 0.2 0 0.15 0.025 
0.025 0.15 0 0.025 0.175 0 0.025 0.175 0.025 
0.025 0.125 0 0 0.175 0.025 0 0.175 0 
0.025 0.15 0.025 0.025 0.175 0.05 0.05 0.15 0.025 
0.05 0.175 0.05 0 0.175 0.05 0 0.15 0.075 
0.05 0.175 0.075 0.025 0.175 0.075 0.05 0.175 0.1 
0.025 0.175 0.1 0 0.175 0.1 0.025 0.175 0.125 
0 0.175 0.075 0.05 0.175 0.125 0 0.15 0.125 
0 0.175 0.125 0.05 0.15 0.05 0 0.15 0.175 
0.025 0.15 0.175 0.025 0.175 0.15 0.05 0.15 0.175 
0 0.175 0.15 0.05 0.175 0.15 0.025 0.175 0.175 
0.025 0.15 0.2 0.025 0.175 0.2 0 0.175 0.175 
0.025 0.125 0.2 0 0.175 0.2 0.025 0.2 0 
0.025 0.2 0.025 0 0.2 0.025 0.025 0.2 0.05 
0 0.2 0.075 0.025 0.2 0.1 0.025 0.2 0.125 
0.025 0.2 0.075 0 0.2 0.125 0.025 0.2 0.15 
0 0.2 0.175 0.025 0.2 0.175 0.025 0.2 0.2 
0.05 0 0.025 0.075 0 0 0.075 0.025 0 
0.05 0.025 0 0.075 0 0.025 0.075 0.025 0.025 
0.05 0.025 0.025 0.075 0 0.075 0.075 0 0.05 
0.05 0 0.075 0.075 0 0.1 0.05 0 0.125 
0.075 0.025 0.175 0.075 0 0.175 0.075 0 0.15 
0.075 0 0.125 0.05 0.025 0.175 0.05 0 0.175 
0.075 0.025 0.2 0.075 0 0.2 0.05 0.025 0.2 
0.075 0.05 0 0.05 0.075 0 0.05 0.075 0.2 
0.075 0.05 0.2 0.075 0.075 0 0.075 0.1 0 
0.05 0.125 0 0.075 0.125 0 0.05 0.125 0.2 
0.075 0.1 0.2 0.075 0.075 0.2 0.075 0.125 0.2 
0.05 0.175 0 0.05 0.175 0.025 0.075 0.15 0 
0.05 0.175 0.175 0.05 0.175 0.2 0.075 0.15 0.2 
0.05 0.2 0.025 0.075 0.2 0 0.075 0.175 0 
0.075 0.2 0.075 0.05 0.2 0.075 0.075 0.2 0.025 
0.075 0.175 0.025 0.075 0.2 0.05 0.075 0.2 0.1 
0.05 0.2 0.125 0.05 0.2 0.175 0.075 0.175 0.175 
0.075 0.2 0.15 0.075 0.2 0.175 0.075 0.2 0.125 
0.075 0.2 0.2 0.075 0.175 0.2 0.1 0.025 0 
0.1 0 0.025 0.125 0 0 0.125 0 0.025 
0.1 0.025 0.025 0.125 0 0.05 0.1 0 0.075 
0.125 0.05 0.025 0.1 0.05 0.025 0.1 0.05 0.15 
0.15 0.05 0.125 0.15 0.05 0.1 0.125 0.05 0.05 
0.1 0.05 0.05 0.1 0 0.125 0.125 0 0.075 
0.125 0 0.125 0.125 0.05 0.15 0.125 0 0.1 
0.1 0.025 0.175 0.1 0 0.175 0.1 0.05 0.175 
0.125 0 0.15 0.125 0.05 0.175 0.1 0.025 0.2 
0.125 0 0.2 0.125 0 0.175 0.1 0.075 0 
0.125 0.025 0 0.125 0.025 0.025 0.125 0.05 0 
0.125 0.075 0 0.125 0.025 0.2 0.125 0.025 0.175 
0.1 0.075 0.2 0.125 0.075 0.2 0.125 0.05 0.2 
0.15 0.1 0.05 0.125 0.1 0 0.1 0.125 0 
0.15 0.125 0.05 0.125 0.15 0.05 0.1 0.15 0.05 
0.15 0.1 0.175 0.15 0.1 0.15 0.15 0.125 0.15 
0.1 0.15 0.175 0.1 0.15 0.15 0.125 0.15 0.175 
0.125 0.15 0.15 0.15 0.125 0.175 0.125 0.1 0.2 
0.1 0.125 0.2 0.1 0.175 0 0.1 0.175 0.025 
0.125 0.175 0.025 0.125 0.175 0 0.125 0.15 0 
0.15 0.15 0.05 0.125 0.175 0.05 0.1 0.175 0.05 
0.125 0.125 0 0.1 0.175 0.175 0.1 0.175 0.2 
0.125 0.175 0.175 0.125 0.175 0.2 0.15 0.15 0.175 
0.125 0.15 0.2 0.125 0.125 0.2 0.1 0.2 0.025 
0.125 0.2 0.025 0.125 0.2 0 0.1 0.2 0.075 
0.125 0.2 0.05 0.1 0.2 0.125 0.15 0.175 0.1 
0.125 0.2 0.1 0.15 0.15 0.1 0.125 0.2 0.125 
0.125 0.2 0.075 0.1 0.2 0.175 0.125 0.2 0.15 
0.125 0.2 0.175 0.125 0.2 0.2 0.15 0 0.025 
0.15 0.025 0 0.175 0 0 0.175 0.025 0 
0.15 0.025 0.025 0.175 0.05 0.05 0.175 0.025 0.075 
0.175 0.05 0.075 0.15 0.05 0.025 0.175 0 0.025 
0.175 0.025 0.025 0.15 0 0.075 0.175 0 0.05 
0.175 0.025 0.05 0.175 0 0.075 0.175 0.025 0.1 
0.15 0 0.125 0.175 0.05 0.125 0.175 0.05 0.1 
0.15 0.05 0.05 0.175 0 0.1 0.175 0.025 0.125 
0.175 0.05 0.15 0.15 0 0.175 0.175 0 0.15 
0.175 0.025 0.15 0.15 0.025 0.175 0.175 0.025 0.175 
0.175 0 0.175 0.15 0.05 0.175 0.175 0 0.125 
0.15 0.025 0.2 0.175 0.025 0.2 0.175 0 0.2 
0.15 0.075 0 0.175 0.05 0 0.175 0.075 0.025 
0.175 0.05 0.025 0.175 0.05 0.2 0.175 0.075 0.175 
0.175 0.05 0.175 0.15 0.075 0.2 0.175 0.1 0.05 
0.175 0.125 0.05 0.175 0.075 0 0.175 0.1 0.025 
0.175 0.1 0 0.15 0.125 0 0.175 0.125 0.025 
0.175 0.125 0 0.175 0.125 0.2 0.175 0.125 0.175 
0.175 0.1 0.175 0.175 0.075 0.2 0.175 0.1 0.2 
0.15 0.125 0.2 0.15 0.175 0 0.15 0.175 0.025 
0.175 0.15 0.05 0.15 0.175 0.05 0.175 0.15 0 
0.175 0.15 0.025 0.175 0.15 0.2 0.15 0.175 0.2 
0.15 0.175 0.175 0.175 0.15 0.175 0.15 0.2 0.025 
0.175 0.2 0 0.175 0.175 0 0.175 0.2 0.025 
0.175 0.175 0.025 0.175 0.2 0.05 0.175 0.175 0.075 
0.175 0.2 0.075 0.15 0.2 0.075 0.175 0.175 0.05 
0.15 0.2 0.125 0.175 0.175 0.1 0.175 0.2 0.1 
0.175 0.175 0.175 0.175 0.2 0.15 0.175 0.175 0.15 
0.175 0.175 0.125 0.15 0.2 0.175 0.175 0.2 0.175 
0.175 0.2 0.125 0.175 0.175 0.2 0.175 0.2 0.2 
0.2 0.025 0 0.2 0 0.025 0.2 0.025 0.025 
0.2 0.025 0.05 0.2 0.025 0.075 0.2 0 0.075 
0.2 0.025 0.1 0.2 0 0.125 0.2 0.025 0.125 
0.2 0.025 0.15 0.2 0 0.175 0.2 0.025 0.175 
0.2 0.025 0.2 0.2 0.075 0.025 0.2 0.075 0 
0.2 0.05 0.025 0.2 0.075 0.05 0.2 0.05 0.075 
0.2 0.075 0.125 0.2 0.075 0.075 0.2 0.075 0.1 
0.2 0.05 0.125 0.2 0.075 0.15 0.2 0.05 0.175 
0.2 0.075 0.175 0.2 0.075 0.2 0.2 0.1 0.025 
0.2 0.125 0 0.2 0.1 0.075 0.2 0.125 0.025 
0.2 0.125 0.05 0.2 0.125 0.075 0.2 0.1 0.125 
0.2 0.125 0.1 0.2 0.125 0.125 0.2 0.125 0.15 
0.2 0.125 0.175 0.2 0.1 0.175 0.2 0.125 0.2 
0.2 0.175 0 0.2 0.175 0.025 0.2 0.15 0.025 
0.2 0.15 0.075 0.2 0.175 0.05 0.2 0.175 0.125 
0.2 0.15 0.125 0.2 0.175 0.075 0.2 0.175 0.1 
0.2 0.15 0.175 0.2 0.175 0.15 0.2 0.175 0.175 
0.2 0.175 0.2 0.2 0.2 0.025 0.2 0.2 0.075 
0.2 0.2 0.125 0.2 0.2 0.175 

CELLS 236 2596
10 69 93 88 68 452 510 453 449 450 451 
10 28 47 45 44 255 323 256 257 318 319 
10 93 69 88 94 452 453 510 523 454 511 
10 43 49 86 85 308 342 309 310 343 503 
10 5 1 26 6 102 103 120 121 104 127 
10 82 86 81 63 495 493 494 421 422 423 
10 7 11 48 6 136 163 137 128 129 130 
10 37 17 54 38 208 209 285 286 210 290 
10 55 13 12 51 182 171 172 361 183 173 
10 90 86 49 85 505 342 344 504 503 343 
10 37 52 50 36 287 352 288 282 283 284 
10 91 92 65 86 519 433 434 506 507 435 
10 82 65 86 63 436 435 495 421 424 422 
10 25 5 0 26 122 98 99 243 120 100 
10 46 32 6 48 268 131 132 326 269 130 
10 57 46 58 62 327 328 383 384 329 387 
10 26 41 25 46 247 244 243 248 299 245 
10 22 38 39 17 235 291 236 211 210 212 
10 55 49 12 54 345 174 172 373 346 175 
10 26 5 6 30 120 121 127 249 123 133 
10 25 30 26 46 246 249 243 245 264 248 
10 11 15 16 34 164 194 165 166 195 201 
10 82 65 87 86 436 437 496 495 435 508 
10 15 34 36 37 195 276 196 197 277 282 
10 43 85 64 48 310 425 311 312 336 337 
10 1 5 26 0 102 120 103 101 98 100 
10 52 37 50 53 287 288 352 368 289 353 
10 60 80 59 86 404 398 399 405 489 400 
10 48 7 6 43 137 128 130 312 138 134 
10 92 71 96 91 462 463 521 519 464 520 
10 26 7 43 6 139 138 250 127 128 134 
10 6 26 46 42 127 248 132 135 251 303 
10 32 15 10 11 198 160 161 167 164 162 
10 90 71 70 49 465 459 460 344 347 348 
10 28 9 8 3 154 146 147 112 113 114 
10 68 69 50 66 449 354 355 439 440 356 
10 49 90 54 70 344 374 346 348 460 375 
10 28 43 7 44 258 138 140 257 313 141 
10 92 72 71 67 469 466 462 445 446 447 
10 71 56 51 72 381 362 363 466 382 364 
10 50 37 16 53 288 202 203 353 289 204 
10 5 6 30 32 121 133 123 124 131 265 
10 39 19 35 40 224 225 279 292 226 280 
10 12 11 50 48 168 169 176 177 163 338 
10 21 15 37 16 199 197 233 205 194 202 
10 28 4 9 3 117 118 154 112 115 113 
10 80 84 58 85 490 388 389 491 499 390 
10 15 36 20 37 196 230 200 197 282 231 
10 15 20 21 37 200 232 199 197 231 233 
10 19 18 35 13 218 219 225 184 185 186 
10 39 51 35 18 293 281 279 220 221 219 
10 15 34 37 16 195 277 197 194 201 202 
10 19 23 39 18 227 239 224 218 222 220 
10 5 6 32 11 121 131 124 125 129 167 
10 10 5 32 11 126 124 161 162 125 167 
10 19 33 14 13 228 192 193 184 187 188 
10 26 41 46 42 247 299 248 251 300 303 
10 24 19 39 40 229 224 241 242 226 292 
10 51 91 67 65 365 448 366 367 434 438 
10 17 21 37 16 213 233 208 206 205 202 
10 37 22 21 17 237 234 233 208 211 213 
10 49 91 65 86 349 434 350 342 506 435 
10 7 1 26 2 105 103 139 107 106 108 
10 17 55 12 54 214 172 178 209 373 175 
10 19 33 13 35 228 187 184 225 272 186 
10 7 2 26 27 107 108 139 142 109 252 
10 33 9 8 31 155 146 148 266 156 149 
10 55 18 39 17 223 220 294 214 215 212 
10 23 22 39 17 238 236 239 216 211 212 
10 18 23 39 17 222 239 220 215 216 212 
10 26 7 27 43 139 142 252 250 138 253 
10 32 15 11 34 198 164 167 270 195 166 
10 39 19 18 35 224 218 220 279 225 219 
10 23 19 39 24 227 224 239 240 229 241 
10 28 9 31 8 154 156 259 147 146 149 
10 28 4 29 9 117 119 260 154 118 157 
10 51 91 49 71 365 349 351 363 464 347 
10 96 71 90 91 463 465 515 520 464 516 
10 13 55 12 17 182 172 171 189 214 178 
10 92 71 91 67 462 464 519 445 447 448 
10 25 5 26 30 122 120 243 246 123 249 
10 47 61 45 60 331 324 323 332 406 325 
10 33 49 8 13 273 150 148 187 190 151 
10 85 90 64 48 504 426 425 336 339 337 
10 13 9 8 33 158 146 151 187 155 148 
10 78 64 84 83 427 428 484 485 429 497 
10 6 32 11 48 131 167 129 130 269 163 
10 16 37 54 53 202 285 207 204 289 371 
10 47 33 8 31 274 148 152 267 266 149 
10 1 7 26 6 105 139 103 104 128 127 
10 76 80 60 81 479 404 407 480 492 408 
10 90 94 69 95 517 454 455 518 524 456 
10 90 50 70 66 357 358 460 441 356 442 
10 7 2 27 28 107 109 142 140 110 254 
10 29 28 47 45 260 255 261 262 256 323 
10 3 7 8 28 116 143 114 112 140 147 
10 29 28 31 47 260 259 263 261 255 267 
10 47 33 49 8 274 273 333 152 148 150 
10 28 8 31 47 147 149 259 255 152 267 
10 90 70 69 66 460 457 455 441 442 440 
10 71 97 92 96 467 522 462 463 526 521 
10 58 46 64 62 328 330 391 387 329 417 
10 13 9 33 14 158 155 187 188 159 192 
10 39 56 40 51 295 297 292 293 362 298 
10 3 7 28 2 116 140 112 111 107 110 
10 46 57 58 41 327 383 328 299 301 302 
10 90 50 48 70 357 338 339 460 358 340 
10 90 54 70 48 374 375 460 339 341 340 
10 58 43 64 42 314 311 391 304 305 306 
10 28 43 27 7 258 253 254 140 138 142 
10 8 49 47 44 150 333 152 153 320 318 
10 28 8 47 44 147 152 255 257 153 318 
10 43 49 12 44 308 174 179 313 320 180 
10 12 49 13 44 174 190 171 180 320 191 
10 49 8 13 44 150 151 190 320 153 191 
10 12 13 7 44 171 144 145 180 191 141 
10 43 12 7 44 179 145 138 313 180 141 
10 13 8 7 44 151 143 144 191 153 141 
10 7 8 28 44 143 147 140 141 153 257 
10 91 51 49 65 365 351 349 434 367 350 
10 92 87 65 86 509 437 433 507 508 435 
10 63 61 60 82 414 406 409 421 415 410 
10 60 61 77 82 406 416 411 410 415 483 
10 67 51 72 71 366 364 446 447 363 466 
10 91 92 67 65 519 445 448 434 433 438 
10 63 60 81 82 409 408 423 421 410 494 
10 76 60 77 82 407 411 481 482 410 483 
10 60 76 81 82 407 480 408 410 482 494 
10 39 56 51 55 295 362 293 294 379 361 
10 18 35 13 51 219 186 185 221 281 183 
10 55 13 51 18 182 183 361 223 185 221 
10 49 55 12 51 345 172 174 351 361 173 
10 35 33 13 51 272 187 186 281 275 183 
10 33 49 13 51 273 190 187 275 351 183 
10 49 12 13 51 174 171 190 351 173 183 
10 55 13 18 17 182 185 223 214 189 215 
10 71 56 55 51 381 379 380 363 362 361 
10 51 40 39 35 298 292 293 281 280 279 
10 37 36 50 34 282 284 288 277 276 278 
10 47 60 44 65 332 321 318 334 412 322 
10 49 47 44 65 333 318 320 350 334 322 
10 47 61 60 63 331 406 332 335 414 409 
10 43 44 60 65 313 321 315 316 322 412 
10 43 49 44 65 308 320 313 316 350 322 
10 39 51 18 55 293 221 220 294 361 223 
10 54 39 38 17 296 291 290 209 212 210 
10 90 70 95 69 460 461 518 455 457 456 
10 49 12 54 85 174 175 346 343 181 376 
10 71 49 54 70 347 346 377 459 348 375 
10 51 91 71 67 365 464 363 366 448 447 
10 49 55 51 71 345 361 351 347 380 363 
10 6 43 26 42 134 250 127 135 305 251 
10 73 58 78 57 392 393 471 385 383 386 
10 37 22 17 38 237 211 208 286 235 210 
10 43 49 65 86 308 350 316 309 342 435 
10 59 43 60 86 317 315 399 400 309 405 
10 60 43 65 86 315 316 412 405 309 435 
10 63 60 65 86 409 412 424 422 405 435 
10 60 63 81 86 409 423 408 405 422 493 
10 37 17 16 54 208 206 202 285 209 207 
10 71 95 90 70 468 518 465 459 461 460 
10 49 55 71 54 345 380 347 346 373 377 
10 95 71 90 96 468 465 518 525 463 515 
10 88 69 66 89 453 440 443 512 458 444 
10 90 49 54 85 344 346 374 504 343 376 
10 78 64 62 84 427 417 418 484 428 419 
10 90 66 89 64 441 444 513 426 430 431 
10 54 90 85 48 374 504 376 341 339 336 
10 69 68 88 66 449 451 453 440 439 443 
10 9 29 28 31 157 260 154 156 263 259 
10 54 12 50 48 175 176 359 341 177 338 
10 88 69 89 94 453 458 512 511 454 514 
10 78 58 62 57 393 387 418 386 383 384 
10 69 54 50 70 378 359 354 457 375 358 
10 90 86 91 49 505 506 516 344 342 349 
10 12 54 85 48 175 376 181 177 341 336 
10 89 66 88 64 444 443 512 431 430 432 
10 88 84 89 64 500 501 512 432 428 431 
10 69 70 50 66 457 358 354 440 442 356 
10 49 43 12 85 308 179 174 343 310 181 
10 92 72 97 71 469 470 522 462 466 467 
10 90 94 89 69 517 514 513 455 454 458 
10 69 54 53 50 378 371 372 354 359 353 
10 68 69 52 50 449 369 370 355 354 352 
10 48 7 43 12 137 138 312 177 145 179 
10 69 90 66 89 455 441 440 458 513 444 
10 59 43 86 85 317 309 400 401 310 503 
10 60 80 86 81 404 489 405 408 492 493 
10 69 53 52 50 372 368 369 354 353 352 
10 90 71 49 91 465 347 344 516 464 349 
10 50 37 34 16 288 277 278 203 202 201 
10 54 16 53 50 207 204 371 359 203 353 
10 46 32 30 6 268 265 264 132 131 133 
10 32 34 11 50 270 166 167 271 278 169 
10 12 17 54 50 178 209 175 176 217 359 
10 17 16 54 50 206 207 209 217 203 359 
10 11 17 12 50 170 178 168 169 217 176 
10 11 16 17 50 165 206 170 169 203 217 
10 11 34 16 50 166 201 165 169 278 203 
10 11 7 48 12 136 137 163 168 145 177 
10 64 50 90 66 360 357 426 430 356 441 
10 90 89 84 64 513 501 502 426 431 428 
10 85 59 58 80 401 394 390 491 398 389 
10 60 45 47 44 325 323 332 321 319 318 
10 11 32 50 48 167 271 169 163 269 338 
10 50 64 90 48 360 426 357 338 337 339 
10 43 12 85 48 179 181 310 312 177 336 
10 59 43 85 64 317 310 401 402 311 425 
10 30 6 26 46 133 127 249 264 132 248 
10 46 41 58 42 299 302 328 303 300 304 
10 90 84 85 64 502 499 504 426 428 425 
10 84 62 78 79 419 418 484 487 420 486 
10 70 54 50 48 375 359 358 340 341 338 
10 78 74 79 58 473 474 486 393 395 396 
10 58 46 42 64 328 303 304 391 330 306 
10 54 39 17 55 296 212 209 373 294 214 
10 43 6 48 42 134 130 312 305 135 307 
10 84 64 62 58 428 417 419 388 391 387 
10 58 80 75 74 389 477 397 395 475 476 
10 47 60 65 63 332 412 334 335 409 424 
10 58 80 74 79 389 475 395 396 488 474 
10 85 59 64 58 401 402 425 390 394 391 
10 84 85 64 58 499 425 428 388 390 391 
10 60 75 80 76 413 477 404 407 478 479 
10 48 6 46 42 130 132 326 307 135 303 
10 58 43 59 64 314 317 394 391 311 402 
10 64 43 48 42 311 312 337 306 305 307 
10 64 48 46 42 337 326 330 306 307 303 
10 86 59 85 80 400 401 503 489 398 491 
10 59 58 80 75 394 389 398 403 397 477 
10 60 75 59 80 413 403 399 404 477 398 
10 62 84 58 79 419 388 387 420 487 396 
10 88 84 64 83 500 428 432 498 497 429 
10 80 84 79 58 490 487 488 389 388 396 
10 78 58 79 62 393 396 486 418 387 420 
10 78 74 58 73 473 395 393 471 472 392 

CELL_TYPES 236
24
24
24
24
24
24
24
24
24
24
24
24
24
24
24
24
24
24
24
24
24
24
24
24
24
24
24
24
24
24
24
24
24
24
24
24
24
24
24
24
24
24
24
24
24
24
24
24
24
24
24
24
24
24
24
24
24
24
24
24
24
24
24
24
24
24
24
24
24
24
24
24
24
24
24
24
24
24
24
24
24
24
24
24
24
24
24
24
24
24
24
24
24
24
24
24
24
24
24
24
24
24
24
24
24
24
24
24
24
24
24
24
24
24
24
24
24
24
24
24
24
24
24
24
24
24
24
24
24
24
24
24
24
24
24
24
24
24
24
24
24
24
24
24
24
24
24
24
24
24
24
24
24
24
24
24
24
24
24
24
24
24
24
24
24
24
24
24
24
24
24
24
24
24
24
24
24
24
24
24
24
24
24
24
24
24
24
24
24
24
24
24
24
24
24
24
24
24
24
24
24
24
24
24
24
24
24
24
24
24
24
24
24
24
24
24
24
24
24
24
24
24
24
24
24
24
24
24
24
24
24
24
24
24
24
24

POINT_DATA 527
VECTORS displacement float
0 0 0
0 0 0
0 0 0
0 0 0
0 0 0
0 0 0
0 0 0
0 0 0
0 0 0
0 0 0
0 0 0
0 0 0
0 0 0
0 0 0
0 0 0
0 0 0
0 0 0
0 0 0
0 0 0
0 0 0
0 0 0
0 0 0
0 0 0
0 0 0
0 0 0
-0.00781006 -0.00552948 -0.00545083
-0.00586157 -0.00518754 -0.00270719
-0.00515554 -0.00549564 -3.06263e-05
-0.00566543 -0.00549914 0.00272661
-0.00797843 -0.00566704 0.00556623
-0.00582526 -0.00251743 -0.00550394
-0.00568409 -0.00265263 0.00552393
-0.00524656 0.000177234 -0.00542833
-0.00555244 -0.000124972 0.00538796
-0.00492403 0.00314813 -0.00534706
-0.00504557 0.00283043 0.00560783
-0.00790312 0.00591895 -0.00522162
-0.00584983 0.00530358 -0.00255996
-0.00500739 0.00541478 0.00016213
-0.00554709 0.00545972 0.00292623
-0.0079393 0.00570286 0.00561515
-0.0125318 -0.00672786 -0.00709946
-0.0120719 -0.00761409 -0.00404307
-0.0120171 -0.00757762 -0.000166841
-0.0129927 -0.00791203 0.0036661
-0.0126436 -0.00709335 0.00712362
-0.0126756 -0.00389037 -0.00763177
-0.0126 -0.00398922 0.00793241
-0.0121818 5.84447e-05 -0.00780772
-0.011843 4.62322e-06 0.00796911
-0.0125734 0.00428766 -0.00816088
-0.0122457 0.00378565 0.00828733
-0.0124397 0.00753158 -0.00692137
-0.0123639 0.00809368 -0.00362482
-0.0116195 0.00768395 0.000239463
-0.012904 0.00760556 0.004033
-0.0123796 0.0069104 0.00750662
-0.0169511 -0.00620987 -0.00575175
-0.0190216 -0.00600383 -0.00274972
-0.020013 -0.00573681 0.000118415
-0.0193111 -0.00574812 0.00254517
-0.0171381 -0.00650561 0.00540423
-0.0193578 -0.00276666 -0.00644217
-0.0193286 -0.00317131 0.00646351
-0.0203215 0.000167445 -0.00608025
-0.0197628 -0.000283951 0.00613885
-0.0200215 0.00297098 -0.00585087
-0.0194061 0.00242902 0.00605471
-0.0170565 0.00580417 -0.00538694
-0.0186686 0.00581002 -0.0023921
-0.019372 0.00576827 0.000222113
-0.0189952 0.00584197 0.00265753
-0.0170119 0.0055858 0.00564454
-0.025 0 0
-0.025 0 0
-0.025 0 0
-0.025 0 0
-0.025 0 0
-0.025 0 0
-0.025 0 0
-0.025 0 0
-0.025 0 0
-0.025 0 0
-0.025 0 0
-0.025 0 0
-0.025 0 0
-0.025 0 0
-0.025 0 0
-0.025 0 0
-0.025 0 0
-0.025 0 0
-0.025 0 0
-0.025 0 0
-0.025 0 0
-0.025 0 0
-0.025 0 0
-0.025 0 0
-0.025 0 0
0 0 0
-0.0043366 -0.00322875 -0.00488179
-0.00215484 -0.00426522 -0.00279665
0 0 0
0 0 0
-0.00186506 -0.0043023 -0.00170425
0 0 0
0 0 0
0 0 0
0 0 0
-0.00198514 -0.00448304 -0.000811064
-0.0018248 -0.00409617 8.7805e-05
-0.00190017 -0.00431529 0.000991703
0 0 0
-0.00181274 -0.00418117 0.00177184
0 0 0
0 0 0
0 0 0
0 0 0
-0.00211056 -0.00427609 0.0027872
0 0 0
-0.00443655 -0.00326803 0.00492839
-0.00176915 -0.00286585 -0.00255032
0 0 0
-0.00339526 -0.00225426 -0.00413563
-0.00260143 -0.00150225 -0.00364164
-0.00174735 -0.000115184 -0.00426224
0 0 0
0 0 0
-0.00177196 -0.00279437 -0.00151856
0 0 0
0 0 0
-0.00395141 -0.00121412 -0.00446262
-0.00141565 -0.000354654 -0.00293023
-0.00505973 -0.00260289 -0.00406956
-0.00210497 -0.00154716 -0.00267741
-0.00447587 -0.00408499 -0.00134035
-0.00508134 -0.00380125 -0.00270999
0 0 0
-0.00341697 -0.00129397 -0.00325677
-0.00448732 -0.00413334 -0.000128326
-0.00154378 -0.00297427 -0.000690095
-0.00141766 -0.00281729 0.000908531
-0.0036509 -0.00464897 0.00148482
-0.00151759 -0.00298874 9.51211e-05
0 0 0
0 0 0
0 0 0
0 0 0
-0.00159416 -0.00275762 0.0016958
-0.00155323 -0.000606626 0.00297741
-0.00192885 -0.00162988 0.00270515
-0.0043691 -0.00140065 0.0042465
0 0 0
-0.00486799 -0.00273428 0.00406263
-0.00406354 -0.00436081 0.00286415
-0.00172294 -0.00288424 0.00263807
-0.00182548 -0.000329527 0.00438691
-0.00246112 -0.00157988 0.00370359
-0.00338319 -0.00228641 0.00420161
0 0 0
0 0 0
0 0 0
-0.00174026 0.000516244 -0.00429309
0 0 0
-0.00338369 0.000248032 -0.00468706
0 0 0
0 0 0
-0.00122855 0.00107361 -0.00274377
-0.0013671 0.000380505 -0.00277883
0 0 0
-0.00344839 0.00159264 -0.00457618
0 0 0
0 0 0
-0.00375018 0.0030972 0.00154776
-0.00395074 0.00151071 0.00311693
-0.00426888 2.03926e-05 0.00339487
-0.00400927 0.00323061 4.55208e-05
-0.00351154 0.00164316 -0.00313046
-0.00365379 0.000215702 -0.00329982
0 0 0
-0.0042834 -0.00316975 -9.13786e-05
-0.00372566 -0.00324802 0.0014759
-0.0123742 7.96079e-05 3.70966e-05
-0.00355205 0.00308914 0.00308795
-0.00411604 0.00143525 0.00433149
0 0 0
0 0 0
-0.00134321 0.000933387 0.00295416
-0.00150062 0.000225312 0.00293956
0 0 0
0 0 0
-0.00435088 -4.52763e-05 0.00433193
-0.00361795 -0.00311435 0.00303106
-0.00186338 0.000331326 0.0045396
0 0 0
0 0 0
-0.00179075 0.00183983 -0.00355671
-0.00315238 0.00218765 -0.00389944
-0.00171303 0.00264463 -0.00248204
-0.00176245 0.00117367 -0.00396382
0 0 0
0 0 0
-0.00146138 0.00182322 -0.00248066
-0.00177765 0.00274602 -0.00143791
-0.00390162 0.00304107 -0.00412069
-0.00468264 0.00410364 -0.00255032
0 0 0
0 0 0
-0.00425285 0.00417777 -0.00118052
-0.00149571 0.00291885 -0.000635921
-0.00419826 0.00412531 6.99191e-05
-0.00146103 0.00288296 0.000163718
0 0 0
-0.00139859 0.00282043 0.000979139
0 0 0
-0.00361143 0.00456833 0.00160109
0 0 0
0 0 0
-0.00350303 0.00304708 -0.0030109
0 0 0
-0.00150543 0.00168122 0.00274534
-0.00158086 0.00266087 0.00174191
-0.00415035 0.00274899 0.00426339
0 0 0
-0.00384178 0.00441224 0.0029586
-0.00166015 0.00257247 0.00269564
-0.00185341 0.0016674 0.00389001
-0.00322027 0.00204704 0.00413173
0 0 0
-0.00189075 0.00103598 0.00427122
0 0 0
-0.004337 0.00314135 -0.00471874
-0.00211367 0.00414496 -0.00262996
0 0 0
-0.00184618 0.00425661 -0.00164329
0 0 0
-0.00175249 0.00398116 0.000175142
-0.00185077 0.00422381 0.00105764
-0.00195509 0.0043694 -0.00070809
0 0 0
-0.00175973 0.00406002 0.00189269
0 0 0
-0.00202595 0.00401171 0.00281296
-0.00438846 0.00301222 0.00491688
-0.0065935 -0.00544292 -0.00426177
-0.0102331 -0.0062788 -0.00618804
-0.00957561 -0.00497978 -0.0064141
-0.00636086 -0.00400747 -0.00574444
-0.00953275 -0.00624448 -0.00493988
-0.00884075 -0.00488843 -0.00509962
-0.00521724 -0.00388904 -0.00430212
-0.00879414 -0.00636359 -0.001882
-0.00886556 -0.00633663 -0.00354257
-0.0055739 -0.00544719 -0.00144668
-0.00842038 -0.00653273 -7.39811e-05
-0.00551936 -0.00554731 0.00140307
-0.00880069 -0.00515728 0.00522353
-0.00968834 -0.00660187 0.00506818
-0.00916282 -0.00681604 0.00336976
-0.00849191 -0.0070153 0.0017752
-0.00515264 -0.00407921 0.00433491
-0.00665593 -0.00559697 0.00434395
-0.00961062 -0.00518377 0.00649552
-0.0104007 -0.00654446 0.00631266
-0.00634557 -0.0041406 0.00582961
-0.00922728 -0.00333186 -0.00662091
-0.00547564 -0.0012124 -0.00555443
-0.00550426 -0.00139252 0.00555592
-0.0091314 -0.0034671 0.0066843
-0.00859881 -0.00180096 -0.00682225
-0.00835119 7.0724e-05 -0.00688056
-0.00502685 0.00167755 -0.00553274
-0.00832027 0.00188914 -0.00709162
-0.0052697 0.00136829 0.00563737
-0.00856001 -0.000134245 0.00666011
-0.00869944 -0.00187486 0.00670701
-0.00858945 0.00155286 0.00684303
-0.00590993 0.00454983 -0.00562392
-0.00472638 0.00428602 -0.00409358
-0.00862096 0.0039801 -0.00667776
-0.00481052 0.00408916 0.00438121
-0.00604422 0.00424071 0.00594564
-0.00862109 0.00351107 0.00684135
-0.00665437 0.00565079 -0.00403128
-0.0102133 0.00708129 -0.00586129
-0.00927468 0.0057826 -0.00627343
-0.00864193 0.00649676 -0.00154141
-0.00549674 0.00541824 -0.00123581
-0.00947449 0.00693664 -0.00467079
-0.00835717 0.00552348 -0.00496307
-0.00889664 0.006758 -0.00321994
-0.00816509 0.00655701 0.000190535
-0.00535497 0.0054377 0.00157031
-0.00654641 0.00554361 0.00443425
-0.00842389 0.00516288 0.00537111
-0.00895729 0.00675782 0.00366673
-0.00942416 0.00659021 0.00529472
-0.00827606 0.0068707 0.00194321
-0.0102378 0.00651538 0.00645969
-0.00936046 0.00520526 0.00664942
-0.0125335 -0.00554676 -0.0072237
-0.0122635 -0.00703584 -0.00575375
-0.0146868 -0.00634924 -0.00649951
-0.0151293 -0.00641397 -0.0052435
-0.0121931 -0.00576827 -0.00584833
-0.0156014 -0.00655079 -0.00367025
-0.0119241 -0.00765092 -0.00218335
-0.016344 -0.00345949 -0.00538983
-0.0122259 -0.00396705 -0.00582006
-0.0122205 -0.00392037 0.00380751
-0.0207652 -0.0029211 0.00156379
-0.0207577 -0.00309042 7.65871e-05
-0.016566 -0.00341523 -0.00366682
-0.0121194 -0.00393092 -0.00377293
-0.0122204 -0.00803654 0.00168619
-0.0158933 -0.00669067 -0.00190381
-0.0161625 -0.00699786 0.00158227
-0.0168904 -0.00360055 0.00385364
-0.0163716 -0.00666236 -3.61187e-05
-0.0127074 -0.00589528 0.00594082
-0.0126953 -0.00727261 0.00560572
-0.012337 -0.00383909 0.00599982
-0.016417 -0.00666002 0.00338765
-0.0167053 -0.00380256 0.00551566
-0.0126347 -0.00584464 0.00744889
-0.0148805 -0.0068077 0.0061419
-0.0155671 -0.00661511 0.00487635
-0.012425 -0.00196893 -0.00779328
-0.0153063 -0.00510085 -0.00661827
-0.0156827 -0.00500815 -0.00533415
-0.0156881 -0.00355448 -0.00678563
-0.0164034 -0.00189027 -0.00695573
-0.015541 -0.00550521 0.00646907
-0.0161992 -0.00532153 0.00525667
-0.0120911 -0.00199277 0.0080245
-0.0161662 -0.00212663 0.00723777
-0.0156878 -0.00391096 0.00686376
-0.0208626 6.45434e-06 -0.00343543
-0.0166642 -5.74163e-05 -0.00704961
-0.0123179 0.00222532 -0.00793558
-0.0207854 0.00147949 -0.00322852
-0.0166724 0.00394332 -0.00333298
-0.0119515 0.00414268 -0.00358027
-0.0211572 -0.000383889 0.0049198
-0.0210025 -0.00027282 0.0034954
-0.0213924 0.00126133 0.00349052
-0.0120299 0.00383214 0.00603266
-0.0121748 0.00371204 0.00375175
-0.0164209 0.00376898 0.00545432
-0.0169093 0.00363861 0.00356485
-0.0209875 0.00107612 0.00483054
-0.0162216 -0.00033322 0.00738412
-0.0118419 0.00199765 0.00812694
-0.0124236 0.00622905 -0.0074313
-0.0122649 0.00637488 -0.00575401
-0.016212 0.00560844 -0.00506483
-0.015552 0.00575431 -0.0064352
-0.0165837 0.00386796 -0.00672328
-0.0203726 0.00298053 -0.00287096
-0.0165068 0.00559919 -0.00343589
-0.01203 0.00618842 -0.00379499
-0.0165438 0.00201271 -0.00674057
-0.0125414 0.0055807 0.00620506
-0.0124 0.00565517 0.00786892
-0.0161926 0.00528997 0.0054174
-0.0154011 0.00516352 0.00670756
-0.0203419 0.00244948 0.00471354
-0.0158798 0.00331047 0.00714908
-0.0160341 0.00139044 0.00740132
-0.0123514 0.00778224 -0.00546535
-0.015136 0.00698586 -0.00481765
-0.0146091 0.0071189 -0.00603199
-0.0118059 0.00795184 -0.00176017
-0.0157911 0.00706795 -0.00338866
-0.0120911 0.00781395 0.00210236
-0.0199214 0.00446925 0.000151267
-0.0158448 0.00713056 0.000255075
-0.0200656 0.0032587 9.06047e-05
-0.0160831 0.00687668 0.0021277
-0.0157925 0.0071896 -0.00164467
-0.0125339 0.00715542 0.00591641
-0.016479 0.00646848 0.00384193
-0.0154166 0.0064714 0.00519162
-0.0145672 0.00653301 0.00641695
-0.0181788 -0.00615501 -0.00449965
-0.0185861 -0.00449815 -0.00637424
-0.0203737 -0.00329365 -0.0054357
-0.0216138 -0.00238737 -0.00486409
-0.019459 -0.00444921 -0.00471114
-0.0233515 -0.00175149 -0.00216971
-0.023351 -0.00326584 -0.000939505
-0.0234447 -0.00198176 -0.000995813
-0.01998 -0.00297272 -0.00454259
-0.0227576 -0.00426502 -0.0032134
-0.0231027 -0.0028942 -0.00339127
-0.0195708 -0.00588 -0.00132684
-0.0231265 -0.00417081 -0.00204311
-0.023243 -0.00291719 -0.002178
-0.0230132 -0.00461359 -0.000963593
-0.023415 -0.00341528 -1.89582e-05
-0.0197159 -0.00585762 0.00149098
-0.0237051 -0.00265245 0.000858832
-0.0235802 -0.00239338 3.50556e-05
-0.0203778 -0.00295432 -0.00301256
-0.0230879 -0.00434594 4.30056e-05
-0.0234001 -0.00341272 0.000866244
-0.023474 -0.00177973 0.00200856
-0.0183704 -0.00617438 0.004203
-0.0232123 -0.00409467 0.00187716
-0.0233422 -0.00286368 0.00199544
-0.0197439 -0.00462942 0.0046288
-0.0231796 -0.00297382 0.00314339
-0.0228403 -0.0043405 0.00295103
-0.0202196 -0.00330436 0.0046147
-0.0229911 -0.00480711 0.000929896
-0.0187489 -0.00489017 0.00622414
-0.0216913 -0.00259065 0.00459323
-0.0204878 -0.00347169 0.00512793
-0.0198277 -0.00122869 -0.00623925
-0.0229005 -0.00175392 -0.00448904
-0.0233621 -0.000829196 -0.00334763
-0.0232984 -0.00189977 -0.00332938
-0.0228951 -0.00198641 0.00423251
-0.0234455 -0.00105598 0.00310891
-0.023388 -0.00205852 0.00309002
-0.0195825 -0.00166435 0.00632596
-0.0235907 0.000103973 -0.00246834
-0.0237239 0.000913523 -0.00283319
-0.0232056 -0.000898835 -0.00465459
-0.0236155 -9.48847e-05 -0.00349696
-0.0233577 -0.000135119 -0.004723
-0.0201539 0.00170853 -0.00595772
-0.0235196 0.000851216 -0.00369159
-0.0233535 0.000557443 -0.0046694
-0.0232597 2.85707e-05 0.0045263
-0.0235833 0.00041656 0.00316234
-0.0234975 -0.000228456 0.00305402
-0.0231617 -0.00114824 0.00441892
-0.0232448 -0.000528074 0.00464325
-0.0195386 0.00108926 0.00615118
-0.0189637 0.00438178 -0.00576052
-0.0197662 0.00434228 -0.00434972
-0.0232978 0.00194148 -0.00234682
-0.0200896 0.00443316 -0.00282536
-0.0227647 0.00179447 -0.00421578
-0.0231677 0.0019146 -0.00335365
-0.0226127 0.00126362 0.00415743
-0.0187288 0.00405401 0.00599887
-0.0198568 0.00406705 0.00455241
-0.023217 0.00136509 0.00317749
-0.0180878 0.00569627 -0.00408754
-0.0205055 0.0034471 -0.00532576
-0.021688 0.00252707 -0.00471418
-0.0226351 0.00447622 -0.00316424
-0.0230077 0.00304182 -0.00323519
-0.0229505 0.00457964 -0.00192364
-0.023237 0.00308593 -0.00120325
-0.0229327 0.0045745 -0.000841624
-0.0192074 0.0058183 -0.00110633
-0.0231574 0.00302033 -0.00220856
-0.0193826 0.00583461 0.0014206
-0.0227465 0.00275108 9.24277e-05
-0.0229013 0.00401211 0.000174791
-0.023248 0.00259766 0.00298128
-0.0231412 0.00413106 0.00199128
-0.0232265 0.00245248 0.00218742
-0.0233471 0.00231752 0.00134093
-0.0181709 0.00553456 0.00436377
-0.0228096 0.00403644 0.00308279
-0.0231812 0.00391348 0.00113577
-0.0216712 0.00203848 0.00451021
-0.0205613 0.00301131 0.0052362
-0.025 0 0
-0.025 0 0
-0.025 0 0
-0.025 0 0
-0.025 0 0
-0.025 0 0
-0.025 0 0
-0.025 0 0
-0.025 0 0
-0.025 0 0
-0.025 0 0
-0.025 0 0
-0.025 0 0
-0.025 0 0
-0.025 0 0
-0.025 0 0
-0.025 0 0
-0.025 0 0
-0.025 0 0
-0.025 0 0
-0.025 0 0
-0.025 0 0
-0.025 0 0
-0.025 0 0
-0.025 0 0
-0.025 0 0
-0.025 0 0
-0.025 0 0
-0.025 0 0
-0.025 0 0
-0.025 0 0
-0.025 0 0
-0.025 0 0
-0.025 0 0
-0.025 0 0
-0.025 0 0
-0.025 0 0
-0.025 0 0
-0.025 0 0
-0.025 0 0
-0.025 0 0
-0.025 0 0
-0.025 0 0
-0.025 0 0
-0.025 0 0
-0.025 0 0
-0.025 0 0
-0.025 0 0
-0.025 0 0
-0.025 0 0
-0.025 0 0
-0.025 0 0
-0.025 0 0
-0.025 0 0
-0.025 0 0
-0.025 0 0

CELL_DATA 236
TENSORS stress float
-7384.88 -331.844 182.222
-331.844 -1499.34 207.124
182.222 207.124 20.5213

-6893.78 -66.004 173.129
-66.004 -945.922 367.184
173.129 367.184 -520.97

-8519.86 -1701.34 1427.13
-1701.34 -5069.85 -639.3
1427.13 -639.3 -5513.53

-5775.54 104.786 -602.816
104.786 -412.775 299.067
-602.816 299.067 -53.584

-7164.01 -1521.34 -1140.28
-1521.34 -3353.9 504.182
-1140.28 504.182 -4154.74

-9153.36 677.249 -1181.75
677.249 -6842.91 -213.628
-1181.75 -213.628 -6347.61

-10542.3 12.7378 -350.354
12.7378 -7173.03 -129.034
-350.354 -129.034 -7347.02

-6058.53 -48.1479 80.2309
-48.1479 -372.475 -43.2439
80.2309 -43.2439 -491.188

-7707.12 371.132 462.148
371.132 -1864.84 -24.2
462.148 -24.2 -2108.1

-13670.7 -246.639 -353.853
-246.639 -10906.3 -28.7102
-353.853 -28.7102 -10918.3

-5566.61 -227.732 44.9509
-227.732 457.572 139.51
44.9509 139.51 212.156

-6585.43 -285.551 -1776.6
-285.551 -4700.7 -53.9939
-1776.6 -53.9939 -3406.31

-5489.15 385.257 -1468.33
385.257 -1338.76 -181.061
-1468.33 -181.061 27.6812

-7418.79 -361.692 -87.9545
-361.692 -1504.99 -46.8739
-87.9545 -46.8739 -62.8771

-5907.99 196.088 281.71
196.088 710.9 -134.879
281.71 -134.879 -340.664

-5706.11 -270.308 -190.072
-270.308 1486.64 -105.838
-190.072 -105.838 1159.98

-5624.68 73.0186 65.6342
73.0186 266.322 -118.988
65.6342 -118.988 165.915

-6215.96 937.015 198.929
937.015 -841.628 166.749
198.929 166.749 -2031.73

-8149.32 311.871 216.915
311.871 -1272.37 111.385
216.915 111.385 -1047.01

-6621.82 -975.763 -1027.71
-975.763 -1487.88 132.106
-1027.71 132.106 -1875.46

-5822.38 50.4466 244.826
50.4466 1133.38 19.9501
244.826 19.9501 634.552

-9198.97 562.327 -1093.82
562.327 -7496.64 -91.3379
-1093.82 -91.3379 -6960.56

-8242.65 271.578 -1805.87
271.578 -6316.51 -206.849
-1805.87 -206.849 -4536.79

-6312.1 71.1348 -147.903
71.1348 -1888.89 -153.376
-147.903 -153.376 -607.71

-6721.87 -62.4214 107.961
-62.4214 -319.917 -219.649
107.961 -219.649 -257.827

-8427.82 -1639.05 -1220.85
-1639.05 -5087.42 664.599
-1220.85 664.599 -5770.17

-5888.61 59.3991 -207.878
59.3991 607.211 279.126
-207.878 279.126 935.324

-8157.83 561.475 -326.1
561.475 -4193.46 367.902
-326.1 367.902 -4342.8

-6387.08 -155.445 -211.121
-155.445 -863.606 -369.491
-211.121 -369.491 -1139.76

-7320.22 -1443.32 -1447.16
-1443.32 -3945.49 390.293
-1447.16 390.293 -4775.31

-7179.54 -401.82 -280.565
-401.82 -1507.72 -176.585
-280.565 -176.585 -2199.66

-5845.44 -339.242 -329.978
-339.242 650.608 216.898
-329.978 216.898 525.952

-6896.94 386.008 -1771.57
386.008 -4891.99 -88.6364
-1771.57 -88.6364 -3377.19

-7794.57 -372.007 -186.081
-372.007 -2053.47 -293.745
-186.081 -293.745 -1943.8

-6265.63 -1627.97 1253.53
-1627.97 -2762.87 -492.585
1253.53 -492.585 -3489.35

-5489.85 225.988 -120.504
225.988 1719.01 186.738
-120.504 186.738 1203.5

-7398.24 -146.299 -155.797
-146.299 -877.408 -56.5989
-155.797 -56.5989 -975.268

-5380.92 354.607 341.915
354.607 -453.253 -225.665
341.915 -225.665 858.983

-6470.89 -125.287 -23.7779
-125.287 -1240.46 -109.074
-23.7779 -109.074 -401.213

-5454.45 147.663 -20.6433
147.663 328.615 -282.108
-20.6433 -282.108 284.93

-6122.84 59.3333 -434.475
59.3333 273.125 -205.691
-434.475 -205.691 268.548

-6778.83 -217.6 -769.842
-217.6 -1481.62 -437.604
-769.842 -437.604 -1418.86

-6481.96 41.6861 159.312
41.6861 -1965.94 58.5787
159.312 58.5787 -691.634

-5589.17 171.636 -796.262
171.636 -21.9756 146.173
-796.262 146.173 127.784

-6885.63 1482.63 -1145.31
1482.63 -3006.67 -396.424
-1145.31 -396.424 -3771.15

-8622.84 -1607.2 1208.36
-1607.2 -5346.81 -680.339
1208.36 -680.339 -6055.9

-6879.18 757.082 547.132
757.082 -3961.52 -63.5307
547.132 -63.5307 -4121.58

-7389.16 368.04 -72.0433
368.04 -1413.57 -29.1412
-72.0433 -29.1412 -277.085

-8330.17 1559.4 -1168.72
1559.4 -4912.23 -527.117
-1168.72 -527.117 -5751

-10063.8 479.449 1071.63
479.449 -8398.76 95.8961
1071.63 95.8961 -7723.51

-6198.65 332.34 397.207
332.34 -570.068 259.629
397.207 259.629 -491.405

-4386.73 1036.67 -1343.5
1036.67 -299.06 -182.479
-1343.5 -182.479 214.237

-5977.28 1541.02 1321.73
1541.02 -2450.34 404.533
1321.73 404.533 -3065.27

-6297.24 -184.505 -1685.63
-184.505 -4434.38 13.0638
-1685.63 13.0638 -3351.53

-6780.26 84.9299 -1904.48
84.9299 -4892.33 -122.598
-1904.48 -122.598 -3253.33

-7559.91 281.232 1789.42
281.232 -5519.6 84.4139
1789.42 84.4139 -3835.72

-5508.48 -239.678 -105.75
-239.678 546.796 -284
-105.75 -284 715.826

-7439.09 356.452 94.561
356.452 -1534.71 -39.3133
94.561 -39.3133 -253.378

-6389.32 -221.695 -74.8756
-221.695 -336.178 -5.74059
-74.8756 -5.74059 -535.981

-8996.17 1455.95 -401.714
1455.95 -6247.46 -187.045
-401.714 -187.045 -7293.61

-6810.91 1987.55 -425.631
1987.55 -3353.44 -142.829
-425.631 -142.829 -4666.97

-7049.18 -114.38 -325.715
-114.38 -2144.58 -4.19847
-325.715 -4.19847 -2193.41

-7191.38 -1980.41 -462.833
-1980.41 -3645.11 154.836
-462.833 154.836 -5089.9

-6711.28 602.315 413.225
602.315 -1572.39 216.842
413.225 216.842 -993.707

-5595.85 457.206 1031.18
457.206 -1805.99 37.5035
1031.18 37.5035 -252.661

-6589.14 -860.329 -114.013
-860.329 -1122.7 230.531
-114.013 230.531 -2450.48

-6891.69 -408.647 743.567
-408.647 -2034.54 467.158
743.567 467.158 -1568.36

-6074.44 80.0514 338.174
80.0514 -1560.43 -190.185
338.174 -190.185 -1034.57

-6691.32 1929.13 621.876
1929.13 -3410.64 192.952
621.876 192.952 -4647.91

-6619.17 1643.44 733.83
1643.44 -3775.1 234.733
733.83 234.733 -4713.02

-6368.48 21.9974 -35.6815
21.9974 -441.985 -56.0224
-35.6815 -56.0224 -690.379

-5141.38 539.132 -1058.55
539.132 -1343.22 -10.2955
-1058.55 -10.2955 -35.9788

-4928.21 958.806 1330.84
958.806 -725.283 147.706
1330.84 147.706 -223.538

-8447.36 1508.53 1252.42
1508.53 -5202.2 558.635
1252.42 558.635 -5917.82

-6689.99 -935.586 952.151
-935.586 -1726.79 -233.268
952.151 -233.268 -2033.41

-7490.21 -366.202 63.2617
-366.202 -1584.64 83.52
63.2617 83.52 -91.2703

-7891.44 -273.522 -162.767
-273.522 -2563.45 -807.963
-162.767 -807.963 -1924.04

-8185.94 -1256.6 -834.75
-1256.6 -4643.87 228.444
-834.75 228.444 -5658.33

-11350.8 457.977 343.926
457.977 -8272.62 76.8083
343.926 76.8083 -8250.77

-6826.75 -764.99 -1003.17
-764.99 -1902.56 76.8581
-1003.17 76.8581 -2265.53

-6673.4 -86.934 -42.1411
-86.934 -1413.29 58.3572
-42.1411 58.3572 -551.773

-5390.68 -243.845 -25.3912
-243.845 422.462 163.059
-25.3912 163.059 307.019

-8080.22 -173.319 436.879
-173.319 -3399.22 64.8695
436.879 64.8695 -3283.97

-10217 -110.911 222.014
-110.911 -5451.36 -127.876
222.014 -127.876 -5532.21

-7326.44 -311.004 1597.27
-311.004 -5314.33 11.8008
1597.27 11.8008 -4233.81

-7819.36 146.294 1984.57
146.294 -5932.27 109.901
1984.57 109.901 -4476.15

-5949.91 3.66293 -259.552
3.66293 -1007.61 -165.234
-259.552 -165.234 -1598.31

-6407.74 -23.1744 -156.894
-23.1744 -1200.76 16.6257
-156.894 16.6257 -382.22

-6478.97 -165.341 -75.3308
-165.341 -786.043 148.044
-75.3308 148.044 -691.295

-8892.62 -1471.34 -456.343
-1471.34 -6021.04 193.285
-456.343 193.285 -7076.96

-5896.55 1913.9 -830.343
1913.9 -2489.09 43.7933
-830.343 43.7933 -3114.46

-8403.48 -1869.99 520.984
-1869.99 -4880.63 -90.4394
520.984 -90.4394 -6117.97

-6017.3 -487.587 358.085
-487.587 293.902 -87.2243
358.085 -87.2243 127.386

-6449.96 -931.948 160.042
-931.948 -916.97 -91.613
160.042 -91.613 -2230.22

-5668.52 103.922 -39.3914
103.922 457.488 172.087
-39.3914 172.087 133.627

-6046.31 -1713.21 730.281
-1713.21 -3031.28 -242.526
730.281 -242.526 -4024.56

-5759.93 102.071 -268.578
102.071 1303.31 5.46442
-268.578 5.46442 781.003

-5545.34 -51.848 -62.575
-51.848 953.029 26.8106
-62.575 26.8106 241.856

-6187.66 -551.579 319.019
-551.579 -197.545 -323.904
319.019 -323.904 124.343

-7345.92 -303.524 171.287
-303.524 -1799.14 -51.7967
171.287 -51.7967 -1855.46

-7899.92 -1590.49 -1453.91
-1590.49 -4613.09 601.11
-1453.91 601.11 -5052.37

-6369.07 -100.635 -100.498
-100.635 422.103 -14.622
-100.498 -14.622 449.242

-7210.28 -36.5784 1933.54
-36.5784 -5289.01 124.549
1933.54 124.549 -3507.76

-5577.66 -234.284 2.70541
-234.284 416.137 -132.243
2.70541 -132.243 103.93

-6859.21 -1914.52 569.533
-1914.52 -3467.44 -195.257
569.533 -195.257 -4872.57

-5478.56 -221.13 117.448
-221.13 418.136 -85.6557
117.448 -85.6557 309.038

-7494.6 -318.722 232.136
-318.722 -1569.97 185.538
232.136 185.538 -1595.69

-7352.46 -304.92 103.177
-304.92 -871.641 15.022
103.177 15.022 -885.033

-6687.11 83.8496 136.032
83.8496 148.354 -36.6571
136.032 -36.6571 552.232

-5864.99 -39.5029 52.0442
-39.5029 -134.692 -392.816
52.0442 -392.816 -23.4389

-7506.7 -47.1296 46.3777
-47.1296 -1372.31 147.074
46.3777 147.074 -1796.81

-6345.05 168.89 -511.723
168.89 -736.375 423.751
-511.723 423.751 -449.59

-7941.07 -318.96 244.073
-318.96 -796.076 58.9799
244.073 58.9799 -721.946

-7255 -324.077 518.13
-324.077 -1339.1 193.612
518.13 193.612 -1827.97

-5445.88 -370.196 81.6286
-370.196 -82.5901 505.297
81.6286 505.297 -549.844

-11367.8 -479.728 289.562
-479.728 -8384.76 7.68894
289.562 7.68894 -8293.35

-6017.76 -616.968 589.559
-616.968 -468.659 -329.347
589.559 -329.347 308.243

-10508.5 -440.96 259.313
-440.96 -7429.13 153.128
259.313 153.128 -7353.15

-6078.03 -139.534 228.553
-139.534 -1403.64 324.433
228.553 324.433 -902.061

-5422.75 -50.8664 383.091
-50.8664 1252.17 -365.467
383.091 -365.467 901.571

-7718.64 55.2214 -1993.27
55.2214 -5946.32 -232.638
-1993.27 -232.638 -4054.44

-6859.98 277.912 -154.923
277.912 -2024.59 -28.2492
-154.923 -28.2492 -1045.05

-7341.37 538.342 -90.4061
538.342 -1516.36 133.675
-90.4061 133.675 -2.30867

-5575.63 103.919 226.191
103.919 1743.15 -400.887
226.191 -400.887 1074.26

-6852.45 -354.563 -995.086
-354.563 -2225.92 -274.771
-995.086 -274.771 -1647.58

-5832.44 1035.14 -1248.44
1035.14 -1581.18 -349.993
-1248.44 -349.993 -958.268

-8523.31 1684.28 -1341.02
1684.28 -5269.88 -674.663
-1341.02 -674.663 -5800.97

-6923.89 1653.34 -1415.58
1653.34 -3807.52 -470.381
-1415.58 -470.381 -4012.41

-6810.57 -76.2847 281.022
-76.2847 -514.717 -234.12
281.022 -234.12 -163.255

-6425.25 332.411 587.223
332.411 -1299.58 -34.9391
587.223 -34.9391 -861.577

-6081.84 434.453 372.842
434.453 -747.904 -362.044
372.842 -362.044 -1056.52

-7443.06 145.401 262.894
145.401 -887.298 -121.86
262.894 -121.86 -521.451

-6343.3 233.363 -70.789
233.363 -577.632 -41.0517
-70.789 -41.0517 -666.116

-4975.01 158.271 99.4314
158.271 1684.05 75.1336
99.4314 75.1336 817.529

-6688.13 286.052 603.904
286.052 -808.878 -170.828
603.904 -170.828 -1437.25

-9706.7 557.786 431.949
557.786 -6629.63 -45.8892
431.949 -45.8892 -6652.88

-5599.85 -1.48077 -11.297
-1.48077 809.886 -231.834
-11.297 -231.834 1092.3

-5626.79 -317.791 -295.523
-317.791 1387.01 88.7267
-295.523 88.7267 1055.68

-5808.28 -229.18 318.582
-229.18 1177.12 -83.7904
318.582 -83.7904 790.67

-6132.19 -58.5142 204.029
-58.5142 511.455 276.243
204.029 276.243 606.665

-5410.44 124.306 -212.206
124.306 3561.17 -74.3169
-212.206 -74.3169 3233.65

-5330.32 -170.442 346.143
-170.442 1755.45 181.064
346.143 181.064 1411.29

-6136.89 284.908 -337.047
284.908 892.873 325.844
-337.047 325.844 1340.89

-7924.27 126.234 -106.246
126.234 -709.883 -32.8243
-106.246 -32.8243 -668.432

-6268.38 -370.01 -347.968
-370.01 -546.653 -379.095
-347.968 -379.095 -420.438

-5689.91 5.65867 62.3753
5.65867 -203.94 368.374
62.3753 368.374 -56.6812

-6961.61 -1014.46 230.174
-1014.46 -901.964 -186.527
230.174 -186.527 -1879.93

-7661.89 111.226 -60.6056
111.226 -788.606 191.106
-60.6056 191.106 -742.129

-6997.23 -9.42335 -178.643
-9.42335 -208.879 194.141
-178.643 194.141 467.409

-6190.9 -313.302 -257.595
-313.302 499.561 -24.4802
-257.595 -24.4802 -433.855

-4781.46 -367.855 -398.521
-367.855 3135.16 213.161
-398.521 213.161 3903.05

-6758.8 -85.7323 -191.496
-85.7323 -1183.18 -187.718
-191.496 -187.718 -702.862

-7441.99 480.933 129.579
480.933 -1563.76 -234.507
129.579 -234.507 70.2287

-6361.98 873.81 -45.8282
873.81 -969.17 -216.77
-45.8282 -216.77 -2213.45

-7074.79 -414.062 40.078
-414.062 -979.24 129.052
40.078 129.052 -1048.19

-6340.83 25.415 -73.7597
25.415 34.3298 299.034
-73.7597 299.034 -198.827

-6549.76 321.787 -419.577
321.787 -926.098 -173.675
-419.577 -173.675 -477.807

-7335.6 441.675 -452.489
441.675 -2724.08 0.277714
-452.489 0.277714 -1989.13

-5452.24 680.516 -1135.71
680.516 -887.445 -416.729
-1135.71 -416.729 -690.607

-7077.82 239.644 -173.83
239.644 -1709.6 171.183
-173.83 171.183 -2016.92

-7156.37 -1243.15 -331.338
-1243.15 -969.376 -251.184
-331.338 -251.184 -2254.72

-6402.62 -357.058 -294.947
-357.058 921.848 51.4091
-294.947 51.4091 1779.16

-8355.02 -1624.54 -629.168
-1624.54 -5026.08 249.305
-629.168 249.305 -6223.95

-6704.39 -804.807 1034.68
-804.807 -2166.87 -95.7452
1034.68 -95.7452 -2239.25

-7439.91 -451.464 -519.456
-451.464 -1527.27 -211.347
-519.456 -211.347 -972.251

-5184.61 179.195 1636.23
179.195 -1236.62 16.2046
1636.23 16.2046 256.74

-7691.13 -543.449 640.191
-543.449 -3734.53 276.301
640.191 276.301 -3862.34

-7152.58 -334.902 272.26
-334.902 -1281.24 323.062
272.26 323.062 -943.589

-6469.42 -36.7379 -13.4314
-36.7379 -1602.08 21.1598
-13.4314 21.1598 -744.312

-6679.91 -77.3924 16.1924
-77.3924 -1530.09 -74.129
16.1924 -74.129 -572.526

-7813.96 213.063 -150.634
213.063 -1029.63 -35.6135
-150.634 -35.6135 -682.008

-7346.44 -1634.66 1444.81
-1634.66 -3869.9 -399.694
1444.81 -399.694 -4518.46

-6803.08 191.483 130.486
191.483 -1643.86 -50.1761
130.486 -50.1761 -718.184

-7145.26 42.5657 123.188
42.5657 -483.257 -43.6718
123.188 -43.6718 -191.144

-10978.9 -197.553 -409.662
-197.553 -7710.16 -97.9614
-409.662 -97.9614 -7710.38

-7846.38 93.1119 -33.8265
93.1119 -951.114 -330.866
-33.8265 -330.866 -1040.65

-5985.88 -586.366 1113.75
-586.366 -1114.67 389.02
1113.75 389.02 -1201.11

-7382.94 -447.09 1994.09
-447.09 -5383.58 -138.808
1994.09 -138.808 -4535.34

-6153.95 -38.1556 212.563
-38.1556 751.784 104.604
212.563 104.604 851.694

-7855.3 -69.282 35.7024
-69.282 -1054.14 -385.028
35.7024 -385.028 -947.41

-7462.32 -320.98 -108.851
-320.98 -1467.35 -121.719
-108.851 -121.719 15.3073

-7370.69 -1646.61 900.231
-1646.61 -3825.93 -171.633
900.231 -171.633 -4796.55

-4946.57 -346.497 384.314
-346.497 3439.9 -31.5193
384.314 -31.5193 3843

-5580.29 207.824 108.428
207.824 557.061 179.669
108.428 179.669 360.761

-7066.56 -465.23 -385.405
-465.23 -1714.65 -291.422
-385.405 -291.422 -1124.34

-5793.31 -1026.42 737.52
-1026.42 -1208.44 10.071
737.52 10.071 -1403.84

-9706.18 146.998 -161.228
146.998 -4858.7 -41.1197
-161.228 -41.1197 -4721.63

-8432.57 1040.02 -734.209
1040.02 -6214.32 56.0519
-734.209 56.0519 -6308.43

-6360.45 -84.3732 205.771
-84.3732 -287.784 381.366
205.771 381.366 61.6894

-5500.98 -516.667 -539.443
-516.667 -245.755 -58.4529
-539.443 -58.4529 -503.498

-6176.55 287.029 -337.986
287.029 -933.008 -68.8482
-337.986 -68.8482 -732.937

-7579.22 143.576 -135.707
143.576 -2061.2 48.2941
-135.707 48.2941 -1649.06

-6463.67 -14.2172 60.1734
-14.2172 -705.105 -230.657
60.1734 -230.657 -851.897

-5922.36 149.799 107.68
149.799 -186.653 128.81
107.68 128.81 -1041

-7224.02 475.454 -293.213
475.454 -2040.69 131.39
-293.213 131.39 -1437.08

-5301.4 71.0076 -415.735
71.0076 -305.248 604.272
-415.735 604.272 -232.841

-9609.62 375.394 -569.228
375.394 -6486.1 29.0014
-569.228 29.0014 -6395.63

-9437.13 290.218 -576.363
290.218 -6098.64 162.763
-576.363 162.763 -6389.64

-5143.82 203.854 -530.261
203.854 207.827 204.817
-530.261 204.817 -242.075

-11382.5 -200.761 -544.125
-200.761 -8261.4 -14.5762
-544.125 -14.5762 -8288.41

-7038.48 -244.785 218.63
-244.785 -959.88 139.268
218.63 139.268 -1050.84

-6786.46 -525.447 1609.38
-525.447 -4830.99 -212.533
1609.38 -212.533 -4456.04

-6519.27 805.72 25.2173
805.72 -2313.75 -269.333
25.2173 -269.333 -2740.5

-5118.51 156.922 -85.7311
156.922 1386.43 456.21
-85.7311 456.21 1755.33

-5694.09 56.8871 362.626
56.8871 291.306 -24.1442
362.626 -24.1442 -787.07

-5844.35 -32.3932 230.575
-32.3932 1624.03 291.758
230.575 291.758 690.126

-7726.02 -24.6595 -97.2333
-24.6595 -665.218 373.574
-97.2333 373.574 -719.405

-6744.1 190.06 59.6874
190.06 -1084.84 -56.4747
59.6874 -56.4747 -726.359

-6162.33 -608.222 -371.262
-608.222 -261.035 206.626
-371.262 206.626 273.697

-6182.53 211.627 256.271
211.627 -235.877 -265.171
256.271 -265.171 25.1603

-12193.9 -268.027 854.09
-268.027 -11192.5 -116.981
854.09 -116.981 -10829.7

-9843.5 537.979 1171.02
537.979 -7410.49 156.469
1171.02 156.469 -6845.76

-7063.48 -199.852 339.727
-199.852 832.432 -286.478
339.727 -286.478 1415.87

-7409.46 1591.92 1497.48
1591.92 -4370.4 429.824
1497.48 429.824 -4445.12

-6517.55 -109.385 -25.1181
-109.385 90.1589 -68.2547
-25.1181 -68.2547 153.025

-5741.9 -286.64 279.99
-286.64 -786.71 160.733
279.99 160.733 552.383

-6776.57 -184.049 -70.8738
-184.049 -413.088 -92.5069
-70.8738 -92.5069 -3.53157

-7513.75 265.858 351.451
265.858 -2808.18 -156.769
351.451 -156.769 -2102.61

-7671.62 2048.52 544.389
2048.52 -4254.2 52.9715
544.389 52.9715 -5399.43

-6218.97 -17.3044 300.788
-17.3044 472.01 152.086
300.788 152.086 325.286

-5969.46 1867.26 882.793
1867.26 -2411.37 59.5298
882.793 59.5298 -2896.45

-7018.01 396.242 226.275
396.242 -2036.69 -267.755
226.275 -267.755 -1865.38

-6260.22 227.944 800.212
227.944 -2198.34 -110.764
800.212 -110.764 -1740.37

-7718.17 2082.93 -532.82
2082.93 -4199.48 55.3727
-532.82 55.3727 -5599.49

-7294.48 -3.96779 -73.746
-3.96779 -1191.27 -168.626
-73.746 -168.626 -1412.61

-6725.73 -58.98 39.9593
-58.98 -13.584 26.0947
39.9593 26.0947 293.755

-7457.68 137.435 127.751
137.435 -209.228 195.809
127.751 195.809 -29.2279

-5527.76 58.9638 382.939
58.9638 2807.12 10.5427
382.939 10.5427 2639.2

-9671.33 884.543 -305.13
884.543 -7738.34 -134.735
-305.13 -134.735 -8107.29

-6166.31 1138.81 66.5191
1138.81 -939.357 63.5825
66.5191 63.5825 -1798.33

-5547.6 1139.95 -147.68
1139.95 -306.286 -295.645
-147.68 -295.645 -1316.71

-5157.73 666.888 1235.85
666.888 -684.741 262.612
1235.85 262.612 -396.595

-6534.27 -134.995 2321.13
-134.995 -4702.3 -9.84408
2321.13 -9.84408 -3099.3

-8448.66 968.982 743.359
968.982 -5901.16 17.0931
743.359 17.0931 -5913.36

-6169.33 926.497 1278.56
926.497 -1732.2 249.011
1278.56 249.011 -1096.97

-8476.49 1649.81 1472.87
1649.81 -5219.59 648.454
1472.87 648.454 -5523.42

