# vtk DataFile Version 3.0
vtk output at time 0.1
ASCII
DATASET UNSTRUCTURED_GRID
POINTS 527 float
0 0 0 0 0 0.05 0 0 0.1 
0 0 0.15 0 0 0.2 0 0.05 0 
0 0.05 0.05 0 0.05 0.1 0 0.05 0.15 
0 0.05 0.2 0 0.1 0 0 0.1 0.05 
0 0.1 0.1 0 0.1 0.15 0 0.1 0.2 
0 0.15 0 0 0.15 0.05 0 0.15 0.1 
0 0.15 0.15 0 0.15 0.2 0 0.2 0 
0 0.2 0.05 0 0.2 0.1 0 0.2 0.15 
0 0.2 0.2 0.05 0 0 0.05 0 0.05 
0.05 0 0.1 0.05 0 0.15 0.05 0 0.2 
0.05 0.05 0 0.05 0.05 0.2 0.05 0.1 0 
0.05 0.1 0.2 0.05 0.15 0 0.05 0.15 0.2 
0.05 0.2 0 0.05 0.2 0.05 0.05 0.2 0.1 
0.05 0.2 0.15 0.05 0.2 0.2 0.1 0 0 
0.1 0 0.05 0.1 0 0.1 0.1 0 0.15 
0.1 0 0.2 0.1 0.05 0 0.1 0.05 0.2 
0.1 0.1 0 0.1 0.1 0.2 0.1 0.15 0 
0.1 0.15 0.2 0.1 0.2 0 0.1 0.2 0.05 
0.1 0.2 0.1 0.1 0.2 0.15 0.1 0.2 0.2 
0.15 0 0 0.15 0 0.05 0.15 0 0.1 
0.15 0 0.15 0.15 0 0.2 0.15 0.05 0 
0.15 0.05 0.2 0.15 0.1 0 0.15 0.1 0.2 
0.15 0.15 0 0.15 0.15 0.2 0.15 0.2 0 
0.15 0.2 0.05 0.15 0.2 0.1 0.15 0.2 0.15 
0.15 0.2 0.2 0.2 0 0 0.2 0 0.05 
0.2 0 0.1 0.2 0 0.15 0.2 0 0.2 
0.2 0.05 0 0.2 0.05 0.05 0.2 0.05 0.1 
0.2 0.05 0.15 0.2 0.05 0.2 0.2 0.1 0 
0.2 0.1 0.05 0.2 0.1 0.1 0.2 0.1 0.15 
0.2 0.1 0.2 0.2 0.15 0 0.2 0.15 0.05 
0.2 0.15 0.1 0.2 0.15 0.15 0.2 0.15 0.2 
0.2 0.2 0 0.2 0.2 0.05 0.2 0.2 0.1 
0.2 0.2 0.15 0.2 0.2 0.2 0 0.025 0 
0.025 0 0 0.025 0 0.025 0 0 0.025 
0 0.025 0.025 0.025 0 0.05 0 0.025 0.05 
0 0.025 0.075 0 0 0.075 0 0.025 0.1 
0.025 0 0.075 0.025 0 0.1 0.025 0 0.125 
0 0 0.125 0.025 0 0.15 0 0.025 0.175 
0 0.025 0.15 0 0 0.175 0 0.025 0.125 
0.025 0 0.175 0 0.025 0.2 0.025 0 0.2 
0.025 0.025 0.025 0 0.05 0.025 0.025 0.025 0 
0.025 0.05 0 0.025 0.075 0 0 0.075 0.025 
0 0.075 0 0.025 0.025 0.05 0 0.05 0.075 
0 0.075 0.05 0.05 0.075 0.025 0.025 0.075 0.025 
0.05 0.05 0.025 0.025 0.05 0.025 0.05 0.025 0.075 
0.05 0.025 0.05 0 0.075 0.075 0.05 0.075 0.05 
0.05 0.025 0.1 0.025 0.025 0.075 0.025 0.025 0.125 
0.05 0.025 0.125 0.025 0.025 0.1 0 0.05 0.125 
0 0.075 0.125 0 0.075 0.1 0 0.05 0.175 
0.025 0.025 0.15 0.025 0.075 0.175 0.025 0.05 0.175 
0.05 0.075 0.175 0 0.075 0.15 0.05 0.05 0.175 
0.05 0.025 0.15 0.025 0.025 0.175 0.025 0.075 0.2 
0.025 0.05 0.2 0.025 0.025 0.2 0 0.075 0.175 
0 0.075 0.2 0 0.125 0 0.025 0.1 0 
0 0.1 0.025 0.05 0.1 0.025 0 0.125 0.025 
0 0.125 0.05 0.025 0.125 0.025 0.025 0.1 0.025 
0 0.1 0.075 0.05 0.125 0.025 0 0.125 0.075 
0 0.1 0.125 0.05 0.15 0.125 0.05 0.125 0.15 
0.05 0.1 0.15 0.05 0.15 0.1 0.05 0.125 0.05 
0.05 0.1 0.05 0 0.125 0.1 0.05 0.05 0.1 
0.05 0.05 0.125 0.1 0.1 0.1 0.05 0.15 0.15 
0.05 0.125 0.175 0 0.125 0.175 0 0.125 0.15 
0.025 0.125 0.175 0.025 0.1 0.175 0 0.1 0.175 
0 0.125 0.125 0.05 0.1 0.175 0.05 0.05 0.15 
0.025 0.1 0.2 0 0.125 0.2 0 0.15 0.025 
0.025 0.15 0 0.025 0.175 0 0.025 0.175 0.025 
0.025 0.125 0 0 0.175 0.025 0 0.175 0 
0.025 0.15 0.025 0.025 0.175 0.05 0.05 0.15 0.025 
0.05 0.175 0.05 0 0.175 0.05 0 0.15 0.075 
0.05 0.175 0.075 0.025 0.175 0.075 0.05 0.175 0.1 
0.025 0.175 0.1 0 0.175 0.1 0.025 0.175 0.125 
0 0.175 0.075 0.05 0.175 0.125 0 0.15 0.125 
0 0.175 0.125 0.05 0.15 0.05 0 0.15 0.175 
0.025 0.15 0.175 0.025 0.175 0.15 0.05 0.15 0.175 
0 0.175 0.15 0.05 0.175 0.15 0.025 0.175 0.175 
0.025 0.15 0.2 0.025 0.175 0.2 0 0.175 0.175 
0.025 0.125 0.2 0 0.175 0.2 0.025 0.2 0 
0.025 0.2 0.025 0 0.2 0.025 0.025 0.2 0.05 
0 0.2 0.075 0.025 0.2 0.1 0.025 0.2 0.125 
0.025 0.2 0.075 0 0.2 0.125 0.025 0.2 0.15 
0 0.2 0.175 0.025 0.2 0.175 0.025 0.2 0.2 
0.05 0 0.025 0.075 0 0 0.075 0.025 0 
0.05 0.025 0 0.075 0 0.025 0.075 0.025 0.025 
0.05 0.025 0.025 0.075 0 0.075 0.075 0 0.05 
0.05 0 0.075 0.075 0 0.1 0.05 0 0.125 
0.075 0.025 0.175 0.075 0 0.175 0.075 0 0.15 
0.075 0 0.125 0.05 0.025 0.175 0.05 0 0.175 
0.075 0.025 0.2 0.075 0 0.2 0.05 0.025 0.2 
0.075 0.05 0 0.05 0.075 0 0.05 0.075 0.2 
0.075 0.05 0.2 0.075 0.075 0 0.075 0.1 0 
0.05 0.125 0 0.075 0.125 0 0.05 0.125 0.2 
0.075 0.1 0.2 0.075 0.075 0.2 0.075 0.125 0.2 
0.05 0.175 0 0.05 0.175 0.025 0.075 0.15 0 
0.05 0.175 0.175 0.05 0.175 0.2 0.075 0.15 0.2 
0.05 0.2 0.025 0.075 0.2 0 0.075 0.175 0 
0.075 0.2 0.075 0.05 0.2 0.075 0.075 0.2 0.025 
0.075 0.175 0.025 0.075 0.2 0.05 0.075 0.2 0.1 
0.05 0.2 0.125 0.05 0.2 0.175 0.075 0.175 0.175 
0.075 0.2 0.15 0.075 0.2 0.175 0.075 0.2 0.125 
0.075 0.2 0.2 0.075 0.175 0.2 0.1 0.025 0 
0.1 0 0.025 0.125 0 0 0.125 0 0.025 
0.1 0.025 0.025 0.125 0 0.05 0.1 0 0.075 
0.125 0.05 0.025 0.1 0.05 0.025 0.1 0.05 0.15 
0.15 0.05 0.125 0.15 0.05 0.1 0.125 0.05 0.05 
0.1 0.05 0.05 0.1 0 0.125 0.125 0 0.075 
0.125 0 0.125 0.125 0.05 0.15 0.125 0 0.1 
0.1 0.025 0.175 0.1 0 0.175 0.1 0.05 0.175 
0.125 0 0.15 0.125 0.05 0.175 0.1 0.025 0.2 
0.125 0 0.2 0.125 0 0.175 0.1 0.075 0 
0.125 0.025 0 0.125 0.025 0.025 0.125 0.05 0 
0.125 0.075 0 0.125 0.025 0.2 0.125 0.025 0.175 
0.1 0.075 0.2 0.125 0.075 0.2 0.125 0.05 0.2 
0.15 0.1 0.05 0.125 0.1 0 0.1 0.125 0 
0.15 0.125 0.05 0.125 0.15 0.05 0.1 0.15 0.05 
0.15 0.1 0.175 0.15 0.1 0.15 0.15 0.125 0.15 
0.1 0.15 0.175 0.1 0.15 0.15 0.125 0.15 0.175 
0.125 0.15 0.15 0.15 0.125 0.175 0.125 0.1 0.2 
0.1 0.125 0.2 0.1 0.175 0 0.1 0.175 0.025 
0.125 0.175 0.025 0.125 0.175 0 0.125 0.15 0 
0.15 0.15 0.05 0.125 0.175 0.05 0.1 0.175 0.05 
0.125 0.125 0 0.1 0.175 0.175 0.1 0.175 0.2 
0.125 0.175 0.175 0.125 0.175 0.2 0.15 0.15 0.175 
0.125 0.15 0.2 0.125 0.125 0.2 0.1 0.2 0.025 
0.125 0.2 0.025 0.125 0.2 0 0.1 0.2 0.075 
0.125 0.2 0.05 0.1 0.2 0.125 0.15 0.175 0.1 
0.125 0.2 0.1 0.15 0.15 0.1 0.125 0.2 0.125 
0.125 0.2 0.075 0.1 0.2 0.175 0.125 0.2 0.15 
0.125 0.2 0.175 0.125 0.2 0.2 0.15 0 0.025 
0.15 0.025 0 0.175 0 0 0.175 0.025 0 
0.15 0.025 0.025 0.175 0.05 0.05 0.175 0.025 0.075 
0.175 0.05 0.075 0.15 0.05 0.025 0.175 0 0.025 
0.175 0.025 0.025 0.15 0 0.075 0.175 0 0.05 
0.175 0.025 0.05 0.175 0 0.075 0.175 0.025 0.1 
0.15 0 0.125 0.175 0.05 0.125 0.175 0.05 0.1 
0.15 0.05 0.05 0.175 0 0.1 0.175 0.025 0.125 
0.175 0.05 0.15 0.15 0 0.175 0.175 0 0.15 
0.175 0.025 0.15 0.15 0.025 0.175 0.175 0.025 0.175 
0.175 0 0.175 0.15 0.05 0.175 0.175 0 0.125 
0.15 0.025 0.2 0.175 0.025 0.2 0.175 0 0.2 
0.15 0.075 0 0.175 0.05 0 0.175 0.075 0.025 
0.175 0.05 0.025 0.175 0.05 0.2 0.175 0.075 0.175 
0.175 0.05 0.175 0.15 0.075 0.2 0.175 0.1 0.05 
0.175 0.125 0.05 0.175 0.075 0 0.175 0.1 0.025 
0.175 0.1 0 0.15 0.125 0 0.175 0.125 0.025 
0.175 0.125 0 0.175 0.125 0.2 0.175 0.125 0.175 
0.175 0.1 0.175 0.175 0.075 0.2 0.175 0.1 0.2 
0.15 0.125 0.2 0.15 0.175 0 0.15 0.175 0.025 
0.175 0.15 0.05 0.15 0.175 0.05 0.175 0.15 0 
0.175 0.15 0.025 0.175 0.15 0.2 0.15 0.175 0.2 
0.15 0.175 0.175 0.175 0.15 0.175 0.15 0.2 0.025 
0.175 0.2 0 0.175 0.175 0 0.175 0.2 0.025 
0.175 0.175 0.025 0.175 0.2 0.05 0.175 0.175 0.075 
0.175 0.2 0.075 0.15 0.2 0.075 0.175 0.175 0.05 
0.15 0.2 0.125 0.175 0.175 0.1 0.175 0.2 0.1 
0.175 0.175 0.175 0.175 0.2 0.15 0.175 0.175 0.15 
0.175 0.175 0.125 0.15 0.2 0.175 0.175 0.2 0.175 
0.175 0.2 0.125 0.175 0.175 0.2 0.175 0.2 0.2 
0.2 0.025 0 0.2 0 0.025 0.2 0.025 0.025 
0.2 0.025 0.05 0.2 0.025 0.075 0.2 0 0.075 
0.2 0.025 0.1 0.2 0 0.125 0.2 0.025 0.125 
0.2 0.025 0.15 0.2 0 0.175 0.2 0.025 0.175 
0.2 0.025 0.2 0.2 0.075 0.025 0.2 0.075 0 
0.2 0.05 0.025 0.2 0.075 0.05 0.2 0.05 0.075 
0.2 0.075 0.125 0.2 0.075 0.075 0.2 0.075 0.1 
0.2 0.05 0.125 0.2 0.075 0.15 0.2 0.05 0.175 
0.2 0.075 0.175 0.2 0.075 0.2 0.2 0.1 0.025 
0.2 0.125 0 0.2 0.1 0.075 0.2 0.125 0.025 
0.2 0.125 0.05 0.2 0.125 0.075 0.2 0.1 0.125 
0.2 0.125 0.1 0.2 0.125 0.125 0.2 0.125 0.15 
0.2 0.125 0.175 0.2 0.1 0.175 0.2 0.125 0.2 
0.2 0.175 0 0.2 0.175 0.025 0.2 0.15 0.025 
0.2 0.15 0.075 0.2 0.175 0.05 0.2 0.175 0.125 
0.2 0.15 0.125 0.2 0.175 0.075 0.2 0.175 0.1 
0.2 0.15 0.175 0.2 0.175 0.15 0.2 0.175 0.175 
0.2 0.175 0.2 0.2 0.2 0.025 0.2 0.2 0.075 
0.2 0.2 0.125 0.2 0.2 0.175 

CELLS 236 2596
10 69 93 88 68 452 510 453 449 450 451 
10 28 47 45 44 255 323 256 257 318 319 
10 93 69 88 94 452 453 510 523 454 511 
10 43 49 86 85 308 342 309 310 343 503 
10 5 1 26 6 102 103 120 121 104 127 
10 82 86 81 63 495 493 494 421 422 423 
10 7 11 48 6 136 163 137 128 129 130 
10 37 17 54 38 208 209 285 286 210 290 
10 55 13 12 51 182 171 172 361 183 173 
10 90 86 49 85 505 342 344 504 503 343 
10 37 52 50 36 287 352 288 282 283 284 
10 91 92 65 86 519 433 434 506 507 435 
10 82 65 86 63 436 435 495 421 424 422 
10 25 5 0 26 122 98 99 243 120 100 
10 46 32 6 48 268 131 132 326 269 130 
10 57 46 58 62 327 328 383 384 329 387 
10 26 41 25 46 247 244 243 248 299 245 
10 22 38 39 17 235 291 236 211 210 212 
10 55 49 12 54 345 174 172 373 346 175 
10 26 5 6 30 120 121 127 249 123 133 
10 25 30 26 46 246 249 243 245 264 248 
10 11 15 16 34 164 194 165 166 195 201 
10 82 65 87 86 436 437 496 495 435 508 
10 15 34 36 37 195 276 196 197 277 282 
10 43 85 64 48 310 425 311 312 336 337 
10 1 5 26 0 102 120 103 101 98 100 
10 52 37 50 53 287 288 352 368 289 353 
10 60 80 59 86 404 398 399 405 489 400 
10 48 7 6 43 137 128 130 312 138 134 
10 92 71 96 91 462 463 521 519 464 520 
10 26 7 43 6 139 138 250 127 128 134 
10 6 26 46 42 127 248 132 135 251 303 
10 32 15 10 11 198 160 161 167 164 162 
10 90 71 70 49 465 459 460 344 347 348 
10 28 9 8 3 154 146 147 112 113 114 
10 68 69 50 66 449 354 355 439 440 356 
10 49 90 54 70 344 374 346 348 460 375 
10 28 43 7 44 258 138 140 257 313 141 
10 92 72 71 67 469 466 462 445 446 447 
10 71 56 51 72 381 362 363 466 382 364 
10 50 37 16 53 288 202 203 353 289 204 
10 5 6 30 32 121 133 123 124 131 265 
10 39 19 35 40 224 225 279 292 226 280 
10 12 11 50 48 168 169 176 177 163 338 
10 21 15 37 16 199 197 233 205 194 202 
10 28 4 9 3 117 118 154 112 115 113 
10 80 84 58 85 490 388 389 491 499 390 
10 15 36 20 37 196 230 200 197 282 231 
10 15 20 21 37 200 232 199 197 231 233 
10 19 18 35 13 218 219 225 184 185 186 
10 39 51 35 18 293 281 279 220 221 219 
10 15 34 37 16 195 277 197 194 201 202 
10 19 23 39 18 227 239 224 218 222 220 
10 5 6 32 11 121 131 124 125 129 167 
10 10 5 32 11 126 124 161 162 125 167 
10 19 33 14 13 228 192 193 184 187 188 
10 26 41 46 42 247 299 248 251 300 303 
10 24 19 39 40 229 224 241 242 226 292 
10 51 91 67 65 365 448 366 367 434 438 
10 17 21 37 16 213 233 208 206 205 202 
10 37 22 21 17 237 234 233 208 211 213 
10 49 91 65 86 349 434 350 342 506 435 
10 7 1 26 2 105 103 139 107 106 108 
10 17 55 12 54 214 172 178 209 373 175 
10 19 33 13 35 228 187 184 225 272 186 
10 7 2 26 27 107 108 139 142 109 252 
10 33 9 8 31 155 146 148 266 156 149 
10 55 18 39 17 223 220 294 214 215 212 
10 23 22 39 17 238 236 239 216 211 212 
10 18 23 39 17 222 239 220 215 216 212 
10 26 7 27 43 139 142 252 250 138 253 
10 32 15 11 34 198 164 167 270 195 166 
10 39 19 18 35 224 218 220 279 225 219 
10 23 19 39 24 227 224 239 240 229 241 
10 28 9 31 8 154 156 259 147 146 149 
10 28 4 29 9 117 119 260 154 118 157 
10 51 91 49 71 365 349 351 363 464 347 
10 96 71 90 91 463 465 515 520 464 516 
10 13 55 12 17 182 172 171 189 214 178 
10 92 71 91 67 462 464 519 445 447 448 
10 25 5 26 30 122 120 243 246 123 249 
10 47 61 45 60 331 324 323 332 406 325 
10 33 49 8 13 273 150 148 187 190 151 
10 85 90 64 48 504 426 425 336 339 337 
10 13 9 8 33 158 146 151 187 155 148 
10 78 64 84 83 427 428 484 485 429 497 
10 6 32 11 48 131 167 129 130 269 163 
10 16 37 54 53 202 285 207 204 289 371 
10 47 33 8 31 274 148 152 267 266 149 
10 1 7 26 6 105 139 103 104 128 127 
10 76 80 60 81 479 404 407 480 492 408 
10 90 94 69 95 517 454 455 518 524 456 
10 90 50 70 66 357 358 460 441 356 442 
10 7 2 27 28 107 109 142 140 110 254 
10 29 28 47 45 260 255 261 262 256 323 
10 3 7 8 28 116 143 114 112 140 147 
10 29 28 31 47 260 259 263 261 255 267 
10 47 33 49 8 274 273 333 152 148 150 
10 28 8 31 47 147 149 259 255 152 267 
10 90 70 69 66 460 457 455 441 442 440 
10 71 97 92 96 467 522 462 463 526 521 
10 58 46 64 62 328 330 391 387 329 417 
10 13 9 33 14 158 155 187 188 159 192 
10 39 56 40 51 295 297 292 293 362 298 
10 3 7 28 2 116 140 112 111 107 110 
10 46 57 58 41 327 383 328 299 301 302 
10 90 50 48 70 357 338 339 460 358 340 
10 90 54 70 48 374 375 460 339 341 340 
10 58 43 64 42 314 311 391 304 305 306 
10 28 43 27 7 258 253 254 140 138 142 
10 8 49 47 44 150 333 152 153 320 318 
10 28 8 47 44 147 152 255 257 153 318 
10 43 49 12 44 308 174 179 313 320 180 
10 12 49 13 44 174 190 171 180 320 191 
10 49 8 13 44 150 151 190 320 153 191 
10 12 13 7 44 171 144 145 180 191 141 
10 43 12 7 44 179 145 138 313 180 141 
10 13 8 7 44 151 143 144 191 153 141 
10 7 8 28 44 143 147 140 141 153 257 
10 91 51 49 65 365 351 349 434 367 350 
10 92 87 65 86 509 437 433 507 508 435 
10 63 61 60 82 414 406 409 421 415 410 
10 60 61 77 82 406 416 411 410 415 483 
10 67 51 72 71 366 364 446 447 363 466 
10 91 92 67 65 519 445 448 434 433 438 
10 63 60 81 82 409 408 423 421 410 494 
10 76 60 77 82 407 411 481 482 410 483 
10 60 76 81 82 407 480 408 410 482 494 
10 39 56 51 55 295 362 293 294 379 361 
10 18 35 13 51 219 186 185 221 281 183 
10 55 13 51 18 182 183 361 223 185 221 
10 49 55 12 51 345 172 174 351 361 173 
10 35 33 13 51 272 187 186 281 275 183 
10 33 49 13 51 273 190 187 275 351 183 
10 49 12 13 51 174 171 190 351 173 183 
10 55 13 18 17 182 185 223 214 189 215 
10 71 56 55 51 381 379 380 363 362 361 
10 51 40 39 35 298 292 293 281 280 279 
10 37 36 50 34 282 284 288 277 276 278 
10 47 60 44 65 332 321 318 334 412 322 
10 49 47 44 65 333 318 320 350 334 322 
10 47 61 60 63 331 406 332 335 414 409 
10 43 44 60 65 313 321 315 316 322 412 
10 43 49 44 65 308 320 313 316 350 322 
10 39 51 18 55 293 221 220 294 361 223 
10 54 39 38 17 296 291 290 209 212 210 
10 90 70 95 69 460 461 518 455 457 456 
10 49 12 54 85 174 175 346 343 181 376 
10 71 49 54 70 347 346 377 459 348 375 
10 51 91 71 67 365 464 363 366 448 447 
10 49 55 51 71 345 361 351 347 380 363 
10 6 43 26 42 134 250 127 135 305 251 
10 73 58 78 57 392 393 471 385 383 386 
10 37 22 17 38 237 211 208 286 235 210 
10 43 49 65 86 308 350 316 309 342 435 
10 59 43 60 86 317 315 399 400 309 405 
10 60 43 65 86 315 316 412 405 309 435 
10 63 60 65 86 409 412 424 422 405 435 
10 60 63 81 86 409 423 408 405 422 493 
10 37 17 16 54 208 206 202 285 209 207 
10 71 95 90 70 468 518 465 459 461 460 
10 49 55 71 54 345 380 347 346 373 377 
10 95 71 90 96 468 465 518 525 463 515 
10 88 69 66 89 453 440 443 512 458 444 
10 90 49 54 85 344 346 374 504 343 376 
10 78 64 62 84 427 417 418 484 428 419 
10 90 66 89 64 441 444 513 426 430 431 
10 54 90 85 48 374 504 376 341 339 336 
10 69 68 88 66 449 451 453 440 439 443 
10 9 29 28 31 157 260 154 156 263 259 
10 54 12 50 48 175 176 359 341 177 338 
10 88 69 89 94 453 458 512 511 454 514 
10 78 58 62 57 393 387 418 386 383 384 
10 69 54 50 70 378 359 354 457 375 358 
10 90 86 91 49 505 506 516 344 342 349 
10 12 54 85 48 175 376 181 177 341 336 
10 89 66 88 64 444 443 512 431 430 432 
10 88 84 89 64 500 501 512 432 428 431 
10 69 70 50 66 457 358 354 440 442 356 
10 49 43 12 85 308 179 174 343 310 181 
10 92 72 97 71 469 470 522 462 466 467 
10 90 94 89 69 517 514 513 455 454 458 
10 69 54 53 50 378 371 372 354 359 353 
10 68 69 52 50 449 369 370 355 354 352 
10 48 7 43 12 137 138 312 177 145 179 
10 69 90 66 89 455 441 440 458 513 444 
10 59 43 86 85 317 309 400 401 310 503 
10 60 80 86 81 404 489 405 408 492 493 
10 69 53 52 50 372 368 369 354 353 352 
10 90 71 49 91 465 347 344 516 464 349 
10 50 37 34 16 288 277 278 203 202 201 
10 54 16 53 50 207 204 371 359 203 353 
10 46 32 30 6 268 265 264 132 131 133 
10 32 34 11 50 270 166 167 271 278 169 
10 12 17 54 50 178 209 175 176 217 359 
10 17 16 54 50 206 207 209 217 203 359 
10 11 17 12 50 170 178 168 169 217 176 
10 11 16 17 50 165 206 170 169 203 217 
10 11 34 16 50 166 201 165 169 278 203 
10 11 7 48 12 136 137 163 168 145 177 
10 64 50 90 66 360 357 426 430 356 441 
10 90 89 84 64 513 501 502 426 431 428 
10 85 59 58 80 401 394 390 491 398 389 
10 60 45 47 44 325 323 332 321 319 318 
10 11 32 50 48 167 271 169 163 269 338 
10 50 64 90 48 360 426 357 338 337 339 
10 43 12 85 48 179 181 310 312 177 336 
10 59 43 85 64 317 310 401 402 311 425 
10 30 6 26 46 133 127 249 264 132 248 
10 46 41 58 42 299 302 328 303 300 304 
10 90 84 85 64 502 499 504 426 428 425 
10 84 62 78 79 419 418 484 487 420 486 
10 70 54 50 48 375 359 358 340 341 338 
10 78 74 79 58 473 474 486 393 395 396 
10 58 46 42 64 328 303 304 391 330 306 
10 54 39 17 55 296 212 209 373 294 214 
10 43 6 48 42 134 130 312 305 135 307 
10 84 64 62 58 428 417 419 388 391 387 
10 58 80 75 74 389 477 397 395 475 476 
10 47 60 65 63 332 412 334 335 409 424 
10 58 80 74 79 389 475 395 396 488 474 
10 85 59 64 58 401 402 425 390 394 391 
10 84 85 64 58 499 425 428 388 390 391 
10 60 75 80 76 413 477 404 407 478 479 
10 48 6 46 42 130 132 326 307 135 303 
10 58 43 59 64 314 317 394 391 311 402 
10 64 43 48 42 311 312 337 306 305 307 
10 64 48 46 42 337 326 330 306 307 303 
10 86 59 85 80 400 401 503 489 398 491 
10 59 58 80 75 394 389 398 403 397 477 
10 60 75 59 80 413 403 399 404 477 398 
10 62 84 58 79 419 388 387 420 487 396 
10 88 84 64 83 500 428 432 498 497 429 
10 80 84 79 58 490 487 488 389 388 396 
10 78 58 79 62 393 396 486 418 387 420 
10 78 74 58 73 473 395 393 471 472 392 

CELL_TYPES 236
24
24
24
24
24
24
24
24
24
24
24
24
24
24
24
24
24
24
24
24
24
24
24
24
24
24
24
24
24
24
24
24
24
24
24
24
24
24
24
24
24
24
24
24
24
24
24
24
24
24
24
24
24
24
24
24
24
24
24
24
24
24
24
24
24
24
24
24
24
24
24
24
24
24
24
24
24
24
24
24
24
24
24
24
24
24
24
24
24
24
24
24
24
24
24
24
24
24
24
24
24
24
24
24
24
24
24
24
24
24
24
24
24
24
24
24
24
24
24
24
24
24
24
24
24
24
24
24
24
24
24
24
24
24
24
24
24
24
24
24
24
24
24
24
24
24
24
24
24
24
24
24
24
24
24
24
24
24
24
24
24
24
24
24
24
24
24
24
24
24
24
24
24
24
24
24
24
24
24
24
24
24
24
24
24
24
24
24
24
24
24
24
24
24
24
24
24
24
24
24
24
24
24
24
24
24
24
24
24
24
24
24
24
24
24
24
24
24
24
24
24
24
24
24
24
24
24
24
24
24
24
24
24
24
24
24

POINT_DATA 527
VECTORS displacement float
0 0 0
0 0 0
0 0 0
0 0 0
0 0 0
0 0 0
0 0 0
0 0 0
0 0 0
0 0 0
0 0 0
0 0 0
0 0 0
0 0 0
0 0 0
0 0 0
0 0 0
0 0 0
0 0 0
0 0 0
0 0 0
0 0 0
0 0 0
0 0 0
0 0 0
-0.0014789 -0.00124086 -0.00120665
-0.00116276 -0.00115276 -0.00058216
-0.00102146 -0.00123905 -3.2387e-06
-0.00111407 -0.0012226 0.000599861
-0.00150703 -0.00125275 0.00124499
-0.001124 -0.00056241 -0.00123081
-0.00109939 -0.000567049 0.00123484
-0.00105568 2.01598e-05 -0.00123725
-0.00111165 -2.98751e-05 0.001205
-0.000974606 0.00068011 -0.00120396
-0.000986274 0.000618726 0.00124592
-0.00150449 0.00132129 -0.00117842
-0.00116134 0.00117584 -0.000565819
-0.000997503 0.00122133 2.65747e-05
-0.00109381 0.00122408 0.000631972
-0.00150554 0.00127442 0.00125075
-0.00250989 -0.00148869 -0.00155665
-0.00242983 -0.00168092 -0.000867634
-0.00241277 -0.00169526 -3.01355e-05
-0.00260189 -0.00173888 0.000792571
-0.0025273 -0.00154368 0.00156929
-0.0025362 -0.000848285 -0.00168207
-0.00252361 -0.00084944 0.00174421
-0.00244923 3.94708e-07 -0.00175007
-0.00237674 2.06803e-05 0.00176391
-0.00252919 0.000917181 -0.00181465
-0.0024552 0.000830323 0.0018197
-0.00249656 0.00163883 -0.00153383
-0.00249154 0.00177475 -0.000803539
-0.00235009 0.00170643 3.68858e-05
-0.0025953 0.00167842 0.000846822
-0.0024811 0.0015276 0.00161605
-0.00348302 -0.00137527 -0.00125981
-0.00385931 -0.00133576 -0.000576592
-0.00402979 -0.00128645 3.08493e-05
-0.00390184 -0.00127256 0.000542198
-0.00351687 -0.00142125 0.00120259
-0.00392831 -0.000610129 -0.00141445
-0.00391597 -0.000671596 0.00143433
-0.00409109 2.88757e-05 -0.00136147
-0.0039732 -4.96171e-05 0.00137098
-0.00405378 0.000637941 -0.0012955
-0.00391398 0.000550873 0.00132328
-0.00349813 0.00129261 -0.00119294
-0.0037884 0.00129701 -0.000509381
-0.0039021 0.00129605 3.55866e-05
-0.00384007 0.00130921 0.000541464
-0.00349561 0.00126649 0.00122627
-0.005 0 0
-0.005 0 0
-0.005 0 0
-0.005 0 0
-0.005 0 0
-0.005 0 0
-0.005 0 0
-0.005 0 0
-0.005 0 0
-0.005 0 0
-0.005 0 0
-0.005 0 0
-0.005 0 0
-0.005 0 0
-0.005 0 0
-0.005 0 0
-0.005 0 0
-0.005 0 0
-0.005 0 0
-0.005 0 0
-0.005 0 0
-0.005 0 0
-0.005 0 0
-0.005 0 0
-0.005 0 0
0 0 0
-0.000766808 -0.000726099 -0.0010997
-0.000366903 -0.000942142 -0.000609404
0 0 0
0 0 0
-0.000322953 -0.000966286 -0.000364627
0 0 0
0 0 0
0 0 0
0 0 0
-0.000351197 -0.00101556 -0.000173385
-0.000340555 -0.000925709 2.00758e-05
-0.000338537 -0.000974529 0.000216503
0 0 0
-0.000314473 -0.000932265 0.000383485
0 0 0
0 0 0
0 0 0
0 0 0
-0.000357227 -0.000936679 0.000608248
0 0 0
-0.000783296 -0.000726174 0.00111264
-0.000327208 -0.000622009 -0.000559612
0 0 0
-0.000613313 -0.000498775 -0.000915398
-0.000474937 -0.000335122 -0.000819556
-0.000316556 -4.45397e-05 -0.000967947
0 0 0
0 0 0
-0.000348114 -0.000617098 -0.000327827
0 0 0
0 0 0
-0.000806764 -0.000276927 -0.000987823
-0.000277439 -8.99881e-05 -0.000659917
-0.00100589 -0.000578199 -0.000896252
-0.000402196 -0.000344982 -0.000594484
-0.000899428 -0.000908832 -0.000284793
-0.00102067 -0.000837642 -0.000584904
0 0 0
-0.000714955 -0.000294121 -0.000712983
-0.00090755 -0.000923625 -2.89971e-05
-0.000302082 -0.00066157 -0.000143041
-0.000274007 -0.000628321 0.000196134
-0.000736738 -0.001028 0.000323769
-0.000297355 -0.000669829 2.24816e-05
0 0 0
0 0 0
0 0 0
0 0 0
-0.000305959 -0.000607211 0.000369795
-0.000304507 -0.00013364 0.000660934
-0.000370919 -0.000351351 0.000598615
-0.00087822 -0.000294848 0.000939226
0 0 0
-0.000973423 -0.000584816 0.000895207
-0.000816186 -0.000952368 0.00062506
-0.000313739 -0.000620206 0.000578716
-0.000325945 -7.72337e-05 0.000991449
-0.00045009 -0.000337893 0.000830687
-0.000610243 -0.000495725 0.000929513
0 0 0
0 0 0
0 0 0
-0.000308772 9.77517e-05 -0.00098308
0 0 0
-0.000688153 4.64457e-05 -0.00105908
0 0 0
0 0 0
-0.000237184 0.000222811 -0.000622432
-0.000270556 7.14056e-05 -0.000634043
0 0 0
-0.000704495 0.000335734 -0.00102671
0 0 0
0 0 0
-0.000785706 0.000664833 0.000326721
-0.000810398 0.000326023 0.000681239
-0.000873229 6.69741e-06 0.000743626
-0.00083369 0.000708308 2.85658e-06
-0.000736384 0.000347058 -0.000690039
-0.000767724 3.6594e-05 -0.000735679
0 0 0
-0.000880806 -0.000698644 -2.39516e-05
-0.000777339 -0.0007021 0.000314301
-0.00248903 1.61701e-05 3.17896e-06
-0.000734938 0.000666248 0.000669823
-0.00083175 0.000312273 0.000958914
0 0 0
0 0 0
-0.000258539 0.000198384 0.0006563
-0.000296733 4.53991e-05 0.000654953
0 0 0
0 0 0
-0.000877423 -2.86333e-06 0.000962563
-0.000742023 -0.000669023 0.000660789
-0.00032407 6.84184e-05 0.0010281
0 0 0
0 0 0
-0.000335436 0.000393446 -0.000802195
-0.000582552 0.000485786 -0.000867876
-0.000319641 0.000574669 -0.000546718
-0.000321779 0.00024583 -0.00089783
0 0 0
0 0 0
-0.000286074 0.000389827 -0.000558977
-0.00035278 0.000603564 -0.000314278
-0.000788671 0.000657252 -0.000920486
-0.000954735 0.000894221 -0.00056097
0 0 0
0 0 0
-0.000865015 0.000921642 -0.000260492
-0.000293733 0.000649512 -0.000136086
-0.00086127 0.000916869 6.22438e-06
-0.00028841 0.000647912 3.33546e-05
0 0 0
-0.000269961 0.000630654 0.000207976
0 0 0
-0.000733276 0.00100897 0.000339484
0 0 0
0 0 0
-0.000722001 0.000657667 -0.000666988
0 0 0
-0.000292135 0.000362474 0.000605907
-0.000305013 0.000591722 0.000375627
-0.000836707 0.000598338 0.000935425
0 0 0
-0.00077279 0.000969929 0.000637951
-0.000305559 0.000562132 0.000584994
-0.000338387 0.000359188 0.000866275
-0.000587615 0.000456279 0.000908649
0 0 0
-0.000338116 0.000223303 0.000955081
0 0 0
-0.000778778 0.000711737 -0.00107127
-0.000367214 0.000917158 -0.000577012
0 0 0
-0.000322407 0.000954702 -0.000356072
0 0 0
-0.000328465 0.00090262 3.35322e-05
-0.000331316 0.000957592 0.000224654
-0.000349191 0.000990845 -0.000156587
0 0 0
-0.000307627 0.000912905 0.000401939
0 0 0
-0.000349799 0.000889752 0.000606151
-0.000782637 0.000684479 0.00110519
-0.00125825 -0.00121541 -0.000929792
-0.00200334 -0.00139871 -0.0013621
-0.0018826 -0.00110304 -0.00141716
-0.00121162 -0.000891844 -0.00127775
-0.00187891 -0.00138702 -0.00107156
-0.00175295 -0.00107594 -0.0011155
-0.00101337 -0.000861619 -0.000942855
-0.00175981 -0.00142237 -0.000401395
-0.00177547 -0.00140386 -0.000762356
-0.00109562 -0.0012261 -0.000308506
-0.00168863 -0.00146603 -1.11155e-05
-0.00108465 -0.0012492 0.000306996
-0.00174522 -0.00111735 0.00115069
-0.0019022 -0.00145048 0.00111491
-0.00182723 -0.00150847 0.000737977
-0.00169764 -0.00156645 0.000390312
-0.000999139 -0.000887171 0.000954665
-0.00126309 -0.00123882 0.000961531
-0.0018893 -0.00112309 0.00144249
-0.00203122 -0.001433 0.00140456
-0.00120824 -0.000898198 0.00129988
-0.00182515 -0.000738378 -0.00146966
-0.0010697 -0.000280473 -0.00125558
-0.00107347 -0.000297035 0.00124623
-0.00180857 -0.000740483 0.00148374
-0.00171775 -0.000403885 -0.00152534
-0.00168238 2.05587e-06 -0.0015541
-0.000990112 0.000357443 -0.00125955
-0.00166544 0.000398192 -0.00160089
-0.00102823 0.000303626 0.00126439
-0.00171499 -1.80656e-05 0.00148571
-0.00173019 -0.000393472 0.00149313
-0.00170681 0.000347232 0.00152948
-0.0011404 0.000995884 -0.00126454
-0.000931594 0.000936871 -0.00091005
-0.00172815 0.00086243 -0.00149704
-0.000941505 0.000899911 0.000957468
-0.00115514 0.000932808 0.0013195
-0.00171443 0.0007728 0.00151465
-0.00127822 0.00126064 -0.000899055
-0.00200484 0.00155612 -0.00131519
-0.00183737 0.00126055 -0.00140641
-0.0017388 0.00144318 -0.000345732
-0.00108605 0.00121764 -0.000276652
-0.00187662 0.0015278 -0.00103648
-0.00167604 0.00120109 -0.00110123
-0.00178882 0.00148698 -0.00071463
-0.00164811 0.00146576 2.97677e-05
-0.00105809 0.00122704 0.000332329
-0.00125256 0.00124037 0.000973432
-0.00168326 0.00113303 0.00117089
-0.0017966 0.00150116 0.000785048
-0.00186338 0.00146264 0.00114782
-0.00166557 0.00153234 0.000410676
-0.00200582 0.0014472 0.00142097
-0.00184341 0.00114866 0.00146703
-0.00251064 -0.00122022 -0.00158546
-0.00246113 -0.00155523 -0.001243
-0.00298528 -0.00141601 -0.00142254
-0.0030733 -0.00143061 -0.0011344
-0.00244568 -0.00126324 -0.00127009
-0.00315435 -0.00146187 -0.000784805
-0.00240108 -0.00169776 -0.000465155
-0.00328229 -0.000758427 -0.00117731
-0.00245352 -0.000866509 -0.00127557
-0.00245335 -0.000850185 0.000826814
-0.00414874 -0.000634778 0.000342935
-0.00414541 -0.000680586 2.14763e-05
-0.00331592 -0.000747243 -0.000792579
-0.00242969 -0.000859594 -0.000822632
-0.00245557 -0.00178236 0.000363562
-0.00320518 -0.00149931 -0.000400854
-0.00324658 -0.0015588 0.000345683
-0.00337509 -0.00077846 0.000836965
-0.00329089 -0.00150039 1.36701e-06
-0.00254123 -0.00127583 0.00129668
-0.00253659 -0.00158759 0.00121967
-0.00247604 -0.000821539 0.0013092
-0.00329988 -0.00146722 0.000734848
-0.0033494 -0.000814536 0.00121021
-0.00252653 -0.00126271 0.00163783
-0.00301825 -0.00148845 0.00136337
-0.00314626 -0.00145052 0.00106882
-0.00249405 -0.00042918 -0.00173338
-0.00310632 -0.00113117 -0.00145895
-0.00317161 -0.00110615 -0.00116171
-0.00317777 -0.000785843 -0.00150321
-0.00330067 -0.000419164 -0.00154454
-0.00314547 -0.0011903 0.00143843
-0.00325982 -0.00115223 0.00115468
-0.00242862 -0.000412208 0.00176829
-0.00325255 -0.000444821 0.00160427
-0.00317268 -0.000835482 0.00152712
-0.00415837 3.11509e-06 -0.000752287
-0.00334231 -2.1031e-05 -0.00157561
-0.00247552 0.000472303 -0.00176614
-0.00415554 0.000322118 -0.000703983
-0.00334487 0.000854945 -0.000728739
-0.0024136 0.000891034 -0.000788466
-0.00422223 -7.24916e-05 0.00107815
-0.00417814 -4.85926e-05 0.00075615
-0.00424907 0.00028708 0.000740958
-0.00242161 0.000843533 0.00130837
-0.00244771 0.000813665 0.000803908
-0.0032944 0.000831219 0.00117367
-0.00337968 0.000800349 0.000758488
-0.00419315 0.000243872 0.00105036
-0.0032485 -5.83017e-05 0.00163577
-0.00237832 0.000446579 0.00179157
-0.00249702 0.00134555 -0.00164662
-0.00247024 0.00138407 -0.00126713
-0.00327375 0.00122005 -0.00111755
-0.00314866 0.0012533 -0.00143246
-0.00334597 0.000830212 -0.00149812
-0.00408343 0.000649619 -0.000620554
-0.0033192 0.00122417 -0.000751274
-0.00243175 0.00134283 -0.000834312
-0.00332862 0.000426984 -0.00150279
-0.00251805 0.00122486 0.00133898
-0.00248139 0.00124514 0.00171013
-0.00325976 0.00116701 0.00116152
-0.00311439 0.00114332 0.00145994
-0.00405871 0.000547947 0.00100707
-0.00319152 0.00073869 0.00156318
-0.00321907 0.000323318 0.00162606
-0.00248499 0.00170329 -0.00120191
-0.00307741 0.00153852 -0.00106024
-0.00297714 0.00155962 -0.00134306
-0.00238894 0.00175012 -0.000398383
-0.00319152 0.00155549 -0.000743161
-0.00244191 0.00172943 0.000430797
-0.00399357 0.000989802 2.25154e-05
-0.00319067 0.00158889 4.05171e-05
-0.00401018 0.000712777 1.10897e-05
-0.00323501 0.00153251 0.000437182
-0.00318943 0.00158983 -0.000364473
-0.00251487 0.00157888 0.00125685
-0.00331436 0.00143356 0.000807628
-0.00312111 0.00144116 0.00110703
-0.00296414 0.00145627 0.00139383
-0.00371908 -0.00136395 -0.000967909
-0.00379808 -0.000983883 -0.00140259
-0.00419453 -0.000736119 -0.00119079
-0.00440425 -0.000515148 -0.00103469
-0.0039485 -0.000974932 -0.00101845
-0.0046849 -0.000377109 -0.000454143
-0.00468912 -0.000703408 -0.000189428
-0.0046995 -0.000428837 -0.000210408
-0.00402846 -0.000649089 -0.000986491
-0.00463477 -0.0009357 -0.000662304
-0.0046745 -0.000624481 -0.000703259
-0.0039537 -0.00131026 -0.000273555
-0.0046855 -0.000921828 -0.000415882
-0.0046754 -0.000629824 -0.000450441
-0.00466224 -0.00102111 -0.000196705
-0.00469991 -0.000746142 1.62265e-06
-0.00397746 -0.00130598 0.000313793
-0.00474425 -0.00056051 0.000182884
-0.00471821 -0.000517423 7.93214e-06
-0.00408807 -0.00064128 -0.000648993
-0.00465717 -0.000967557 1.26666e-05
-0.00470239 -0.000745066 0.000185336
-0.00470612 -0.000379679 0.000433302
-0.0037488 -0.00135315 0.000919428
-0.00469671 -0.000901998 0.00039392
-0.00469001 -0.000615102 0.000424418
-0.00399449 -0.000997318 0.00101348
-0.00468426 -0.00063501 0.000665978
-0.004646 -0.000943739 0.000623548
-0.00406853 -0.00070131 0.00101544
-0.00465979 -0.00107117 0.000198897
-0.00382209 -0.00104745 0.00138211
-0.00441235 -0.000550792 0.00099567
-0.00421146 -0.000765504 0.00113974
-0.00400509 -0.000276507 -0.00138013
-0.00463223 -0.000373185 -0.000969673
-0.00469558 -0.00017878 -0.000719269
-0.00468725 -0.000403155 -0.000703489
-0.00462369 -0.000410742 0.000933364
-0.00470464 -0.000217866 0.00068097
-0.00470185 -0.00043008 0.000670078
-0.00395101 -0.00034795 0.00140829
-0.00472183 2.10392e-05 -0.000536195
-0.00475457 0.000195823 -0.000611164
-0.00469492 -0.000192649 -0.00101767
-0.00474083 -2.34933e-05 -0.000762928
-0.00473333 -2.85148e-05 -0.00104874
-0.00407518 0.000364279 -0.00132621
-0.00473107 0.000183122 -0.000799209
-0.00472851 0.000117946 -0.00102569
-0.00469712 2.22412e-05 0.00101055
-0.00472945 9.46706e-05 0.000697438
-0.0047068 -4.3347e-05 0.000674561
-0.00467566 -0.000236525 0.000984167
-0.0047037 -9.97737e-05 0.00104132
-0.00394192 0.000254563 0.00135874
-0.00386032 0.000952195 -0.00127509
-0.0040021 0.000947974 -0.000946556
-0.00467942 0.000417923 -0.000500277
-0.00404603 0.000971536 -0.000611626
-0.00460788 0.000382556 -0.000918188
-0.00466598 0.000409634 -0.000719533
-0.00456202 0.00029169 0.000909198
-0.00380843 0.000908196 0.00130862
-0.00400539 0.00090746 0.000967918
-0.0046558 0.000306852 0.000685204
-0.00369979 0.00126716 -0.000890943
-0.00421676 0.000764118 -0.00117184
-0.00441917 0.000544455 -0.00100671
-0.0046181 0.000979714 -0.000660303
-0.00465674 0.000655484 -0.0006772
-0.00466132 0.0010114 -0.000397362
-0.00466417 0.000673793 -0.000247815
-0.00464056 0.00102828 -0.000179048
-0.00387644 0.00130095 -0.000240121
-0.0046638 0.000654058 -0.000460736
-0.00390709 0.00130728 0.000283969
-0.00456698 0.000617161 1.40666e-05
-0.00461279 0.000910847 2.9557e-05
-0.00468708 0.000581906 0.000621584
-0.00468083 0.000929183 0.000400498
-0.00466225 0.000548152 0.000450742
-0.00467177 0.000521392 0.000267106
-0.00370954 0.00124912 0.000926464
-0.00463093 0.000905438 0.000636798
-0.00467034 0.000894718 0.00022546
-0.00440652 0.000468824 0.000964435
-0.00422298 0.000696944 0.00114407
-0.005 0 0
-0.005 0 0
-0.005 0 0
-0.005 0 0
-0.005 0 0
-0.005 0 0
-0.005 0 0
-0.005 0 0
-0.005 0 0
-0.005 0 0
-0.005 0 0
-0.005 0 0
-0.005 0 0
-0.005 0 0
-0.005 0 0
-0.005 0 0
-0.005 0 0
-0.005 0 0
-0.005 0 0
-0.005 0 0
-0.005 0 0
-0.005 0 0
-0.005 0 0
-0.005 0 0
-0.005 0 0
-0.005 0 0
-0.005 0 0
-0.005 0 0
-0.005 0 0
-0.005 0 0
-0.005 0 0
-0.005 0 0
-0.005 0 0
-0.005 0 0
-0.005 0 0
-0.005 0 0
-0.005 0 0
-0.005 0 0
-0.005 0 0
-0.005 0 0
-0.005 0 0
-0.005 0 0
-0.005 0 0
-0.005 0 0
-0.005 0 0
-0.005 0 0
-0.005 0 0
-0.005 0 0
-0.005 0 0
-0.005 0 0
-0.005 0 0
-0.005 0 0
-0.005 0 0
-0.005 0 0
-0.005 0 0
-0.005 0 0

CELL_DATA 236
TENSORS stress float
-2075.9 -225.409 220.24
-225.409 -412.153 63.5396
220.24 63.5396 -133.832

-1894.45 -54.0415 75.044
-54.0415 -188.29 82.9234
75.044 82.9234 -120.339

-2252.49 -627.674 506.527
-627.674 -1382.2 -16.7934
506.527 -16.7934 -1453.81

-1735.31 53.8441 -147.24
53.8441 -224.019 52.7944
-147.24 52.7944 -160.535

-1815.93 -509.902 -366.939
-509.902 -936.169 39.2214
-366.939 39.2214 -1060.45

-2377.35 250.713 -490.525
250.713 -1724.21 -1.06073
-490.525 -1.06073 -1655.69

-2758.44 -58.6862 -227.48
-58.6862 -1891.36 -38.0537
-227.48 -38.0537 -1928.99

-1660.29 51.9576 2.18402
51.9576 -117.538 -0.637244
2.18402 -0.637244 -189.427

-2225.7 104.782 161.136
104.782 -552.821 -13.6498
161.136 -13.6498 -598.768

-3545.2 -79.6122 -229.667
-79.6122 -2636.64 -15.8978
-229.667 -15.8978 -2642.79

-1509.24 -12.4806 -32.1805
-12.4806 70.0448 30.8291
-32.1805 30.8291 34.1635

-1779.34 -86.649 -552.495
-86.649 -1235.88 -17.5822
-552.495 -17.5822 -1046.04

-1516.29 112.58 -435.605
112.58 -399.671 -4.05986
-435.605 -4.05986 -146.244

-2072.23 -223.109 -201.534
-223.109 -399.807 -31.199
-201.534 -31.199 -123.334

-1619.44 13.1722 -0.19864
13.1722 67.4703 -35.2386
-0.19864 -35.2386 -84.2472

-1573.95 -14.3777 -9.65926
-14.3777 277.395 -27.401
-9.65926 -27.401 228.929

-1519.77 -13.513 -19.2543
-13.513 36.5891 -27.0238
-19.2543 -27.0238 23.1145

-1672.46 330.181 64.3402
330.181 -320.72 26.362
64.3402 26.362 -537.08

-2337.89 95.699 55.7239
95.699 -331.698 4.23131
55.7239 4.23131 -287.514

-1824.89 -299.337 -369.712
-299.337 -475.508 -20.2425
-369.712 -20.2425 -548.971

-1593.84 -45.1272 11.7006
-45.1272 193.513 -2.27933
11.7006 -2.27933 117.095

-2346.54 217.576 -441.011
217.576 -1796.35 14.3894
-441.011 14.3894 -1712.28

-2109.39 96.4238 -657.008
96.4238 -1513.12 -8.74577
-657.008 -8.74577 -1257.24

-1713.41 105.872 -115.741
105.872 -417.265 -16.7018
-115.741 -16.7018 -179.732

-1920.98 3.37 58.3525
3.37 -166.497 -46.6112
58.3525 -46.6112 -155.421

-2211.7 -600.65 -442.379
-600.65 -1365.6 43.3575
-442.379 43.3575 -1455.25

-1618.68 54.3346 -86.6889
54.3346 93.2473 57.986
-86.6889 57.986 144.244

-2232.6 255.107 -107.774
255.107 -1177.63 76.5137
-107.774 76.5137 -1152.16

-1766.22 -84.2649 -78.3502
-84.2649 -284.923 -85.4745
-78.3502 -85.4745 -345.382

-1878.83 -467.264 -441.997
-467.264 -1017.33 14.3353
-441.997 14.3353 -1207.74

-1968.1 -201.592 -97.6497
-201.592 -420.513 -38.6012
-97.6497 -38.6012 -622.223

-1643.43 -112.025 -127.308
-112.025 42.3353 28.8552
-127.308 28.8552 36.236

-1772.09 119.947 -602.654
119.947 -1180.1 16.6357
-602.654 16.6357 -958.417

-2193.55 -164.38 -54.8427
-164.38 -514.318 -64.7884
-54.8427 -64.7884 -510.211

-1608.95 -498.601 383.684
-498.601 -802.752 -32.7635
383.684 -32.7635 -920.452

-1499.54 -21.5498 20.717
-21.5498 340.889 38.4012
20.717 38.4012 249.273

-2097.69 -84.7006 -44.2747
-84.7006 -270.753 -15.6013
-44.2747 -15.6013 -300.422

-1531.81 40.1888 64.0668
40.1888 -142.276 -36.3859
64.0668 -36.3859 73.3575

-1786.83 -121.002 -84.0259
-121.002 -311.785 -39.9165
-84.0259 -39.9165 -158.596

-1471.37 2.35742 -48.5638
2.35742 48.663 -58.4129
-48.5638 -58.4129 46.927

-1724.87 57.6025 -150.082
57.6025 -15.8737 -31.72
-150.082 -31.72 -10.0772

-1829.38 -115.217 -306.438
-115.217 -428.876 -113.163
-306.438 -113.163 -421.615

-1769.69 95.7263 116.085
95.7263 -433.616 -1.91215
116.085 -1.91215 -204.31

-1758.76 42.0686 -217.984
42.0686 -198.204 35.8653
-217.984 35.8653 -139.751

-1746.93 489.052 -362.922
489.052 -864.351 -24.55
-362.922 -24.55 -988.144

-2239.11 -594.76 448.864
-594.76 -1414.16 -47.0086
448.864 -47.0086 -1515.51

-1749.03 232.992 172.551
232.992 -1027.19 -28.4793
172.551 -28.4793 -1057.42

-2063.5 225.919 -188.726
225.919 -379.292 11.3853
-188.726 11.3853 -152.032

-2165.73 570.061 -424.77
570.061 -1304.86 -25.7925
-424.77 -25.7925 -1433.28

-2608.03 201.225 465.778
201.225 -2043.61 -11.8335
465.778 -11.8335 -1937.61

-1738.19 109.458 131.577
109.458 -181.215 31.2579
131.577 31.2579 -165.64

-1236.76 286.111 -380.001
286.111 -182.824 11.1197
-380.001 11.1197 -84.4723

-1524.4 472.575 393.023
472.575 -725.314 18.2106
393.023 18.2106 -836.098

-1716.88 -69.5764 -521.885
-69.5764 -1147.98 -4.96677
-521.885 -4.96677 -987.829

-1755.32 14.6659 -632.977
14.6659 -1177.8 -20.0066
-632.977 -20.0066 -945.609

-1962.94 98.806 631.81
98.806 -1337.34 -13.3136
631.81 -13.3136 -1093.68

-1475.47 -86.0428 -62.0429
-86.0428 104.049 -59.3965
-62.0429 -59.3965 124.039

-2068.99 219.013 205.836
219.013 -400.101 -26.4795
205.836 -26.4795 -151.94

-1748.27 -82.9848 -98.5131
-82.9848 -132.473 -13.4881
-98.5131 -13.4881 -130.071

-2406.74 510.01 -151.759
510.01 -1594.76 -8.13856
-151.759 -8.13856 -1770.79

-1845.41 641.32 -129.347
641.32 -1009.91 -1.87375
-129.347 -1.87375 -1183.55

-1781.76 -46.2733 -202.554
-46.2733 -539.98 -6.95714
-202.554 -6.95714 -500.61

-1936.49 -655.478 -139.044
-655.478 -1080.82 1.36705
-139.044 1.36705 -1275.56

-1976.74 188.159 91.5648
188.159 -483.215 30.2196
91.5648 30.2196 -393.555

-1505.56 130.169 334.587
130.169 -490.026 -11.0024
334.587 -11.0024 -196.926

-1780.71 -317.411 -40.1652
-317.411 -388.03 50.698
-40.1652 50.698 -636.05

-1853.97 -149.672 299.293
-149.672 -544.315 122.591
299.293 122.591 -450.509

-1541.89 143.92 125.641
143.92 -403.785 -49.8785
125.641 -49.8785 -345.943

-1764.07 619.691 184.976
619.691 -975.279 0.0320909
184.976 0.0320909 -1149.3

-1723.43 500.78 222.188
500.78 -977.629 7.2215
222.188 7.2215 -1133.78

-1745.35 -55.822 -25.7609
-55.822 -138.167 -21.306
-25.7609 -21.306 -230.742

-1359.37 146.187 -339.292
146.187 -363.033 21.0071
-339.292 21.0071 -122.038

-1364.52 279.184 386.856
279.184 -264.637 -20.9052
386.856 -20.9052 -191.544

-2176.37 555.32 451.921
555.32 -1354.65 28.7777
451.921 28.7777 -1478.54

-1819.14 -297.332 353.322
-297.332 -506.656 4.05748
353.322 4.05748 -579.185

-2094.37 -223.49 204.768
-223.49 -416.015 39.0076
204.768 39.0076 -129.654

-2342.25 -148.183 -63.4636
-148.183 -622.241 -162.822
-63.4636 -162.822 -495.343

-2125.87 -436.65 -279.649
-436.65 -1245.67 3.32042
-279.649 3.32042 -1435.4

-2976.08 206.604 141.483
206.604 -2036.51 9.49614
141.483 9.49614 -2040.2

-1847.65 -279.051 -379.446
-279.051 -542.679 -34.6449
-379.446 -34.6449 -664.966

-1810.41 -96.6223 -101.455
-96.6223 -333.739 -0.600716
-101.455 -0.600716 -170.928

-1459.72 -33.2012 -40.5543
-33.2012 69.1331 38.6507
-40.5543 38.6507 52.9904

-2195.09 -75.2546 227.073
-75.2546 -869.319 28.4307
227.073 28.4307 -771.712

-2739.59 -53.6544 135.644
-53.6544 -1391.34 -24.3045
135.644 -24.3045 -1343.77

-2012.54 -103.249 521.856
-103.249 -1389.35 16.632
521.856 16.632 -1224.34

-2021.42 66.4226 703.604
66.4226 -1446.01 -4.59678
703.604 -4.59678 -1279.71

-1566.91 -29.4348 -163.554
-29.4348 -354.016 -50.9815
-163.554 -50.9815 -432.236

-1757.26 52.0391 -63.0119
52.0391 -296.217 17.9921
-63.0119 17.9921 -160.798

-1760.88 -71.9584 71.6637
-71.9584 -248.732 35.6579
71.6637 35.6579 -188.077

-2364.45 -518.494 -165.691
-518.494 -1546.55 7.38975
-165.691 7.38975 -1717.13

-1561.62 561.414 -242.586
561.414 -794.469 57.4555
-242.586 57.4555 -864.937

-2234.48 -665.237 177.11
-665.237 -1350.18 24.2013
177.11 24.2013 -1520.38

-1666.48 -167.226 119.796
-167.226 -27.1926 -5.5138
119.796 -5.5138 -50.7196

-1733.74 -337.255 56.5406
-337.255 -342.455 -13.0863
56.5406 -13.0863 -575.211

-1539.45 -16.8568 26.8405
-16.8568 71.5088 38.4399
26.8405 38.4399 14.1309

-1612.44 -506.188 217.538
-506.188 -854.766 -9.27121
217.538 -9.27121 -1011.03

-1580.47 -39.1736 -11.7572
-39.1736 236.249 6.47017
-11.7572 6.47017 145.698

-1506.45 -27.1555 44.9832
-27.1555 121.774 7.77407
44.9832 7.77407 22.8291

-1725.08 -171.414 128.538
-171.414 -108.09 -46.5174
128.538 -46.5174 -39.5552

-2007.98 -165.349 74.9247
-165.349 -443.227 -0.226863
74.9247 -0.226863 -468.986

-2080.71 -568.718 -478.528
-568.718 -1245.43 28.4515
-478.528 28.4515 -1334.32

-1789.28 24.6246 32.001
24.6246 14.0518 -3.73897
32.001 -3.73897 45.3578

-1884.39 -11.6228 652.043
-11.6228 -1280.42 26.4375
652.043 26.4375 -1025.65

-1510.78 -15.304 42.6863
-15.304 65.4226 -30.8429
42.6863 -30.8429 11.3041

-1802 -622.911 176.543
-622.911 -987.235 -2.33176
176.543 -2.33176 -1188.87

-1482.63 -29.7472 55.1939
-29.7472 72.3208 -24.1553
55.1939 -24.1553 50.9825

-2158.44 -123.521 90.4945
-123.521 -402.856 41.5457
90.4945 41.5457 -405.864

-2082.92 -118.384 40.2248
-118.384 -258.818 8.99443
40.2248 8.99443 -282.319

-1876.44 56.753 67.0091
56.753 -4.36261 -15.0719
67.0091 -15.0719 45.8995

-1585.27 -77.3822 19.2254
-77.3822 -65.6484 -72.1833
19.2254 -72.1833 -82.8142

-2181.82 -29.5474 52.9371
-29.5474 -367.389 39.7007
52.9371 39.7007 -432.659

-1788.05 -6.56826 -68.6591
-6.56826 -228.91 91.2107
-68.6591 91.2107 -170.746

-2278.95 -99.2995 73.2553
-99.2995 -227.994 27.4222
73.2553 27.4222 -216.681

-2079.16 -88.1962 177.259
-88.1962 -449.531 46.5881
177.259 46.5881 -541.042

-1563.82 -98.443 77.102
-98.443 -148.052 103.119
77.102 103.119 -219.242

-2980.02 -219.853 130.374
-219.853 -2069.09 7.42588
130.374 7.42588 -2054.2

-1778.7 -190.589 120.804
-190.589 -251.232 -52.602
120.804 -52.602 -127.909

-2736.16 -236.343 157.962
-236.343 -1917.03 45.1892
157.962 45.1892 -1904.63

-1533.58 -161.028 104.741
-161.028 -335.995 75.9103
104.741 75.9103 -296.805

-1571.63 -40.8602 29.4246
-40.8602 149.975 -75.42
29.4246 -75.42 102.108

-1952.19 11.739 -677.089
11.739 -1389.17 -40.1565
-677.089 -40.1565 -1118.21

-1905.65 156.089 -116.732
156.089 -466.598 23.6671
-116.732 23.6671 -279.979

-2053.09 278.635 -212.93
278.635 -414.419 54.2469
-212.93 54.2469 -117.06

-1527.64 -43.4598 4.40721
-43.4598 315.861 -76.9056
4.40721 -76.9056 215.748

-1857.91 -130.129 -362.489
-130.129 -565.956 -82.3563
-362.489 -82.3563 -494.395

-1621.8 310.43 -384.09
310.43 -476.186 -10.9358
-384.09 -10.9358 -381.21

-2201.7 608.045 -485.969
608.045 -1387.24 -34.7388
-485.969 -34.7388 -1472.5

-1782.06 510.878 -438.386
510.878 -1017 -19.495
-438.386 -19.495 -1064.46

-1916.23 9.13382 98.3624
9.13382 -133.594 -56.1739
98.3624 -56.1739 -85.4293

-1743.78 122.373 243.207
122.373 -433.825 -20.2385
243.207 -20.2385 -301.592

-1719.12 127.617 144.769
127.617 -256.792 -82.7509
144.769 -82.7509 -309.828

-2139.36 58.8637 90.1975
58.8637 -278.083 -29.0394
90.1975 -29.0394 -180.355

-1718.1 76.1409 64.43
76.1409 -197.279 -12.6775
64.43 -12.6775 -169.243

-1392.88 44.8843 47.1087
44.8843 235.956 6.33975
47.1087 6.33975 100.717

-1832.66 78.275 206.005
78.275 -312.697 -38.4047
206.005 -38.4047 -426.85

-2633.29 246.062 182.456
246.062 -1791.95 -26.0956
182.456 -26.0956 -1800.26

-1507.61 -19.494 -36.0875
-19.494 152.478 -50.2073
-36.0875 -50.2073 191.801

-1549.17 -4.13471 -11.5235
-4.13471 254.901 9.96735
-11.5235 9.96735 201.407

-1611.21 21.5599 21.4464
21.5599 202.143 -9.74216
21.4464 -9.74216 143.55

-1695.96 20.2228 -1.26962
20.2228 62.1168 56.334
-1.26962 56.334 90.1072

-1454.67 20.4609 -75.3286
20.4609 700.085 -8.25648
-75.3286 -8.25648 672.001

-1468.59 5.84569 40.92
5.84569 323.088 43.0935
40.92 43.0935 270.007

-1706.38 105.388 -98.3084
105.388 127.117 72.6365
-98.3084 72.6365 194.292

-2333.13 50.5547 -35.5252
50.5547 -198.207 4.08829
-35.5252 4.08829 -188.739

-1766.07 -46.4422 -42.4451
-46.4422 -197.931 -83.7972
-42.4451 -83.7972 -164.405

-1542.91 68.0713 21.4081
68.0713 -74.8748 67.2616
21.4081 67.2616 -91.0627

-1929.39 -365.45 71.2333
-365.45 -379.93 -39.0663
71.2333 -39.0663 -568.91

-2221.71 25.0573 -10.9949
25.0573 -282.27 29.3789
-10.9949 29.3789 -275.812

-1973.4 -28.0328 -63.2737
-28.0328 -66.6652 28.0659
-63.2737 28.0659 19.4429

-1759.57 -156.6 -132.053
-156.6 -37.9818 -10.4867
-132.053 -10.4867 -188.807

-1325.5 -62.5576 -114.707
-62.5576 639.553 32.7652
-114.707 32.7652 775.749

-1850.26 -73.7615 -71.9848
-73.7615 -286.7 -51.2347
-71.9848 -51.2347 -217.908

-2089.07 267.299 229.118
267.299 -424.372 -69.4981
229.118 -69.4981 -119.388

-1721.13 314.744 -25.2526
314.744 -351.557 -48.6069
-25.2526 -48.6069 -585.821

-2026.34 -90.4102 -17.6203
-90.4102 -329.695 34.355
-17.6203 34.355 -337.902

-1747.26 59.9474 -42.6259
59.9474 -78.1255 68.0786
-42.6259 68.0786 -151.222

-1830.49 118.328 -133.54
118.328 -255.305 -18.8294
-133.54 -18.8294 -179.156

-2035.74 165.339 -187.046
165.339 -685.598 14.0162
-187.046 14.0162 -527.383

-1538.25 198.415 -326.784
198.415 -360.018 -43.8982
-326.784 -43.8982 -330.051

-1911.66 192.666 -73.0007
192.666 -443.75 33.7013
-73.0007 33.7013 -591.22

-1922.68 -431.476 -94.0139
-431.476 -351.755 -58.609
-94.0139 -58.609 -582.823

-1824.02 -100.368 -76.6339
-100.368 148.273 -0.598237
-76.6339 -0.598237 288.757

-2156.5 -566.919 -200.249
-566.919 -1292.08 9.60226
-200.249 9.60226 -1499.51

-1849.34 -275.008 368.768
-275.008 -634.93 35.2526
368.768 35.2526 -687.97

-2141.32 -146.155 -125.694
-146.155 -483.649 -52.2397
-125.694 -52.2397 -386.703

-1450.37 62.6698 454.607
62.6698 -369.57 -23.7761
454.607 -23.7761 -111.19

-2053.01 -190.922 233.429
-190.922 -926.547 85.8525
233.429 85.8525 -959.223

-2023.32 -127.463 82.928
-127.463 -420.85 66.8884
82.928 66.8884 -348.393

-1780.13 -80.2766 64.4346
-80.2766 -393.416 28.772
64.4346 28.772 -230.852

-1818.44 -94.2641 93.2468
-94.2641 -351.23 -0.799641
93.2468 -0.799641 -176.875

-2248.92 69.8696 -49.4615
69.8696 -266.636 3.12702
-49.4615 3.12702 -199.207

-1881.14 -528.782 454.246
-528.782 -1014.5 0.887468
454.246 0.887468 -1149.35

-1921.01 139.325 106.904
139.325 -411.054 -33.9248
106.904 -33.9248 -239.355

-1996.37 -36.3697 63.5953
-36.3697 -109.004 1.05265
63.5953 1.05265 -70.2021

-2937.14 -97.2439 -250.591
-97.2439 -2058.65 -29.2999
-250.591 -29.2999 -2056.97

-2286.98 21.1837 -7.62431
21.1837 -320.956 -52.4126
-7.62431 -52.4126 -332.128

-1620.05 -188.47 386.994
-188.47 -391.7 114.601
386.994 114.601 -430.973

-1943.35 -143.316 640.264
-143.316 -1349.2 2.92232
640.264 2.92232 -1287.7

-1727.38 -72.5521 90.8424
-72.5521 63.8662 33.0972
90.8424 33.0972 73.3146

-2281.78 -14.3581 11.2172
-14.3581 -327.798 -62.7419
11.2172 -62.7419 -310.259

-2076.69 -220.009 -206.892
-220.009 -392.09 -41.9059
-206.892 -41.9059 -113.846

-1975.23 -534.029 283.265
-534.029 -1111.17 19.5097
283.265 19.5097 -1263.95

-1362.49 -98.3227 94.3262
-98.3227 642.958 -3.78872
94.3262 -3.78872 697.222

-1509.17 7.91824 61.9725
7.91824 86.2017 41.7626
61.9725 41.7626 60.5089

-2012.76 -152.481 -104.691
-152.481 -490.273 -63.3514
-104.691 -63.3514 -383.278

-1621.45 -293.087 222.831
-293.087 -430.524 39.4437
222.831 39.4437 -469.179

-2629.49 101.016 -76.0681
101.016 -1218.97 3.37632
-76.0681 3.37632 -1267.03

-2198.29 347.511 -244.372
347.511 -1544.91 50.377
-244.372 50.377 -1548.82

-1761.06 -55.7906 81.2946
-55.7906 -78.6824 80.5142
81.2946 80.5142 -24.224

-1537.88 -176.827 -161.017
-176.827 -175.868 -32.2874
-161.017 -32.2874 -221.359

-1763.66 101.387 -116.906
101.387 -283.762 2.73083
-116.906 2.73083 -229.305

-2178.65 74.0122 -56.7283
74.0122 -464.349 20.4071
-56.7283 20.4071 -395.123

-1753.92 -46.525 -76.9305
-46.525 -226.206 -56.081
-76.9305 -56.081 -215.677

-1596.97 49.6633 -62.911
49.6633 -123.591 31.8347
-62.911 31.8347 -258.207

-2046.1 168.185 -84.7039
168.185 -586.685 32.9015
-84.7039 32.9015 -458.572

-1506.7 69.604 -120.921
69.604 -147.106 129.19
-120.921 129.19 -157.391

-2543.57 142.458 -215.52
142.458 -1668.67 12.3496
-215.52 12.3496 -1642.16

-2457.5 153.653 -250.853
153.653 -1615.44 43.7024
-250.853 43.7024 -1673.4

-1318.35 95.7665 -223.959
95.7665 -65.3342 53.5642
-223.959 53.5642 -118.327

-3035.62 -73.062 -243.45
-73.062 -2133.38 -13.195
-243.45 -13.195 -2133.96

-1946.9 -93.8031 104.161
-93.8031 -320.704 38.1678
104.161 38.1678 -301.463

-1990.95 -153.959 480.837
-153.959 -1431.85 -18.2591
480.837 -18.2591 -1424.61

-1951.78 242.85 23.101
242.85 -747.853 -64.3796
23.101 -64.3796 -835.613

-1393.99 57.3263 -48.1003
57.3263 244.311 89.7713
-48.1003 89.7713 304.832

-1629.22 20.8571 58.4439
20.8571 -46.0062 6.69265
58.4439 6.69265 -226.858

-1638.11 -33.4978 102.024
-33.4978 230.756 63.5252
102.024 63.5252 88.5341

-2260.78 -4.19823 -20.4857
-4.19823 -265.104 58.5652
-20.4857 58.5652 -273.199

-1928.95 79.2584 28.7558
79.2584 -333.662 -16.9981
28.7558 -16.9981 -275.978

-1724.68 -179.844 -137.025
-179.844 -145.213 27.0327
-137.025 27.0327 -13.6372

-1697.33 78.3499 81.6502
78.3499 -71.8844 -57.9788
81.6502 -57.9788 -28.5442

-3127.89 -112.631 359.381
-112.631 -2592.49 -16.303
359.381 -16.303 -2536.73

-2543.37 220.226 521.017
220.226 -1861.23 -6.81808
521.017 -6.81808 -1795.19

-2060.62 -59.7664 96.1751
-59.7664 103.688 -41.6973
96.1751 -41.6973 196.151

-1923.98 510.643 462.968
510.643 -1142.46 7.73608
462.968 7.73608 -1181.6

-1805.79 14.5124 42.5364
14.5124 -9.7127 -14.3512
42.5364 -14.3512 8.8344

-1609.05 -25.8721 63.9113
-25.8721 -197.525 25.1984
63.9113 25.1984 16.0648

-1928.45 -74.6277 -34.9038
-74.6277 -160.685 -30.3781
-34.9038 -30.3781 -82.5566

-2062.56 128.846 161.721
128.846 -690.658 -42.0031
161.721 -42.0031 -539.671

-2011 681.516 164.046
681.516 -1191.83 -28.273
164.046 -28.273 -1328.83

-1717.6 36.4962 14.7273
36.4962 47.2073 28.4259
14.7273 28.4259 46.9464

-1603.64 550.161 253.961
550.161 -807.584 -33.8076
253.961 -33.8076 -860.676

-1907.92 154.175 96.3591
154.175 -536.277 -65.3003
96.3591 -65.3003 -507.25

-1817.53 87.8934 245.707
87.8934 -727.918 -37.2496
245.707 -37.2496 -657.502

-2029.66 709.109 -167.753
709.109 -1206.93 55.687
-167.753 55.687 -1378.73

-2050.12 -35.6781 -62.3742
-35.6781 -300.986 -42.5369
-62.3742 -42.5369 -324.198

-1878.06 36.6267 48.1893
36.6267 -31.8618 -2.52078
48.1893 -2.52078 -7.87546

-2135.61 66.0617 48.5665
66.0617 -84.0338 27.6144
48.5665 27.6144 -46.2101

-1562.88 26.7233 122.245
26.7233 482.142 -8.1768
122.245 -8.1768 477.624

-2617.39 321.468 -88.9281
321.468 -2015.09 -18.4632
-88.9281 -18.4632 -2072.76

-1652.41 391.229 28.0707
391.229 -339.877 4.532
28.0707 4.532 -492.737

-1569.16 366.807 -50.7753
366.807 -274.118 -57.6708
-50.7753 -57.6708 -458.397

-1524.29 188.62 332.048
188.62 -294.281 20.7123
332.048 20.7123 -265.224

-1663.92 -36.2859 725.869
-36.2859 -1129.3 9.78004
725.869 9.78004 -945.492

-2278.81 324.043 249.422
324.043 -1573.52 -24.9225
249.422 -24.9225 -1570.66

-1711.4 296.775 394.69
296.775 -500.801 -2.00877
394.69 -2.00877 -419.778

-2211.74 599.97 515.606
599.97 -1381.29 24.3583
515.606 24.3583 -1448.95

