# vtk DataFile Version 3.0
vtk output at time 0
ASCII
DATASET UNSTRUCTURED_GRID
POINTS 527 float
0 0 0 0 0 0.05 0 0 0.1 
0 0 0.15 0 0 0.2 0 0.05 0 
0 0.05 0.05 0 0.05 0.1 0 0.05 0.15 
0 0.05 0.2 0 0.1 0 0 0.1 0.05 
0 0.1 0.1 0 0.1 0.15 0 0.1 0.2 
0 0.15 0 0 0.15 0.05 0 0.15 0.1 
0 0.15 0.15 0 0.15 0.2 0 0.2 0 
0 0.2 0.05 0 0.2 0.1 0 0.2 0.15 
0 0.2 0.2 0.05 0 0 0.05 0 0.05 
0.05 0 0.1 0.05 0 0.15 0.05 0 0.2 
0.05 0.05 0 0.05 0.05 0.2 0.05 0.1 0 
0.05 0.1 0.2 0.05 0.15 0 0.05 0.15 0.2 
0.05 0.2 0 0.05 0.2 0.05 0.05 0.2 0.1 
0.05 0.2 0.15 0.05 0.2 0.2 0.1 0 0 
0.1 0 0.05 0.1 0 0.1 0.1 0 0.15 
0.1 0 0.2 0.1 0.05 0 0.1 0.05 0.2 
0.1 0.1 0 0.1 0.1 0.2 0.1 0.15 0 
0.1 0.15 0.2 0.1 0.2 0 0.1 0.2 0.05 
0.1 0.2 0.1 0.1 0.2 0.15 0.1 0.2 0.2 
0.15 0 0 0.15 0 0.05 0.15 0 0.1 
0.15 0 0.15 0.15 0 0.2 0.15 0.05 0 
0.15 0.05 0.2 0.15 0.1 0 0.15 0.1 0.2 
0.15 0.15 0 0.15 0.15 0.2 0.15 0.2 0 
0.15 0.2 0.05 0.15 0.2 0.1 0.15 0.2 0.15 
0.15 0.2 0.2 0.2 0 0 0.2 0 0.05 
0.2 0 0.1 0.2 0 0.15 0.2 0 0.2 
0.2 0.05 0 0.2 0.05 0.05 0.2 0.05 0.1 
0.2 0.05 0.15 0.2 0.05 0.2 0.2 0.1 0 
0.2 0.1 0.05 0.2 0.1 0.1 0.2 0.1 0.15 
0.2 0.1 0.2 0.2 0.15 0 0.2 0.15 0.05 
0.2 0.15 0.1 0.2 0.15 0.15 0.2 0.15 0.2 
0.2 0.2 0 0.2 0.2 0.05 0.2 0.2 0.1 
0.2 0.2 0.15 0.2 0.2 0.2 0 0.025 0 
0.025 0 0 0.025 0 0.025 0 0 0.025 
0 0.025 0.025 0.025 0 0.05 0 0.025 0.05 
0 0.025 0.075 0 0 0.075 0 0.025 0.1 
0.025 0 0.075 0.025 0 0.1 0.025 0 0.125 
0 0 0.125 0.025 0 0.15 0 0.025 0.175 
0 0.025 0.15 0 0 0.175 0 0.025 0.125 
0.025 0 0.175 0 0.025 0.2 0.025 0 0.2 
0.025 0.025 0.025 0 0.05 0.025 0.025 0.025 0 
0.025 0.05 0 0.025 0.075 0 0 0.075 0.025 
0 0.075 0 0.025 0.025 0.05 0 0.05 0.075 
0 0.075 0.05 0.05 0.075 0.025 0.025 0.075 0.025 
0.05 0.05 0.025 0.025 0.05 0.025 0.05 0.025 0.075 
0.05 0.025 0.05 0 0.075 0.075 0.05 0.075 0.05 
0.05 0.025 0.1 0.025 0.025 0.075 0.025 0.025 0.125 
0.05 0.025 0.125 0.025 0.025 0.1 0 0.05 0.125 
0 0.075 0.125 0 0.075 0.1 0 0.05 0.175 
0.025 0.025 0.15 0.025 0.075 0.175 0.025 0.05 0.175 
0.05 0.075 0.175 0 0.075 0.15 0.05 0.05 0.175 
0.05 0.025 0.15 0.025 0.025 0.175 0.025 0.075 0.2 
0.025 0.05 0.2 0.025 0.025 0.2 0 0.075 0.175 
0 0.075 0.2 0 0.125 0 0.025 0.1 0 
0 0.1 0.025 0.05 0.1 0.025 0 0.125 0.025 
0 0.125 0.05 0.025 0.125 0.025 0.025 0.1 0.025 
0 0.1 0.075 0.05 0.125 0.025 0 0.125 0.075 
0 0.1 0.125 0.05 0.15 0.125 0.05 0.125 0.15 
0.05 0.1 0.15 0.05 0.15 0.1 0.05 0.125 0.05 
0.05 0.1 0.05 0 0.125 0.1 0.05 0.05 0.1 
0.05 0.05 0.125 0.1 0.1 0.1 0.05 0.15 0.15 
0.05 0.125 0.175 0 0.125 0.175 0 0.125 0.15 
0.025 0.125 0.175 0.025 0.1 0.175 0 0.1 0.175 
0 0.125 0.125 0.05 0.1 0.175 0.05 0.05 0.15 
0.025 0.1 0.2 0 0.125 0.2 0 0.15 0.025 
0.025 0.15 0 0.025 0.175 0 0.025 0.175 0.025 
0.025 0.125 0 0 0.175 0.025 0 0.175 0 
0.025 0.15 0.025 0.025 0.175 0.05 0.05 0.15 0.025 
0.05 0.175 0.05 0 0.175 0.05 0 0.15 0.075 
0.05 0.175 0.075 0.025 0.175 0.075 0.05 0.175 0.1 
0.025 0.175 0.1 0 0.175 0.1 0.025 0.175 0.125 
0 0.175 0.075 0.05 0.175 0.125 0 0.15 0.125 
0 0.175 0.125 0.05 0.15 0.05 0 0.15 0.175 
0.025 0.15 0.175 0.025 0.175 0.15 0.05 0.15 0.175 
0 0.175 0.15 0.05 0.175 0.15 0.025 0.175 0.175 
0.025 0.15 0.2 0.025 0.175 0.2 0 0.175 0.175 
0.025 0.125 0.2 0 0.175 0.2 0.025 0.2 0 
0.025 0.2 0.025 0 0.2 0.025 0.025 0.2 0.05 
0 0.2 0.075 0.025 0.2 0.1 0.025 0.2 0.125 
0.025 0.2 0.075 0 0.2 0.125 0.025 0.2 0.15 
0 0.2 0.175 0.025 0.2 0.175 0.025 0.2 0.2 
0.05 0 0.025 0.075 0 0 0.075 0.025 0 
0.05 0.025 0 0.075 0 0.025 0.075 0.025 0.025 
0.05 0.025 0.025 0.075 0 0.075 0.075 0 0.05 
0.05 0 0.075 0.075 0 0.1 0.05 0 0.125 
0.075 0.025 0.175 0.075 0 0.175 0.075 0 0.15 
0.075 0 0.125 0.05 0.025 0.175 0.05 0 0.175 
0.075 0.025 0.2 0.075 0 0.2 0.05 0.025 0.2 
0.075 0.05 0 0.05 0.075 0 0.05 0.075 0.2 
0.075 0.05 0.2 0.075 0.075 0 0.075 0.1 0 
0.05 0.125 0 0.075 0.125 0 0.05 0.125 0.2 
0.075 0.1 0.2 0.075 0.075 0.2 0.075 0.125 0.2 
0.05 0.175 0 0.05 0.175 0.025 0.075 0.15 0 
0.05 0.175 0.175 0.05 0.175 0.2 0.075 0.15 0.2 
0.05 0.2 0.025 0.075 0.2 0 0.075 0.175 0 
0.075 0.2 0.075 0.05 0.2 0.075 0.075 0.2 0.025 
0.075 0.175 0.025 0.075 0.2 0.05 0.075 0.2 0.1 
0.05 0.2 0.125 0.05 0.2 0.175 0.075 0.175 0.175 
0.075 0.2 0.15 0.075 0.2 0.175 0.075 0.2 0.125 
0.075 0.2 0.2 0.075 0.175 0.2 0.1 0.025 0 
0.1 0 0.025 0.125 0 0 0.125 0 0.025 
0.1 0.025 0.025 0.125 0 0.05 0.1 0 0.075 
0.125 0.05 0.025 0.1 0.05 0.025 0.1 0.05 0.15 
0.15 0.05 0.125 0.15 0.05 0.1 0.125 0.05 0.05 
0.1 0.05 0.05 0.1 0 0.125 0.125 0 0.075 
0.125 0 0.125 0.125 0.05 0.15 0.125 0 0.1 
0.1 0.025 0.175 0.1 0 0.175 0.1 0.05 0.175 
0.125 0 0.15 0.125 0.05 0.175 0.1 0.025 0.2 
0.125 0 0.2 0.125 0 0.175 0.1 0.075 0 
0.125 0.025 0 0.125 0.025 0.025 0.125 0.05 0 
0.125 0.075 0 0.125 0.025 0.2 0.125 0.025 0.175 
0.1 0.075 0.2 0.125 0.075 0.2 0.125 0.05 0.2 
0.15 0.1 0.05 0.125 0.1 0 0.1 0.125 0 
0.15 0.125 0.05 0.125 0.15 0.05 0.1 0.15 0.05 
0.15 0.1 0.175 0.15 0.1 0.15 0.15 0.125 0.15 
0.1 0.15 0.175 0.1 0.15 0.15 0.125 0.15 0.175 
0.125 0.15 0.15 0.15 0.125 0.175 0.125 0.1 0.2 
0.1 0.125 0.2 0.1 0.175 0 0.1 0.175 0.025 
0.125 0.175 0.025 0.125 0.175 0 0.125 0.15 0 
0.15 0.15 0.05 0.125 0.175 0.05 0.1 0.175 0.05 
0.125 0.125 0 0.1 0.175 0.175 0.1 0.175 0.2 
0.125 0.175 0.175 0.125 0.175 0.2 0.15 0.15 0.175 
0.125 0.15 0.2 0.125 0.125 0.2 0.1 0.2 0.025 
0.125 0.2 0.025 0.125 0.2 0 0.1 0.2 0.075 
0.125 0.2 0.05 0.1 0.2 0.125 0.15 0.175 0.1 
0.125 0.2 0.1 0.15 0.15 0.1 0.125 0.2 0.125 
0.125 0.2 0.075 0.1 0.2 0.175 0.125 0.2 0.15 
0.125 0.2 0.175 0.125 0.2 0.2 0.15 0 0.025 
0.15 0.025 0 0.175 0 0 0.175 0.025 0 
0.15 0.025 0.025 0.175 0.05 0.05 0.175 0.025 0.075 
0.175 0.05 0.075 0.15 0.05 0.025 0.175 0 0.025 
0.175 0.025 0.025 0.15 0 0.075 0.175 0 0.05 
0.175 0.025 0.05 0.175 0 0.075 0.175 0.025 0.1 
0.15 0 0.125 0.175 0.05 0.125 0.175 0.05 0.1 
0.15 0.05 0.05 0.175 0 0.1 0.175 0.025 0.125 
0.175 0.05 0.15 0.15 0 0.175 0.175 0 0.15 
0.175 0.025 0.15 0.15 0.025 0.175 0.175 0.025 0.175 
0.175 0 0.175 0.15 0.05 0.175 0.175 0 0.125 
0.15 0.025 0.2 0.175 0.025 0.2 0.175 0 0.2 
0.15 0.075 0 0.175 0.05 0 0.175 0.075 0.025 
0.175 0.05 0.025 0.175 0.05 0.2 0.175 0.075 0.175 
0.175 0.05 0.175 0.15 0.075 0.2 0.175 0.1 0.05 
0.175 0.125 0.05 0.175 0.075 0 0.175 0.1 0.025 
0.175 0.1 0 0.15 0.125 0 0.175 0.125 0.025 
0.175 0.125 0 0.175 0.125 0.2 0.175 0.125 0.175 
0.175 0.1 0.175 0.175 0.075 0.2 0.175 0.1 0.2 
0.15 0.125 0.2 0.15 0.175 0 0.15 0.175 0.025 
0.175 0.15 0.05 0.15 0.175 0.05 0.175 0.15 0 
0.175 0.15 0.025 0.175 0.15 0.2 0.15 0.175 0.2 
0.15 0.175 0.175 0.175 0.15 0.175 0.15 0.2 0.025 
0.175 0.2 0 0.175 0.175 0 0.175 0.2 0.025 
0.175 0.175 0.025 0.175 0.2 0.05 0.175 0.175 0.075 
0.175 0.2 0.075 0.15 0.2 0.075 0.175 0.175 0.05 
0.15 0.2 0.125 0.175 0.175 0.1 0.175 0.2 0.1 
0.175 0.175 0.175 0.175 0.2 0.15 0.175 0.175 0.15 
0.175 0.175 0.125 0.15 0.2 0.175 0.175 0.2 0.175 
0.175 0.2 0.125 0.175 0.175 0.2 0.175 0.2 0.2 
0.2 0.025 0 0.2 0 0.025 0.2 0.025 0.025 
0.2 0.025 0.05 0.2 0.025 0.075 0.2 0 0.075 
0.2 0.025 0.1 0.2 0 0.125 0.2 0.025 0.125 
0.2 0.025 0.15 0.2 0 0.175 0.2 0.025 0.175 
0.2 0.025 0.2 0.2 0.075 0.025 0.2 0.075 0 
0.2 0.05 0.025 0.2 0.075 0.05 0.2 0.05 0.075 
0.2 0.075 0.125 0.2 0.075 0.075 0.2 0.075 0.1 
0.2 0.05 0.125 0.2 0.075 0.15 0.2 0.05 0.175 
0.2 0.075 0.175 0.2 0.075 0.2 0.2 0.1 0.025 
0.2 0.125 0 0.2 0.1 0.075 0.2 0.125 0.025 
0.2 0.125 0.05 0.2 0.125 0.075 0.2 0.1 0.125 
0.2 0.125 0.1 0.2 0.125 0.125 0.2 0.125 0.15 
0.2 0.125 0.175 0.2 0.1 0.175 0.2 0.125 0.2 
0.2 0.175 0 0.2 0.175 0.025 0.2 0.15 0.025 
0.2 0.15 0.075 0.2 0.175 0.05 0.2 0.175 0.125 
0.2 0.15 0.125 0.2 0.175 0.075 0.2 0.175 0.1 
0.2 0.15 0.175 0.2 0.175 0.15 0.2 0.175 0.175 
0.2 0.175 0.2 0.2 0.2 0.025 0.2 0.2 0.075 
0.2 0.2 0.125 0.2 0.2 0.175 

CELLS 236 2596
10 69 93 88 68 452 510 453 449 450 451 
10 28 47 45 44 255 323 256 257 318 319 
10 93 69 88 94 452 453 510 523 454 511 
10 43 49 86 85 308 342 309 310 343 503 
10 5 1 26 6 102 103 120 121 104 127 
10 82 86 81 63 495 493 494 421 422 423 
10 7 11 48 6 136 163 137 128 129 130 
10 37 17 54 38 208 209 285 286 210 290 
10 55 13 12 51 182 171 172 361 183 173 
10 90 86 49 85 505 342 344 504 503 343 
10 37 52 50 36 287 352 288 282 283 284 
10 91 92 65 86 519 433 434 506 507 435 
10 82 65 86 63 436 435 495 421 424 422 
10 25 5 0 26 122 98 99 243 120 100 
10 46 32 6 48 268 131 132 326 269 130 
10 57 46 58 62 327 328 383 384 329 387 
10 26 41 25 46 247 244 243 248 299 245 
10 22 38 39 17 235 291 236 211 210 212 
10 55 49 12 54 345 174 172 373 346 175 
10 26 5 6 30 120 121 127 249 123 133 
10 25 30 26 46 246 249 243 245 264 248 
10 11 15 16 34 164 194 165 166 195 201 
10 82 65 87 86 436 437 496 495 435 508 
10 15 34 36 37 195 276 196 197 277 282 
10 43 85 64 48 310 425 311 312 336 337 
10 1 5 26 0 102 120 103 101 98 100 
10 52 37 50 53 287 288 352 368 289 353 
10 60 80 59 86 404 398 399 405 489 400 
10 48 7 6 43 137 128 130 312 138 134 
10 92 71 96 91 462 463 521 519 464 520 
10 26 7 43 6 139 138 250 127 128 134 
10 6 26 46 42 127 248 132 135 251 303 
10 32 15 10 11 198 160 161 167 164 162 
10 90 71 70 49 465 459 460 344 347 348 
10 28 9 8 3 154 146 147 112 113 114 
10 68 69 50 66 449 354 355 439 440 356 
10 49 90 54 70 344 374 346 348 460 375 
10 28 43 7 44 258 138 140 257 313 141 
10 92 72 71 67 469 466 462 445 446 447 
10 71 56 51 72 381 362 363 466 382 364 
10 50 37 16 53 288 202 203 353 289 204 
10 5 6 30 32 121 133 123 124 131 265 
10 39 19 35 40 224 225 279 292 226 280 
10 12 11 50 48 168 169 176 177 163 338 
10 21 15 37 16 199 197 233 205 194 202 
10 28 4 9 3 117 118 154 112 115 113 
10 80 84 58 85 490 388 389 491 499 390 
10 15 36 20 37 196 230 200 197 282 231 
10 15 20 21 37 200 232 199 197 231 233 
10 19 18 35 13 218 219 225 184 185 186 
10 39 51 35 18 293 281 279 220 221 219 
10 15 34 37 16 195 277 197 194 201 202 
10 19 23 39 18 227 239 224 218 222 220 
10 5 6 32 11 121 131 124 125 129 167 
10 10 5 32 11 126 124 161 162 125 167 
10 19 33 14 13 228 192 193 184 187 188 
10 26 41 46 42 247 299 248 251 300 303 
10 24 19 39 40 229 224 241 242 226 292 
10 51 91 67 65 365 448 366 367 434 438 
10 17 21 37 16 213 233 208 206 205 202 
10 37 22 21 17 237 234 233 208 211 213 
10 49 91 65 86 349 434 350 342 506 435 
10 7 1 26 2 105 103 139 107 106 108 
10 17 55 12 54 214 172 178 209 373 175 
10 19 33 13 35 228 187 184 225 272 186 
10 7 2 26 27 107 108 139 142 109 252 
10 33 9 8 31 155 146 148 266 156 149 
10 55 18 39 17 223 220 294 214 215 212 
10 23 22 39 17 238 236 239 216 211 212 
10 18 23 39 17 222 239 220 215 216 212 
10 26 7 27 43 139 142 252 250 138 253 
10 32 15 11 34 198 164 167 270 195 166 
10 39 19 18 35 224 218 220 279 225 219 
10 23 19 39 24 227 224 239 240 229 241 
10 28 9 31 8 154 156 259 147 146 149 
10 28 4 29 9 117 119 260 154 118 157 
10 51 91 49 71 365 349 351 363 464 347 
10 96 71 90 91 463 465 515 520 464 516 
10 13 55 12 17 182 172 171 189 214 178 
10 92 71 91 67 462 464 519 445 447 448 
10 25 5 26 30 122 120 243 246 123 249 
10 47 61 45 60 331 324 323 332 406 325 
10 33 49 8 13 273 150 148 187 190 151 
10 85 90 64 48 504 426 425 336 339 337 
10 13 9 8 33 158 146 151 187 155 148 
10 78 64 84 83 427 428 484 485 429 497 
10 6 32 11 48 131 167 129 130 269 163 
10 16 37 54 53 202 285 207 204 289 371 
10 47 33 8 31 274 148 152 267 266 149 
10 1 7 26 6 105 139 103 104 128 127 
10 76 80 60 81 479 404 407 480 492 408 
10 90 94 69 95 517 454 455 518 524 456 
10 90 50 70 66 357 358 460 441 356 442 
10 7 2 27 28 107 109 142 140 110 254 
10 29 28 47 45 260 255 261 262 256 323 
10 3 7 8 28 116 143 114 112 140 147 
10 29 28 31 47 260 259 263 261 255 267 
10 47 33 49 8 274 273 333 152 148 150 
10 28 8 31 47 147 149 259 255 152 267 
10 90 70 69 66 460 457 455 441 442 440 
10 71 97 92 96 467 522 462 463 526 521 
10 58 46 64 62 328 330 391 387 329 417 
10 13 9 33 14 158 155 187 188 159 192 
10 39 56 40 51 295 297 292 293 362 298 
10 3 7 28 2 116 140 112 111 107 110 
10 46 57 58 41 327 383 328 299 301 302 
10 90 50 48 70 357 338 339 460 358 340 
10 90 54 70 48 374 375 460 339 341 340 
10 58 43 64 42 314 311 391 304 305 306 
10 28 43 27 7 258 253 254 140 138 142 
10 8 49 47 44 150 333 152 153 320 318 
10 28 8 47 44 147 152 255 257 153 318 
10 43 49 12 44 308 174 179 313 320 180 
10 12 49 13 44 174 190 171 180 320 191 
10 49 8 13 44 150 151 190 320 153 191 
10 12 13 7 44 171 144 145 180 191 141 
10 43 12 7 44 179 145 138 313 180 141 
10 13 8 7 44 151 143 144 191 153 141 
10 7 8 28 44 143 147 140 141 153 257 
10 91 51 49 65 365 351 349 434 367 350 
10 92 87 65 86 509 437 433 507 508 435 
10 63 61 60 82 414 406 409 421 415 410 
10 60 61 77 82 406 416 411 410 415 483 
10 67 51 72 71 366 364 446 447 363 466 
10 91 92 67 65 519 445 448 434 433 438 
10 63 60 81 82 409 408 423 421 410 494 
10 76 60 77 82 407 411 481 482 410 483 
10 60 76 81 82 407 480 408 410 482 494 
10 39 56 51 55 295 362 293 294 379 361 
10 18 35 13 51 219 186 185 221 281 183 
10 55 13 51 18 182 183 361 223 185 221 
10 49 55 12 51 345 172 174 351 361 173 
10 35 33 13 51 272 187 186 281 275 183 
10 33 49 13 51 273 190 187 275 351 183 
10 49 12 13 51 174 171 190 351 173 183 
10 55 13 18 17 182 185 223 214 189 215 
10 71 56 55 51 381 379 380 363 362 361 
10 51 40 39 35 298 292 293 281 280 279 
10 37 36 50 34 282 284 288 277 276 278 
10 47 60 44 65 332 321 318 334 412 322 
10 49 47 44 65 333 318 320 350 334 322 
10 47 61 60 63 331 406 332 335 414 409 
10 43 44 60 65 313 321 315 316 322 412 
10 43 49 44 65 308 320 313 316 350 322 
10 39 51 18 55 293 221 220 294 361 223 
10 54 39 38 17 296 291 290 209 212 210 
10 90 70 95 69 460 461 518 455 457 456 
10 49 12 54 85 174 175 346 343 181 376 
10 71 49 54 70 347 346 377 459 348 375 
10 51 91 71 67 365 464 363 366 448 447 
10 49 55 51 71 345 361 351 347 380 363 
10 6 43 26 42 134 250 127 135 305 251 
10 73 58 78 57 392 393 471 385 383 386 
10 37 22 17 38 237 211 208 286 235 210 
10 43 49 65 86 308 350 316 309 342 435 
10 59 43 60 86 317 315 399 400 309 405 
10 60 43 65 86 315 316 412 405 309 435 
10 63 60 65 86 409 412 424 422 405 435 
10 60 63 81 86 409 423 408 405 422 493 
10 37 17 16 54 208 206 202 285 209 207 
10 71 95 90 70 468 518 465 459 461 460 
10 49 55 71 54 345 380 347 346 373 377 
10 95 71 90 96 468 465 518 525 463 515 
10 88 69 66 89 453 440 443 512 458 444 
10 90 49 54 85 344 346 374 504 343 376 
10 78 64 62 84 427 417 418 484 428 419 
10 90 66 89 64 441 444 513 426 430 431 
10 54 90 85 48 374 504 376 341 339 336 
10 69 68 88 66 449 451 453 440 439 443 
10 9 29 28 31 157 260 154 156 263 259 
10 54 12 50 48 175 176 359 341 177 338 
10 88 69 89 94 453 458 512 511 454 514 
10 78 58 62 57 393 387 418 386 383 384 
10 69 54 50 70 378 359 354 457 375 358 
10 90 86 91 49 505 506 516 344 342 349 
10 12 54 85 48 175 376 181 177 341 336 
10 89 66 88 64 444 443 512 431 430 432 
10 88 84 89 64 500 501 512 432 428 431 
10 69 70 50 66 457 358 354 440 442 356 
10 49 43 12 85 308 179 174 343 310 181 
10 92 72 97 71 469 470 522 462 466 467 
10 90 94 89 69 517 514 513 455 454 458 
10 69 54 53 50 378 371 372 354 359 353 
10 68 69 52 50 449 369 370 355 354 352 
10 48 7 43 12 137 138 312 177 145 179 
10 69 90 66 89 455 441 440 458 513 444 
10 59 43 86 85 317 309 400 401 310 503 
10 60 80 86 81 404 489 405 408 492 493 
10 69 53 52 50 372 368 369 354 353 352 
10 90 71 49 91 465 347 344 516 464 349 
10 50 37 34 16 288 277 278 203 202 201 
10 54 16 53 50 207 204 371 359 203 353 
10 46 32 30 6 268 265 264 132 131 133 
10 32 34 11 50 270 166 167 271 278 169 
10 12 17 54 50 178 209 175 176 217 359 
10 17 16 54 50 206 207 209 217 203 359 
10 11 17 12 50 170 178 168 169 217 176 
10 11 16 17 50 165 206 170 169 203 217 
10 11 34 16 50 166 201 165 169 278 203 
10 11 7 48 12 136 137 163 168 145 177 
10 64 50 90 66 360 357 426 430 356 441 
10 90 89 84 64 513 501 502 426 431 428 
10 85 59 58 80 401 394 390 491 398 389 
10 60 45 47 44 325 323 332 321 319 318 
10 11 32 50 48 167 271 169 163 269 338 
10 50 64 90 48 360 426 357 338 337 339 
10 43 12 85 48 179 181 310 312 177 336 
10 59 43 85 64 317 310 401 402 311 425 
10 30 6 26 46 133 127 249 264 132 248 
10 46 41 58 42 299 302 328 303 300 304 
10 90 84 85 64 502 499 504 426 428 425 
10 84 62 78 79 419 418 484 487 420 486 
10 70 54 50 48 375 359 358 340 341 338 
10 78 74 79 58 473 474 486 393 395 396 
10 58 46 42 64 328 303 304 391 330 306 
10 54 39 17 55 296 212 209 373 294 214 
10 43 6 48 42 134 130 312 305 135 307 
10 84 64 62 58 428 417 419 388 391 387 
10 58 80 75 74 389 477 397 395 475 476 
10 47 60 65 63 332 412 334 335 409 424 
10 58 80 74 79 389 475 395 396 488 474 
10 85 59 64 58 401 402 425 390 394 391 
10 84 85 64 58 499 425 428 388 390 391 
10 60 75 80 76 413 477 404 407 478 479 
10 48 6 46 42 130 132 326 307 135 303 
10 58 43 59 64 314 317 394 391 311 402 
10 64 43 48 42 311 312 337 306 305 307 
10 64 48 46 42 337 326 330 306 307 303 
10 86 59 85 80 400 401 503 489 398 491 
10 59 58 80 75 394 389 398 403 397 477 
10 60 75 59 80 413 403 399 404 477 398 
10 62 84 58 79 419 388 387 420 487 396 
10 88 84 64 83 500 428 432 498 497 429 
10 80 84 79 58 490 487 488 389 388 396 
10 78 58 79 62 393 396 486 418 387 420 
10 78 74 58 73 473 395 393 471 472 392 

CELL_TYPES 236
24
24
24
24
24
24
24
24
24
24
24
24
24
24
24
24
24
24
24
24
24
24
24
24
24
24
24
24
24
24
24
24
24
24
24
24
24
24
24
24
24
24
24
24
24
24
24
24
24
24
24
24
24
24
24
24
24
24
24
24
24
24
24
24
24
24
24
24
24
24
24
24
24
24
24
24
24
24
24
24
24
24
24
24
24
24
24
24
24
24
24
24
24
24
24
24
24
24
24
24
24
24
24
24
24
24
24
24
24
24
24
24
24
24
24
24
24
24
24
24
24
24
24
24
24
24
24
24
24
24
24
24
24
24
24
24
24
24
24
24
24
24
24
24
24
24
24
24
24
24
24
24
24
24
24
24
24
24
24
24
24
24
24
24
24
24
24
24
24
24
24
24
24
24
24
24
24
24
24
24
24
24
24
24
24
24
24
24
24
24
24
24
24
24
24
24
24
24
24
24
24
24
24
24
24
24
24
24
24
24
24
24
24
24
24
24
24
24
24
24
24
24
24
24
24
24
24
24
24
24
24
24
24
24
24
24

POINT_DATA 527
VECTORS displacement float
0 0 0
0 0 0
0 0 0
0 0 0
0 0 0
0 0 0
0 0 0
0 0 0
0 0 0
0 0 0
0 0 0
0 0 0
0 0 0
0 0 0
0 0 0
0 0 0
0 0 0
0 0 0
0 0 0
0 0 0
0 0 0
0 0 0
0 0 0
0 0 0
0 0 0
0 0 0
0 0 0
0 0 0
0 0 0
0 0 0
0 0 0
0 0 0
0 0 0
0 0 0
0 0 0
0 0 0
0 0 0
0 0 0
0 0 0
0 0 0
0 0 0
0 0 0
0 0 0
0 0 0
0 0 0
0 0 0
0 0 0
0 0 0
0 0 0
0 0 0
0 0 0
0 0 0
0 0 0
0 0 0
0 0 0
0 0 0
0 0 0
0 0 0
0 0 0
0 0 0
0 0 0
0 0 0
0 0 0
0 0 0
0 0 0
0 0 0
0 0 0
0 0 0
0 0 0
0 0 0
0 0 0
0 0 0
0 0 0
0 0 0
0 0 0
0 0 0
0 0 0
0 0 0
0 0 0
0 0 0
0 0 0
0 0 0
0 0 0
0 0 0
0 0 0
0 0 0
0 0 0
0 0 0
0 0 0
0 0 0
0 0 0
0 0 0
0 0 0
0 0 0
0 0 0
0 0 0
0 0 0
0 0 0
0 0 0
0 0 0
0 0 0
0 0 0
0 0 0
0 0 0
0 0 0
0 0 0
0 0 0
0 0 0
0 0 0
0 0 0
0 0 0
0 0 0
0 0 0
0 0 0
0 0 0
0 0 0
0 0 0
0 0 0
0 0 0
0 0 0
0 0 0
0 0 0
0 0 0
0 0 0
0 0 0
0 0 0
0 0 0
0 0 0
0 0 0
0 0 0
0 0 0
0 0 0
0 0 0
0 0 0
0 0 0
0 0 0
0 0 0
0 0 0
0 0 0
0 0 0
0 0 0
0 0 0
0 0 0
0 0 0
0 0 0
0 0 0
0 0 0
0 0 0
0 0 0
0 0 0
0 0 0
0 0 0
0 0 0
0 0 0
0 0 0
0 0 0
0 0 0
0 0 0
0 0 0
0 0 0
0 0 0
0 0 0
0 0 0
0 0 0
0 0 0
0 0 0
0 0 0
0 0 0
0 0 0
0 0 0
0 0 0
0 0 0
0 0 0
0 0 0
0 0 0
0 0 0
0 0 0
0 0 0
0 0 0
0 0 0
0 0 0
0 0 0
0 0 0
0 0 0
0 0 0
0 0 0
0 0 0
0 0 0
0 0 0
0 0 0
0 0 0
0 0 0
0 0 0
0 0 0
0 0 0
0 0 0
0 0 0
0 0 0
0 0 0
0 0 0
0 0 0
0 0 0
0 0 0
0 0 0
0 0 0
0 0 0
0 0 0
0 0 0
0 0 0
0 0 0
0 0 0
0 0 0
0 0 0
0 0 0
0 0 0
0 0 0
0 0 0
0 0 0
0 0 0
0 0 0
0 0 0
0 0 0
0 0 0
0 0 0
0 0 0
0 0 0
0 0 0
0 0 0
0 0 0
0 0 0
0 0 0
0 0 0
0 0 0
0 0 0
0 0 0
0 0 0
0 0 0
0 0 0
0 0 0
0 0 0
0 0 0
0 0 0
0 0 0
0 0 0
0 0 0
0 0 0
0 0 0
0 0 0
0 0 0
0 0 0
0 0 0
0 0 0
0 0 0
0 0 0
0 0 0
0 0 0
0 0 0
0 0 0
0 0 0
0 0 0
0 0 0
0 0 0
0 0 0
0 0 0
0 0 0
0 0 0
0 0 0
0 0 0
0 0 0
0 0 0
0 0 0
0 0 0
0 0 0
0 0 0
0 0 0
0 0 0
0 0 0
0 0 0
0 0 0
0 0 0
0 0 0
0 0 0
0 0 0
0 0 0
0 0 0
0 0 0
0 0 0
0 0 0
0 0 0
0 0 0
0 0 0
0 0 0
0 0 0
0 0 0
0 0 0
0 0 0
0 0 0
0 0 0
0 0 0
0 0 0
0 0 0
0 0 0
0 0 0
0 0 0
0 0 0
0 0 0
0 0 0
0 0 0
0 0 0
0 0 0
0 0 0
0 0 0
0 0 0
0 0 0
0 0 0
0 0 0
0 0 0
0 0 0
0 0 0
0 0 0
0 0 0
0 0 0
0 0 0
0 0 0
0 0 0
0 0 0
0 0 0
0 0 0
0 0 0
0 0 0
0 0 0
0 0 0
0 0 0
0 0 0
0 0 0
0 0 0
0 0 0
0 0 0
0 0 0
0 0 0
0 0 0
0 0 0
0 0 0
0 0 0
0 0 0
0 0 0
0 0 0
0 0 0
0 0 0
0 0 0
0 0 0
0 0 0
0 0 0
0 0 0
0 0 0
0 0 0
0 0 0
0 0 0
0 0 0
0 0 0
0 0 0
0 0 0
0 0 0
0 0 0
0 0 0
0 0 0
0 0 0
0 0 0
0 0 0
0 0 0
0 0 0
0 0 0
0 0 0
0 0 0
0 0 0
0 0 0
0 0 0
0 0 0
0 0 0
0 0 0
0 0 0
0 0 0
0 0 0
0 0 0
0 0 0
0 0 0
0 0 0
0 0 0
0 0 0
0 0 0
0 0 0
0 0 0
0 0 0
0 0 0
0 0 0
0 0 0
0 0 0
0 0 0
0 0 0
0 0 0
0 0 0
0 0 0
0 0 0
0 0 0
0 0 0
0 0 0
0 0 0
0 0 0
0 0 0
0 0 0
0 0 0
0 0 0
0 0 0
0 0 0
0 0 0
0 0 0
0 0 0
0 0 0
0 0 0
0 0 0
0 0 0
0 0 0
0 0 0
0 0 0
0 0 0
0 0 0
0 0 0
0 0 0
0 0 0
0 0 0
0 0 0
0 0 0
0 0 0
0 0 0
0 0 0
0 0 0
0 0 0
0 0 0
0 0 0
0 0 0
0 0 0
0 0 0
0 0 0
0 0 0
0 0 0
0 0 0
0 0 0
0 0 0
0 0 0
0 0 0
0 0 0
0 0 0
0 0 0
0 0 0
0 0 0
0 0 0
0 0 0
0 0 0
0 0 0
0 0 0
0 0 0
0 0 0
0 0 0
0 0 0
0 0 0
0 0 0
0 0 0
0 0 0
0 0 0
0 0 0
0 0 0
0 0 0
0 0 0
0 0 0
0 0 0
0 0 0
0 0 0
0 0 0
0 0 0
0 0 0
0 0 0
0 0 0
0 0 0
0 0 0
0 0 0
0 0 0
0 0 0
0 0 0
0 0 0
0 0 0
0 0 0
0 0 0
0 0 0
0 0 0
0 0 0
0 0 0
0 0 0
0 0 0
0 0 0
0 0 0
0 0 0
0 0 0
0 0 0
0 0 0
0 0 0
0 0 0
0 0 0
0 0 0
0 0 0
0 0 0
0 0 0
0 0 0
0 0 0
0 0 0
0 0 0
0 0 0
0 0 0
0 0 0
0 0 0
0 0 0
0 0 0
0 0 0
0 0 0
0 0 0
0 0 0
0 0 0
0 0 0

CELL_DATA 236
TENSORS stress float
0 0 0
0 0 0
0 0 0

0 0 0
0 0 0
0 0 0

0 0 0
0 0 0
0 0 0

0 0 0
0 0 0
0 0 0

0 0 0
0 0 0
0 0 0

0 0 0
0 0 0
0 0 0

0 0 0
0 0 0
0 0 0

0 0 0
0 0 0
0 0 0

0 0 0
0 0 0
0 0 0

0 0 0
0 0 0
0 0 0

0 0 0
0 0 0
0 0 0

0 0 0
0 0 0
0 0 0

0 0 0
0 0 0
0 0 0

0 0 0
0 0 0
0 0 0

0 0 0
0 0 0
0 0 0

0 0 0
0 0 0
0 0 0

0 0 0
0 0 0
0 0 0

0 0 0
0 0 0
0 0 0

0 0 0
0 0 0
0 0 0

0 0 0
0 0 0
0 0 0

0 0 0
0 0 0
0 0 0

0 0 0
0 0 0
0 0 0

0 0 0
0 0 0
0 0 0

0 0 0
0 0 0
0 0 0

0 0 0
0 0 0
0 0 0

0 0 0
0 0 0
0 0 0

0 0 0
0 0 0
0 0 0

0 0 0
0 0 0
0 0 0

0 0 0
0 0 0
0 0 0

0 0 0
0 0 0
0 0 0

0 0 0
0 0 0
0 0 0

0 0 0
0 0 0
0 0 0

0 0 0
0 0 0
0 0 0

0 0 0
0 0 0
0 0 0

0 0 0
0 0 0
0 0 0

0 0 0
0 0 0
0 0 0

0 0 0
0 0 0
0 0 0

0 0 0
0 0 0
0 0 0

0 0 0
0 0 0
0 0 0

0 0 0
0 0 0
0 0 0

0 0 0
0 0 0
0 0 0

0 0 0
0 0 0
0 0 0

0 0 0
0 0 0
0 0 0

0 0 0
0 0 0
0 0 0

0 0 0
0 0 0
0 0 0

0 0 0
0 0 0
0 0 0

0 0 0
0 0 0
0 0 0

0 0 0
0 0 0
0 0 0

0 0 0
0 0 0
0 0 0

0 0 0
0 0 0
0 0 0

0 0 0
0 0 0
0 0 0

0 0 0
0 0 0
0 0 0

0 0 0
0 0 0
0 0 0

0 0 0
0 0 0
0 0 0

0 0 0
0 0 0
0 0 0

0 0 0
0 0 0
0 0 0

0 0 0
0 0 0
0 0 0

0 0 0
0 0 0
0 0 0

0 0 0
0 0 0
0 0 0

0 0 0
0 0 0
0 0 0

0 0 0
0 0 0
0 0 0

0 0 0
0 0 0
0 0 0

0 0 0
0 0 0
0 0 0

0 0 0
0 0 0
0 0 0

0 0 0
0 0 0
0 0 0

0 0 0
0 0 0
0 0 0

0 0 0
0 0 0
0 0 0

0 0 0
0 0 0
0 0 0

0 0 0
0 0 0
0 0 0

0 0 0
0 0 0
0 0 0

0 0 0
0 0 0
0 0 0

0 0 0
0 0 0
0 0 0

0 0 0
0 0 0
0 0 0

0 0 0
0 0 0
0 0 0

0 0 0
0 0 0
0 0 0

0 0 0
0 0 0
0 0 0

0 0 0
0 0 0
0 0 0

0 0 0
0 0 0
0 0 0

0 0 0
0 0 0
0 0 0

0 0 0
0 0 0
0 0 0

0 0 0
0 0 0
0 0 0

0 0 0
0 0 0
0 0 0

0 0 0
0 0 0
0 0 0

0 0 0
0 0 0
0 0 0

0 0 0
0 0 0
0 0 0

0 0 0
0 0 0
0 0 0

0 0 0
0 0 0
0 0 0

0 0 0
0 0 0
0 0 0

0 0 0
0 0 0
0 0 0

0 0 0
0 0 0
0 0 0

0 0 0
0 0 0
0 0 0

0 0 0
0 0 0
0 0 0

0 0 0
0 0 0
0 0 0

0 0 0
0 0 0
0 0 0

0 0 0
0 0 0
0 0 0

0 0 0
0 0 0
0 0 0

0 0 0
0 0 0
0 0 0

0 0 0
0 0 0
0 0 0

0 0 0
0 0 0
0 0 0

0 0 0
0 0 0
0 0 0

0 0 0
0 0 0
0 0 0

0 0 0
0 0 0
0 0 0

0 0 0
0 0 0
0 0 0

0 0 0
0 0 0
0 0 0

0 0 0
0 0 0
0 0 0

0 0 0
0 0 0
0 0 0

0 0 0
0 0 0
0 0 0

0 0 0
0 0 0
0 0 0

0 0 0
0 0 0
0 0 0

0 0 0
0 0 0
0 0 0

0 0 0
0 0 0
0 0 0

0 0 0
0 0 0
0 0 0

0 0 0
0 0 0
0 0 0

0 0 0
0 0 0
0 0 0

0 0 0
0 0 0
0 0 0

0 0 0
0 0 0
0 0 0

0 0 0
0 0 0
0 0 0

0 0 0
0 0 0
0 0 0

0 0 0
0 0 0
0 0 0

0 0 0
0 0 0
0 0 0

0 0 0
0 0 0
0 0 0

0 0 0
0 0 0
0 0 0

0 0 0
0 0 0
0 0 0

0 0 0
0 0 0
0 0 0

0 0 0
0 0 0
0 0 0

0 0 0
0 0 0
0 0 0

0 0 0
0 0 0
0 0 0

0 0 0
0 0 0
0 0 0

0 0 0
0 0 0
0 0 0

0 0 0
0 0 0
0 0 0

0 0 0
0 0 0
0 0 0

0 0 0
0 0 0
0 0 0

0 0 0
0 0 0
0 0 0

0 0 0
0 0 0
0 0 0

0 0 0
0 0 0
0 0 0

0 0 0
0 0 0
0 0 0

0 0 0
0 0 0
0 0 0

0 0 0
0 0 0
0 0 0

0 0 0
0 0 0
0 0 0

0 0 0
0 0 0
0 0 0

0 0 0
0 0 0
0 0 0

0 0 0
0 0 0
0 0 0

0 0 0
0 0 0
0 0 0

0 0 0
0 0 0
0 0 0

0 0 0
0 0 0
0 0 0

0 0 0
0 0 0
0 0 0

0 0 0
0 0 0
0 0 0

0 0 0
0 0 0
0 0 0

0 0 0
0 0 0
0 0 0

0 0 0
0 0 0
0 0 0

0 0 0
0 0 0
0 0 0

0 0 0
0 0 0
0 0 0

0 0 0
0 0 0
0 0 0

0 0 0
0 0 0
0 0 0

0 0 0
0 0 0
0 0 0

0 0 0
0 0 0
0 0 0

0 0 0
0 0 0
0 0 0

0 0 0
0 0 0
0 0 0

0 0 0
0 0 0
0 0 0

0 0 0
0 0 0
0 0 0

0 0 0
0 0 0
0 0 0

0 0 0
0 0 0
0 0 0

0 0 0
0 0 0
0 0 0

0 0 0
0 0 0
0 0 0

0 0 0
0 0 0
0 0 0

0 0 0
0 0 0
0 0 0

0 0 0
0 0 0
0 0 0

0 0 0
0 0 0
0 0 0

0 0 0
0 0 0
0 0 0

0 0 0
0 0 0
0 0 0

0 0 0
0 0 0
0 0 0

0 0 0
0 0 0
0 0 0

0 0 0
0 0 0
0 0 0

0 0 0
0 0 0
0 0 0

0 0 0
0 0 0
0 0 0

0 0 0
0 0 0
0 0 0

0 0 0
0 0 0
0 0 0

0 0 0
0 0 0
0 0 0

0 0 0
0 0 0
0 0 0

0 0 0
0 0 0
0 0 0

0 0 0
0 0 0
0 0 0

0 0 0
0 0 0
0 0 0

0 0 0
0 0 0
0 0 0

0 0 0
0 0 0
0 0 0

0 0 0
0 0 0
0 0 0

0 0 0
0 0 0
0 0 0

0 0 0
0 0 0
0 0 0

0 0 0
0 0 0
0 0 0

0 0 0
0 0 0
0 0 0

0 0 0
0 0 0
0 0 0

0 0 0
0 0 0
0 0 0

0 0 0
0 0 0
0 0 0

0 0 0
0 0 0
0 0 0

0 0 0
0 0 0
0 0 0

0 0 0
0 0 0
0 0 0

0 0 0
0 0 0
0 0 0

0 0 0
0 0 0
0 0 0

0 0 0
0 0 0
0 0 0

0 0 0
0 0 0
0 0 0

0 0 0
0 0 0
0 0 0

0 0 0
0 0 0
0 0 0

0 0 0
0 0 0
0 0 0

0 0 0
0 0 0
0 0 0

0 0 0
0 0 0
0 0 0

0 0 0
0 0 0
0 0 0

0 0 0
0 0 0
0 0 0

0 0 0
0 0 0
0 0 0

0 0 0
0 0 0
0 0 0

0 0 0
0 0 0
0 0 0

0 0 0
0 0 0
0 0 0

0 0 0
0 0 0
0 0 0

0 0 0
0 0 0
0 0 0

0 0 0
0 0 0
0 0 0

0 0 0
0 0 0
0 0 0

0 0 0
0 0 0
0 0 0

0 0 0
0 0 0
0 0 0

0 0 0
0 0 0
0 0 0

0 0 0
0 0 0
0 0 0

0 0 0
0 0 0
0 0 0

0 0 0
0 0 0
0 0 0

0 0 0
0 0 0
0 0 0

0 0 0
0 0 0
0 0 0

0 0 0
0 0 0
0 0 0

0 0 0
0 0 0
0 0 0

0 0 0
0 0 0
0 0 0

0 0 0
0 0 0
0 0 0

0 0 0
0 0 0
0 0 0

0 0 0
0 0 0
0 0 0

0 0 0
0 0 0
0 0 0

0 0 0
0 0 0
0 0 0

0 0 0
0 0 0
0 0 0

0 0 0
0 0 0
0 0 0

0 0 0
0 0 0
0 0 0

0 0 0
0 0 0
0 0 0

0 0 0
0 0 0
0 0 0

0 0 0
0 0 0
0 0 0

