# vtk DataFile Version 3.0
vtk output at time 0.7
ASCII
DATASET UNSTRUCTURED_GRID
POINTS 527 float
0 0 0 0 0 0.05 0 0 0.1 
0 0 0.15 0 0 0.2 0 0.05 0 
0 0.05 0.05 0 0.05 0.1 0 0.05 0.15 
0 0.05 0.2 0 0.1 0 0 0.1 0.05 
0 0.1 0.1 0 0.1 0.15 0 0.1 0.2 
0 0.15 0 0 0.15 0.05 0 0.15 0.1 
0 0.15 0.15 0 0.15 0.2 0 0.2 0 
0 0.2 0.05 0 0.2 0.1 0 0.2 0.15 
0 0.2 0.2 0.0387663 -0.00728191 -0.00726561 0.0418581 -0.00691275 0.0463471 
0.0427944 -0.00726435 0.0999446 0.0420856 -0.00730396 0.153609 0.0385119 -0.00753486 0.207347 
0.0417533 0.0466826 -0.00729843 0.041955 0.0464141 0.207322 0.0427357 0.100297 -0.00712897 
0.0423096 0.0998521 0.207151 0.0431331 0.154216 -0.00705098 0.0429249 0.15377 0.207434 
0.0386935 0.207794 -0.00688061 0.0418747 0.20706 0.0466094 0.0430322 0.207141 0.100247 
0.0422672 0.207203 0.153907 0.0386237 0.207508 0.207418 0.0824601 -0.00897512 -0.0095557 
0.0831378 -0.0102008 0.0445123 0.0832179 -0.0101111 0.0997634 0.0818709 -0.0106456 0.15497 
0.0822838 -0.00954874 0.209558 0.0822447 0.0447709 -0.0102482 0.0823485 0.0445644 0.210636 
0.082995 0.10012 -0.0103859 0.0834374 0.0999539 0.210664 0.0825198 0.155817 -0.0109066 
0.0829211 0.155105 0.211123 0.0826048 0.210132 -0.00925091 0.0827575 0.210845 0.0451614 
0.0838494 0.210263 0.100372 0.0820677 0.210196 0.155533 0.0826949 0.20924 0.210172 
0.126615 -0.00820846 -0.00771012 0.123456 -0.00797982 0.046252 0.12199 -0.00761378 0.100133 
0.123044 -0.00768048 0.153436 0.126341 -0.00867094 0.207186 0.123037 0.0463362 -0.00859363 
0.123046 0.0457036 0.208574 0.121579 0.100247 -0.00804932 0.122346 0.0995696 0.208128 
0.122115 0.154 -0.00778417 0.122891 0.153162 0.208098 0.126453 0.207667 -0.00720063 
0.123959 0.207729 0.0467428 0.122931 0.207677 0.100335 0.1235 0.207705 0.153688 
0.126544 0.207278 0.207606 0.165 0 0 0.165 0 0.05 
0.165 0 0.1 0.165 0 0.15 0.165 0 0.2 
0.165 0.05 0 0.165 0.05 0.05 0.165 0.05 0.1 
0.165 0.05 0.15 0.165 0.05 0.2 0.165 0.1 0 
0.165 0.1 0.05 0.165 0.1 0.1 0.165 0.1 0.15 
0.165 0.1 0.2 0.165 0.15 0 0.165 0.15 0.05 
0.165 0.15 0.1 0.165 0.15 0.15 0.165 0.15 0.2 
0.165 0.2 0 0.165 0.2 0.05 0.165 0.2 0.1 
0.165 0.2 0.15 0.165 0.2 0.2 0 0.025 0 
0.0186272 -0.00426476 -0.00639043 0.0218395 -0.00566501 0.0212879 0 0 0.025 
0 0.025 0.025 0.0222893 -0.00566801 0.0477102 0 0.025 0.05 
0 0.025 0.075 0 0 0.075 0 0.025 0.1 
0.02214 -0.00589323 0.0738976 0.0224031 -0.00539826 0.100106 0.0222625 -0.00568135 0.126311 
0 0 0.125 0.0223604 -0.00552652 0.152342 0 0.025 0.175 
0 0.025 0.15 0 0 0.175 0 0.025 0.125 
0.0218894 -0.00570874 0.178677 0 0.025 0.2 0.0184794 -0.00435275 0.206422 
0.0224784 0.0211717 0.0215969 0 0.05 0.025 0.0200437 0.0220271 -0.00548797 
0.0212497 0.0480255 -0.00481113 0.0225021 0.0749042 -0.00558194 0 0.075 0.025 
0 0.075 0 0.0225302 0.0212892 0.0479526 0 0.05 0.075 
0 0.075 0.05 0.0445593 0.0734009 0.0190736 0.0230266 0.0745554 0.0211523 
0.0429689 0.0465495 0.0195675 0.0220308 0.0479593 0.0214531 0.0438043 0.0195645 0.0731781 
0.0429798 0.0199159 0.0463491 0 0.075 0.075 0.0453321 0.0732937 0.0456634 
0.0438073 0.0195049 0.0998264 0.022848 0.0210614 0.0740483 0.0230144 0.0212839 0.126207 
0.0449336 0.0188276 0.126976 0.0228783 0.0210529 0.100113 0 0.05 0.125 
0 0.075 0.125 0 0.075 0.1 0 0.05 0.175 
0.0227564 0.0213368 0.152251 0.0228347 0.0741853 0.178942 0.0222846 0.0478089 0.178594 
0.0439422 0.0730889 0.180651 0 0.075 0.15 0.0432439 0.0463002 0.18042 
0.0443593 0.0191699 0.153828 0.0225225 0.0211237 0.1785 0.0223774 0.0745744 0.205763 
0.0214505 0.0478693 0.204899 0.0200567 0.0219438 0.20556 0 0.075 0.175 
0 0.075 0.2 0 0.125 0 0.0224915 0.100729 -0.00562285 
0 0.1 0.025 0.0453044 0.100349 0.0188379 0 0.125 0.025 
0 0.125 0.05 0.023275 0.126457 0.0214135 0.0230991 0.100541 0.0213639 
0 0.1 0.075 0.0452484 0.127165 0.018975 0 0.125 0.075 
0 0.1 0.125 0.0449235 0.154159 0.127098 0.0445858 0.127019 0.154155 
0.0441692 0.100017 0.154546 0.0445703 0.154325 0.100089 0.0452291 0.127231 0.0458476 
0.0450459 0.100316 0.0456214 0 0.125 0.1 0.0441395 0.0457526 0.0998915 
0.0449238 0.0456453 0.126996 0.0827468 0.100105 0.100062 0.0451334 0.154127 0.154126 
0.0443234 0.126919 0.180752 0 0.125 0.175 0 0.125 0.15 
0.023111 0.126248 0.178897 0.0229154 0.100303 0.178885 0 0.1 0.175 
0 0.125 0.125 0.0439849 0.0999159 0.180755 0.0450117 0.0458123 0.15405 
0.0222998 0.100447 0.205965 0 0.125 0.2 0 0.15 0.025 
0.0224594 0.152467 -0.00467797 0.02046 0.177878 -0.00515685 0.0225639 0.178533 0.0217024 
0.0224783 0.12659 -0.00520894 0 0.175 0.025 0 0.175 0 
0.0229615 0.152449 0.0217431 0.0225347 0.178652 0.048082 0.0446104 0.15408 0.019553 
0.0435783 0.180503 0.0466092 0 0.175 0.05 0 0.15 0.075 
0.0441522 0.180567 0.0734334 0.0229175 0.178855 0.0741462 0.0442615 0.180485 0.100122 
0.0229708 0.178793 0.100223 0 0.175 0.1 0.0230411 0.178705 0.126312 
0 0.175 0.075 0.0450132 0.181052 0.12716 0 0.15 0.125 
0 0.175 0.125 0.0451933 0.154092 0.0460211 0 0.15 0.175 
0.0228916 0.152246 0.178634 0.022784 0.17851 0.152323 0.044265 0.153672 0.180681 
0 0.175 0.15 0.0446783 0.180861 0.153966 0.0226259 0.178422 0.17859 
0.0223435 0.152228 0.205137 0.0203376 0.177686 0.205473 0 0.175 0.175 
0.0222792 0.12638 0.205634 0 0.175 0.2 0.0186977 0.204132 -0.00614645 
0.0219235 0.205499 0.021524 0 0.2 0.025 0.0223239 0.20561 0.0478161 
0 0.2 0.075 0.0225173 0.20523 0.100245 0.0223432 0.20554 0.126419 
0.0221949 0.205735 0.0740618 0 0.2 0.125 0.0224483 0.205339 0.152529 
0 0.2 0.175 0.0220422 0.205315 0.178737 0.0186069 0.203956 0.206416 
0.0405964 -0.00719559 0.0192849 0.0605024 -0.00833519 -0.00828277 0.0614782 0.0183687 -0.00857005 
0.0409102 0.0197031 -0.0076347 0.0615725 -0.00831904 0.0183373 0.0626054 0.0184649 0.0181574 
0.0426454 0.0198343 0.01925 0.06275 -0.00847592 0.0724483 0.0626423 -0.00846735 0.0452114 
0.0422093 -0.00720537 0.0730404 0.063261 -0.00868182 0.0998866 0.0422749 -0.00732472 0.126863 
0.0626604 0.0180497 0.18197 0.0613324 -0.0088376 0.18176 0.0622248 -0.00909743 0.154506 
0.0631469 -0.00931522 0.127369 0.0427275 0.0195272 0.180767 0.0404792 -0.00743557 0.18075 
0.061426 0.018008 0.208641 0.0602486 -0.00877276 0.208375 0.0409264 0.0194388 0.20772 
0.0620395 0.0455754 -0.00883248 0.0423114 0.0734288 -0.00731719 0.042265 0.0731175 0.207349 
0.0621727 0.0452989 0.208904 0.06298 0.0726281 -0.0090575 0.0633829 0.100135 -0.00908803 
0.0429671 0.127267 -0.00725658 0.0633982 0.127578 -0.00935226 0.0426101 0.126816 0.207448 
0.063066 0.0997949 0.208863 0.0628139 0.072441 0.208922 0.0629917 0.127071 0.209078 
0.0416218 0.181049 -0.00741856 0.0433888 0.180723 0.0195823 0.0630127 0.155341 -0.00885197 
0.04326 0.180437 0.180835 0.0413986 0.180629 0.207874 0.0629584 0.154687 0.209114 
0.040558 0.207461 0.0196686 0.0605654 0.209439 -0.00775806 0.0619786 0.182736 -0.00830857 
0.0630019 0.208658 0.0729696 0.0423401 0.207158 0.0733774 0.0617028 0.20925 0.0187854 
0.0633704 0.182406 0.0183945 0.0626305 0.209033 0.0457269 0.0636693 0.20871 0.100297 
0.0425372 0.207155 0.127124 0.0406955 0.207301 0.180887 0.0632725 0.181897 0.182196 
0.0625686 0.208985 0.154951 0.061777 0.208756 0.182099 0.0635104 0.20911 0.127644 
0.0605265 0.208654 0.208604 0.0618247 0.18194 0.20886 0.082454 0.017573 -0.00972141 
0.082851 -0.00941157 0.0172037 0.104623 -0.00841698 -0.00873297 0.103954 -0.00852817 0.0179082 
0.082935 0.017256 0.017099 0.10321 -0.00872184 0.0450096 0.0833592 -0.0102353 0.0720361 
0.102114 0.0453603 0.0177552 0.0829137 0.0446827 0.0171733 0.0829047 0.0447155 0.155132 
0.120826 0.0460484 0.127083 0.120828 0.0458518 0.100081 0.101765 0.0454225 0.0450455 
0.0830538 0.0447288 0.0449187 0.0829597 -0.0107536 0.127298 0.102782 -0.00890446 0.0723935 
0.102389 -0.00933991 0.127133 0.101268 0.0451269 0.155174 0.102082 -0.00886792 0.0999236 
0.0822152 0.0170185 0.182992 0.0822294 -0.00980568 0.18257 0.0827507 0.0447706 0.183068 
0.102068 -0.00894027 0.154576 0.101593 0.0448401 0.18238 0.082296 0.017097 0.209995 
0.104333 -0.00911705 0.208194 0.103314 -0.00887808 0.181557 0.082637 0.0723644 -0.0104122 
0.103723 0.018208 -0.00885969 0.103106 0.0183133 0.0178158 0.103132 0.0452722 -0.00907081 
0.102054 0.0724859 -0.00929143 0.103369 0.0175762 0.208615 0.102353 0.01782 0.182041 
0.0830903 0.0722528 0.210751 0.102381 0.072081 0.209644 0.103108 0.0447045 0.209135 
0.120662 0.100005 0.0453973 0.10166 0.0999527 -0.00938617 0.0828234 0.128031 -0.0105946 
0.120815 0.126992 0.0456691 0.101628 0.155308 0.0455201 0.0833412 0.15559 0.045208 
0.120337 0.099439 0.181563 0.120488 0.0995944 0.154703 0.119935 0.12665 0.154711 
0.0832332 0.155137 0.183132 0.0830119 0.15496 0.155089 0.10199 0.155001 0.182382 
0.101288 0.15485 0.154839 0.120581 0.126398 0.181463 0.102248 0.0995021 0.209848 
0.0834616 0.127667 0.210889 0.0826647 0.183412 -0.00994035 0.0829073 0.183571 0.01728 
0.102399 0.182552 0.018216 0.103374 0.182744 -0.00859014 0.101892 0.155233 -0.00897154 
0.121416 0.154005 0.0461263 0.101918 0.182523 0.0453872 0.0832709 0.18333 0.0449062 
0.101877 0.127731 -0.00898916 0.0825284 0.182505 0.183387 0.082665 0.182591 0.210614 
0.102394 0.18206 0.182343 0.10358 0.181878 0.209035 0.121404 0.153221 0.181379 
0.102798 0.154378 0.209594 0.102566 0.126794 0.209898 0.0827618 0.210439 0.0176733 
0.103961 0.209349 0.0185311 0.104758 0.209532 -0.00804054 0.0835828 0.210652 0.0726844 
0.102965 0.209478 0.0454506 0.0832164 0.210447 0.127924 0.122102 0.18098 0.100229 
0.102871 0.209519 0.100386 0.121865 0.154378 0.100141 0.102534 0.209164 0.127925 
0.102965 0.209619 0.0728044 0.0825213 0.209593 0.183066 0.102021 0.208653 0.155248 
0.103567 0.208608 0.182065 0.10482 0.208661 0.208644 0.124803 -0.00815599 0.0189295 
0.124242 0.0190161 -0.00849521 0.146832 -0.00435764 -0.00716943 0.145011 0.0218311 -0.00652674 
0.122888 0.019065 0.01868 0.142324 0.0476518 0.0470766 0.142339 0.0206497 0.0737123 
0.142176 0.0473662 0.0736618 0.122083 0.0460376 0.0189109 0.143359 -0.00568087 0.020654 
0.142796 0.0211243 0.0204149 0.122644 -0.00781107 0.0731704 0.142768 -0.0055384 0.0472198 
0.142516 0.0210948 0.0470515 0.142908 -0.00609725 0.0736837 0.142232 0.0204715 0.0999575 
0.122444 -0.00778641 0.127007 0.14181 0.0464619 0.126157 0.141958 0.0468135 0.100042 
0.121456 0.0460473 0.0459456 0.142738 -0.00573578 0.100038 0.142284 0.0204736 0.126156 
0.142143 0.0475898 0.152673 0.124521 -0.00824111 0.18062 0.142642 -0.00546535 0.15252 
0.142372 0.0211451 0.152674 0.122467 0.0187617 0.181165 0.142678 0.0209914 0.179222 
0.143237 -0.00581492 0.178957 0.12173 0.0455254 0.181135 0.142947 -0.00634104 0.126231 
0.123982 0.0184161 0.208256 0.144869 0.0215273 0.206125 0.146653 -0.00462506 0.206732 
0.122322 0.0733923 -0.00829887 0.143079 0.0476525 -0.00599595 0.142337 0.0738952 0.0205301 
0.142447 0.0474471 0.0205223 0.143054 0.047295 0.205618 0.142206 0.0735516 0.179126 
0.142311 0.0472018 0.179119 0.122644 0.0727233 0.208378 0.141944 0.100147 0.0467294 
0.141797 0.126229 0.0462486 0.14264 0.0738141 -0.00618528 0.141967 0.0998888 0.0203725 
0.142442 0.0998221 -0.00624412 0.12188 0.1273 -0.00790512 0.142129 0.126141 0.0200916 
0.142442 0.125739 -0.00619603 0.142536 0.124981 0.20598 0.142004 0.125534 0.179194 
0.142106 0.0996608 0.179052 0.142673 0.0734296 0.205847 0.142586 0.0992471 0.206138 
0.122698 0.126387 0.208187 0.123679 0.180868 -0.00767709 0.122441 0.180823 0.0191662 
0.142404 0.152593 0.0468639 0.12191 0.180938 0.046199 0.143278 0.152401 -0.00562385 
0.142636 0.152563 0.0205126 0.14343 0.151622 0.205542 0.123988 0.180316 0.208045 
0.122276 0.18036 0.181168 0.142505 0.15178 0.179251 0.124935 0.207557 0.0194978 
0.14665 0.204571 -0.00702704 0.144914 0.178354 -0.00632696 0.143556 0.205964 0.0207369 
0.142928 0.179069 0.0206336 0.143045 0.20607 0.0473933 0.142495 0.179105 0.0733666 
0.143007 0.206032 0.0738626 0.123166 0.207741 0.073501 0.142651 0.179029 0.0470141 
0.122929 0.207724 0.126996 0.143164 0.178668 0.10014 0.143005 0.205302 0.100256 
0.142548 0.178406 0.179043 0.142735 0.205436 0.152739 0.142514 0.178224 0.152972 
0.142302 0.17805 0.126841 0.124816 0.207246 0.18094 0.143245 0.205318 0.17919 
0.142617 0.205136 0.126577 0.144907 0.177609 0.206061 0.146558 0.203906 0.206942 
0.165 0.025 0 0.165 0 0.025 0.165 0.025 0.025 
0.165 0.025 0.05 0.165 0.025 0.075 0.165 0 0.075 
0.165 0.025 0.1 0.165 0 0.125 0.165 0.025 0.125 
0.165 0.025 0.15 0.165 0 0.175 0.165 0.025 0.175 
0.165 0.025 0.2 0.165 0.075 0.025 0.165 0.075 0 
0.165 0.05 0.025 0.165 0.075 0.05 0.165 0.05 0.075 
0.165 0.075 0.125 0.165 0.075 0.075 0.165 0.075 0.1 
0.165 0.05 0.125 0.165 0.075 0.15 0.165 0.05 0.175 
0.165 0.075 0.175 0.165 0.075 0.2 0.165 0.1 0.025 
0.165 0.125 0 0.165 0.1 0.075 0.165 0.125 0.025 
0.165 0.125 0.05 0.165 0.125 0.075 0.165 0.1 0.125 
0.165 0.125 0.1 0.165 0.125 0.125 0.165 0.125 0.15 
0.165 0.125 0.175 0.165 0.1 0.175 0.165 0.125 0.2 
0.165 0.175 0 0.165 0.175 0.025 0.165 0.15 0.025 
0.165 0.15 0.075 0.165 0.175 0.05 0.165 0.175 0.125 
0.165 0.15 0.125 0.165 0.175 0.075 0.165 0.175 0.1 
0.165 0.15 0.175 0.165 0.175 0.15 0.165 0.175 0.175 
0.165 0.175 0.2 0.165 0.2 0.025 0.165 0.2 0.075 
0.165 0.2 0.125 0.165 0.2 0.175 

CELLS 236 2596
10 69 93 88 68 452 510 453 449 450 451 
10 28 47 45 44 255 323 256 257 318 319 
10 93 69 88 94 452 453 510 523 454 511 
10 43 49 86 85 308 342 309 310 343 503 
10 5 1 26 6 102 103 120 121 104 127 
10 82 86 81 63 495 493 494 421 422 423 
10 7 11 48 6 136 163 137 128 129 130 
10 37 17 54 38 208 209 285 286 210 290 
10 55 13 12 51 182 171 172 361 183 173 
10 90 86 49 85 505 342 344 504 503 343 
10 37 52 50 36 287 352 288 282 283 284 
10 91 92 65 86 519 433 434 506 507 435 
10 82 65 86 63 436 435 495 421 424 422 
10 25 5 0 26 122 98 99 243 120 100 
10 46 32 6 48 268 131 132 326 269 130 
10 57 46 58 62 327 328 383 384 329 387 
10 26 41 25 46 247 244 243 248 299 245 
10 22 38 39 17 235 291 236 211 210 212 
10 55 49 12 54 345 174 172 373 346 175 
10 26 5 6 30 120 121 127 249 123 133 
10 25 30 26 46 246 249 243 245 264 248 
10 11 15 16 34 164 194 165 166 195 201 
10 82 65 87 86 436 437 496 495 435 508 
10 15 34 36 37 195 276 196 197 277 282 
10 43 85 64 48 310 425 311 312 336 337 
10 1 5 26 0 102 120 103 101 98 100 
10 52 37 50 53 287 288 352 368 289 353 
10 60 80 59 86 404 398 399 405 489 400 
10 48 7 6 43 137 128 130 312 138 134 
10 92 71 96 91 462 463 521 519 464 520 
10 26 7 43 6 139 138 250 127 128 134 
10 6 26 46 42 127 248 132 135 251 303 
10 32 15 10 11 198 160 161 167 164 162 
10 90 71 70 49 465 459 460 344 347 348 
10 28 9 8 3 154 146 147 112 113 114 
10 68 69 50 66 449 354 355 439 440 356 
10 49 90 54 70 344 374 346 348 460 375 
10 28 43 7 44 258 138 140 257 313 141 
10 92 72 71 67 469 466 462 445 446 447 
10 71 56 51 72 381 362 363 466 382 364 
10 50 37 16 53 288 202 203 353 289 204 
10 5 6 30 32 121 133 123 124 131 265 
10 39 19 35 40 224 225 279 292 226 280 
10 12 11 50 48 168 169 176 177 163 338 
10 21 15 37 16 199 197 233 205 194 202 
10 28 4 9 3 117 118 154 112 115 113 
10 80 84 58 85 490 388 389 491 499 390 
10 15 36 20 37 196 230 200 197 282 231 
10 15 20 21 37 200 232 199 197 231 233 
10 19 18 35 13 218 219 225 184 185 186 
10 39 51 35 18 293 281 279 220 221 219 
10 15 34 37 16 195 277 197 194 201 202 
10 19 23 39 18 227 239 224 218 222 220 
10 5 6 32 11 121 131 124 125 129 167 
10 10 5 32 11 126 124 161 162 125 167 
10 19 33 14 13 228 192 193 184 187 188 
10 26 41 46 42 247 299 248 251 300 303 
10 24 19 39 40 229 224 241 242 226 292 
10 51 91 67 65 365 448 366 367 434 438 
10 17 21 37 16 213 233 208 206 205 202 
10 37 22 21 17 237 234 233 208 211 213 
10 49 91 65 86 349 434 350 342 506 435 
10 7 1 26 2 105 103 139 107 106 108 
10 17 55 12 54 214 172 178 209 373 175 
10 19 33 13 35 228 187 184 225 272 186 
10 7 2 26 27 107 108 139 142 109 252 
10 33 9 8 31 155 146 148 266 156 149 
10 55 18 39 17 223 220 294 214 215 212 
10 23 22 39 17 238 236 239 216 211 212 
10 18 23 39 17 222 239 220 215 216 212 
10 26 7 27 43 139 142 252 250 138 253 
10 32 15 11 34 198 164 167 270 195 166 
10 39 19 18 35 224 218 220 279 225 219 
10 23 19 39 24 227 224 239 240 229 241 
10 28 9 31 8 154 156 259 147 146 149 
10 28 4 29 9 117 119 260 154 118 157 
10 51 91 49 71 365 349 351 363 464 347 
10 96 71 90 91 463 465 515 520 464 516 
10 13 55 12 17 182 172 171 189 214 178 
10 92 71 91 67 462 464 519 445 447 448 
10 25 5 26 30 122 120 243 246 123 249 
10 47 61 45 60 331 324 323 332 406 325 
10 33 49 8 13 273 150 148 187 190 151 
10 85 90 64 48 504 426 425 336 339 337 
10 13 9 8 33 158 146 151 187 155 148 
10 78 64 84 83 427 428 484 485 429 497 
10 6 32 11 48 131 167 129 130 269 163 
10 16 37 54 53 202 285 207 204 289 371 
10 47 33 8 31 274 148 152 267 266 149 
10 1 7 26 6 105 139 103 104 128 127 
10 76 80 60 81 479 404 407 480 492 408 
10 90 94 69 95 517 454 455 518 524 456 
10 90 50 70 66 357 358 460 441 356 442 
10 7 2 27 28 107 109 142 140 110 254 
10 29 28 47 45 260 255 261 262 256 323 
10 3 7 8 28 116 143 114 112 140 147 
10 29 28 31 47 260 259 263 261 255 267 
10 47 33 49 8 274 273 333 152 148 150 
10 28 8 31 47 147 149 259 255 152 267 
10 90 70 69 66 460 457 455 441 442 440 
10 71 97 92 96 467 522 462 463 526 521 
10 58 46 64 62 328 330 391 387 329 417 
10 13 9 33 14 158 155 187 188 159 192 
10 39 56 40 51 295 297 292 293 362 298 
10 3 7 28 2 116 140 112 111 107 110 
10 46 57 58 41 327 383 328 299 301 302 
10 90 50 48 70 357 338 339 460 358 340 
10 90 54 70 48 374 375 460 339 341 340 
10 58 43 64 42 314 311 391 304 305 306 
10 28 43 27 7 258 253 254 140 138 142 
10 8 49 47 44 150 333 152 153 320 318 
10 28 8 47 44 147 152 255 257 153 318 
10 43 49 12 44 308 174 179 313 320 180 
10 12 49 13 44 174 190 171 180 320 191 
10 49 8 13 44 150 151 190 320 153 191 
10 12 13 7 44 171 144 145 180 191 141 
10 43 12 7 44 179 145 138 313 180 141 
10 13 8 7 44 151 143 144 191 153 141 
10 7 8 28 44 143 147 140 141 153 257 
10 91 51 49 65 365 351 349 434 367 350 
10 92 87 65 86 509 437 433 507 508 435 
10 63 61 60 82 414 406 409 421 415 410 
10 60 61 77 82 406 416 411 410 415 483 
10 67 51 72 71 366 364 446 447 363 466 
10 91 92 67 65 519 445 448 434 433 438 
10 63 60 81 82 409 408 423 421 410 494 
10 76 60 77 82 407 411 481 482 410 483 
10 60 76 81 82 407 480 408 410 482 494 
10 39 56 51 55 295 362 293 294 379 361 
10 18 35 13 51 219 186 185 221 281 183 
10 55 13 51 18 182 183 361 223 185 221 
10 49 55 12 51 345 172 174 351 361 173 
10 35 33 13 51 272 187 186 281 275 183 
10 33 49 13 51 273 190 187 275 351 183 
10 49 12 13 51 174 171 190 351 173 183 
10 55 13 18 17 182 185 223 214 189 215 
10 71 56 55 51 381 379 380 363 362 361 
10 51 40 39 35 298 292 293 281 280 279 
10 37 36 50 34 282 284 288 277 276 278 
10 47 60 44 65 332 321 318 334 412 322 
10 49 47 44 65 333 318 320 350 334 322 
10 47 61 60 63 331 406 332 335 414 409 
10 43 44 60 65 313 321 315 316 322 412 
10 43 49 44 65 308 320 313 316 350 322 
10 39 51 18 55 293 221 220 294 361 223 
10 54 39 38 17 296 291 290 209 212 210 
10 90 70 95 69 460 461 518 455 457 456 
10 49 12 54 85 174 175 346 343 181 376 
10 71 49 54 70 347 346 377 459 348 375 
10 51 91 71 67 365 464 363 366 448 447 
10 49 55 51 71 345 361 351 347 380 363 
10 6 43 26 42 134 250 127 135 305 251 
10 73 58 78 57 392 393 471 385 383 386 
10 37 22 17 38 237 211 208 286 235 210 
10 43 49 65 86 308 350 316 309 342 435 
10 59 43 60 86 317 315 399 400 309 405 
10 60 43 65 86 315 316 412 405 309 435 
10 63 60 65 86 409 412 424 422 405 435 
10 60 63 81 86 409 423 408 405 422 493 
10 37 17 16 54 208 206 202 285 209 207 
10 71 95 90 70 468 518 465 459 461 460 
10 49 55 71 54 345 380 347 346 373 377 
10 95 71 90 96 468 465 518 525 463 515 
10 88 69 66 89 453 440 443 512 458 444 
10 90 49 54 85 344 346 374 504 343 376 
10 78 64 62 84 427 417 418 484 428 419 
10 90 66 89 64 441 444 513 426 430 431 
10 54 90 85 48 374 504 376 341 339 336 
10 69 68 88 66 449 451 453 440 439 443 
10 9 29 28 31 157 260 154 156 263 259 
10 54 12 50 48 175 176 359 341 177 338 
10 88 69 89 94 453 458 512 511 454 514 
10 78 58 62 57 393 387 418 386 383 384 
10 69 54 50 70 378 359 354 457 375 358 
10 90 86 91 49 505 506 516 344 342 349 
10 12 54 85 48 175 376 181 177 341 336 
10 89 66 88 64 444 443 512 431 430 432 
10 88 84 89 64 500 501 512 432 428 431 
10 69 70 50 66 457 358 354 440 442 356 
10 49 43 12 85 308 179 174 343 310 181 
10 92 72 97 71 469 470 522 462 466 467 
10 90 94 89 69 517 514 513 455 454 458 
10 69 54 53 50 378 371 372 354 359 353 
10 68 69 52 50 449 369 370 355 354 352 
10 48 7 43 12 137 138 312 177 145 179 
10 69 90 66 89 455 441 440 458 513 444 
10 59 43 86 85 317 309 400 401 310 503 
10 60 80 86 81 404 489 405 408 492 493 
10 69 53 52 50 372 368 369 354 353 352 
10 90 71 49 91 465 347 344 516 464 349 
10 50 37 34 16 288 277 278 203 202 201 
10 54 16 53 50 207 204 371 359 203 353 
10 46 32 30 6 268 265 264 132 131 133 
10 32 34 11 50 270 166 167 271 278 169 
10 12 17 54 50 178 209 175 176 217 359 
10 17 16 54 50 206 207 209 217 203 359 
10 11 17 12 50 170 178 168 169 217 176 
10 11 16 17 50 165 206 170 169 203 217 
10 11 34 16 50 166 201 165 169 278 203 
10 11 7 48 12 136 137 163 168 145 177 
10 64 50 90 66 360 357 426 430 356 441 
10 90 89 84 64 513 501 502 426 431 428 
10 85 59 58 80 401 394 390 491 398 389 
10 60 45 47 44 325 323 332 321 319 318 
10 11 32 50 48 167 271 169 163 269 338 
10 50 64 90 48 360 426 357 338 337 339 
10 43 12 85 48 179 181 310 312 177 336 
10 59 43 85 64 317 310 401 402 311 425 
10 30 6 26 46 133 127 249 264 132 248 
10 46 41 58 42 299 302 328 303 300 304 
10 90 84 85 64 502 499 504 426 428 425 
10 84 62 78 79 419 418 484 487 420 486 
10 70 54 50 48 375 359 358 340 341 338 
10 78 74 79 58 473 474 486 393 395 396 
10 58 46 42 64 328 303 304 391 330 306 
10 54 39 17 55 296 212 209 373 294 214 
10 43 6 48 42 134 130 312 305 135 307 
10 84 64 62 58 428 417 419 388 391 387 
10 58 80 75 74 389 477 397 395 475 476 
10 47 60 65 63 332 412 334 335 409 424 
10 58 80 74 79 389 475 395 396 488 474 
10 85 59 64 58 401 402 425 390 394 391 
10 84 85 64 58 499 425 428 388 390 391 
10 60 75 80 76 413 477 404 407 478 479 
10 48 6 46 42 130 132 326 307 135 303 
10 58 43 59 64 314 317 394 391 311 402 
10 64 43 48 42 311 312 337 306 305 307 
10 64 48 46 42 337 326 330 306 307 303 
10 86 59 85 80 400 401 503 489 398 491 
10 59 58 80 75 394 389 398 403 397 477 
10 60 75 59 80 413 403 399 404 477 398 
10 62 84 58 79 419 388 387 420 487 396 
10 88 84 64 83 500 428 432 498 497 429 
10 80 84 79 58 490 487 488 389 388 396 
10 78 58 79 62 393 396 486 418 387 420 
10 78 74 58 73 473 395 393 471 472 392 

CELL_TYPES 236
24
24
24
24
24
24
24
24
24
24
24
24
24
24
24
24
24
24
24
24
24
24
24
24
24
24
24
24
24
24
24
24
24
24
24
24
24
24
24
24
24
24
24
24
24
24
24
24
24
24
24
24
24
24
24
24
24
24
24
24
24
24
24
24
24
24
24
24
24
24
24
24
24
24
24
24
24
24
24
24
24
24
24
24
24
24
24
24
24
24
24
24
24
24
24
24
24
24
24
24
24
24
24
24
24
24
24
24
24
24
24
24
24
24
24
24
24
24
24
24
24
24
24
24
24
24
24
24
24
24
24
24
24
24
24
24
24
24
24
24
24
24
24
24
24
24
24
24
24
24
24
24
24
24
24
24
24
24
24
24
24
24
24
24
24
24
24
24
24
24
24
24
24
24
24
24
24
24
24
24
24
24
24
24
24
24
24
24
24
24
24
24
24
24
24
24
24
24
24
24
24
24
24
24
24
24
24
24
24
24
24
24
24
24
24
24
24
24
24
24
24
24
24
24
24
24
24
24
24
24
24
24
24
24
24
24

POINT_DATA 527
VECTORS displacement float
0 0 0
0 0 0
0 0 0
0 0 0
0 0 0
0 0 0
0 0 0
0 0 0
0 0 0
0 0 0
0 0 0
0 0 0
0 0 0
0 0 0
0 0 0
0 0 0
0 0 0
0 0 0
0 0 0
0 0 0
0 0 0
0 0 0
0 0 0
0 0 0
0 0 0
-0.0112337 -0.00728191 -0.00726561
-0.00814186 -0.00691275 -0.00365289
-0.00720556 -0.00726435 -5.54198e-05
-0.00791444 -0.00730396 0.00360935
-0.0114881 -0.00753486 0.00734651
-0.00824672 -0.0033174 -0.00729843
-0.00804496 -0.00358595 0.00732172
-0.00726429 0.000296773 -0.00712897
-0.00769043 -0.000147874 0.00715149
-0.00686689 0.00421562 -0.00705098
-0.00707508 0.00376986 0.00743449
-0.0113065 0.00779421 -0.00688061
-0.00812532 0.00706027 -0.00339057
-0.00696777 0.0071409 0.000247036
-0.00773281 0.00720284 0.0039073
-0.0113763 0.00750774 0.00741836
-0.0175399 -0.00897512 -0.0095557
-0.0168622 -0.0102008 -0.00548775
-0.0167821 -0.0101111 -0.000236606
-0.0181291 -0.0106456 0.00496961
-0.0177162 -0.00954874 0.00955836
-0.0177553 -0.00522912 -0.0102482
-0.0176515 -0.00543556 0.0106362
-0.017005 0.00012016 -0.0103859
-0.0165626 -4.6062e-05 0.0106637
-0.0174802 0.00581731 -0.0109066
-0.0170789 0.00510463 0.0111229
-0.0173952 0.0101321 -0.00925091
-0.0172425 0.010845 -0.00483856
-0.0161506 0.0102632 0.000371734
-0.0179323 0.0101961 0.00553315
-0.0173051 0.00924005 0.0101723
-0.0233846 -0.00820846 -0.00771012
-0.0265439 -0.00797982 -0.00374802
-0.0280099 -0.00761378 0.000132999
-0.0269555 -0.00768048 0.00343569
-0.0236594 -0.00867094 0.00718624
-0.0269627 -0.00366385 -0.00859363
-0.0269538 -0.0042964 0.0085737
-0.0284211 0.000246833 -0.00804932
-0.0276541 -0.000430389 0.00812799
-0.0278854 0.0039995 -0.00778417
-0.0271091 0.00316209 0.00809832
-0.0235465 0.00766656 -0.00720063
-0.0260407 0.007729 -0.00325716
-0.0270686 0.00767724 0.000335467
-0.0264998 0.0077052 0.0036877
-0.0234564 0.00727783 0.00760581
-0.035 0 0
-0.035 0 0
-0.035 0 0
-0.035 0 0
-0.035 0 0
-0.035 0 0
-0.035 0 0
-0.035 0 0
-0.035 0 0
-0.035 0 0
-0.035 0 0
-0.035 0 0
-0.035 0 0
-0.035 0 0
-0.035 0 0
-0.035 0 0
-0.035 0 0
-0.035 0 0
-0.035 0 0
-0.035 0 0
-0.035 0 0
-0.035 0 0
-0.035 0 0
-0.035 0 0
-0.035 0 0
0 0 0
-0.00637281 -0.00426476 -0.00639043
-0.00316047 -0.00566501 -0.00371211
0 0 0
0 0 0
-0.00271073 -0.00566801 -0.00228978
0 0 0
0 0 0
0 0 0
0 0 0
-0.00286002 -0.00589323 -0.0011024
-0.00259694 -0.00539826 0.000105724
-0.00273748 -0.00568135 0.00131105
0 0 0
-0.00263956 -0.00552652 0.00234249
0 0 0
0 0 0
0 0 0
0 0 0
-0.00311063 -0.00570874 0.00367725
0 0 0
-0.00652056 -0.00435275 0.0064218
-0.00252162 -0.00382828 -0.00340307
0 0 0
-0.00495632 -0.0029729 -0.00548797
-0.00375028 -0.00197451 -0.00481113
-0.00249794 -9.58458e-05 -0.00558194
0 0 0
0 0 0
-0.00246976 -0.00371084 -0.00204736
0 0 0
0 0 0
-0.00544072 -0.00159907 -0.00592644
-0.00197338 -0.000444623 -0.0038477
-0.00703111 -0.00345047 -0.00543253
-0.00296922 -0.0020407 -0.00354691
-0.00619566 -0.0054355 -0.00182186
-0.00702018 -0.00508408 -0.00365087
0 0 0
-0.00466793 -0.00170634 -0.00433657
-0.00619266 -0.00549509 -0.000173605
-0.002152 -0.00393859 -0.000951689
-0.00198561 -0.00371606 0.00120655
-0.00506637 -0.00617238 0.00197585
-0.00212166 -0.00394715 0.00011346
0 0 0
0 0 0
0 0 0
0 0 0
-0.00224358 -0.00366324 0.00225133
-0.00216526 -0.000814696 0.00394155
-0.0027154 -0.0021911 0.00359385
-0.00605777 -0.00191107 0.00565102
0 0 0
-0.00675609 -0.00369981 0.00542016
-0.00564073 -0.00583011 0.0038281
-0.00247748 -0.00387631 0.00350038
-0.00262261 -0.000425615 0.00576296
-0.00354954 -0.00213072 0.00489901
-0.00494332 -0.00305622 0.00555976
0 0 0
0 0 0
0 0 0
-0.00250853 0.000728792 -0.00562285
0 0 0
-0.00469561 0.000348797 -0.00616206
0 0 0
0 0 0
-0.00172497 0.00145735 -0.00358645
-0.00190092 0.000541013 -0.00363615
0 0 0
-0.00475163 0.00216451 -0.00602504
0 0 0
0 0 0
-0.00507646 0.00415905 0.00209843
-0.00541424 0.00201881 0.00415513
-0.00583084 1.74724e-05 0.00454553
-0.00542974 0.00432518 8.93874e-05
-0.00477087 0.00223051 -0.00415239
-0.0049541 0.000316292 -0.0043786
0 0 0
-0.00586049 -0.00424742 -0.000108492
-0.00507625 -0.00435469 0.00199597
-0.0172532 0.000104506 6.20383e-05
-0.00486663 0.00412667 0.00412561
-0.00567662 0.0019193 0.0057518
0 0 0
0 0 0
-0.00188904 0.00124754 0.00389705
-0.00208464 0.000303053 0.00388521
0 0 0
0 0 0
-0.00601505 -8.4114e-05 0.00575537
-0.00498833 -0.00418767 0.00404972
-0.0027002 0.000446826 0.00596534
0 0 0
0 0 0
-0.00254059 0.00246681 -0.00467797
-0.00454003 0.00287781 -0.00515685
-0.00243615 0.00353295 -0.00329762
-0.00252165 0.00158993 -0.00520894
0 0 0
0 0 0
-0.00203852 0.00244856 -0.00325692
-0.0024653 0.003652 -0.00191798
-0.00538964 0.00407982 -0.00544697
-0.00642173 0.00550297 -0.00339075
0 0 0
0 0 0
-0.0058478 0.00556741 -0.00156658
-0.00208245 0.0038554 -0.000853839
-0.00573846 0.00548466 0.000122275
-0.00202922 0.00379345 0.000223374
0 0 0
-0.0019589 0.00370499 0.00131196
0 0 0
-0.00498684 0.00605188 0.0021596
0 0 0
0 0 0
-0.00480667 0.00409231 -0.00397894
0 0 0
-0.0021084 0.00224568 0.00363404
-0.00221601 0.00350986 0.00232305
-0.00573497 0.00367242 0.00568067
0 0 0
-0.00532167 0.00586142 0.0039661
-0.0023741 0.003422 0.00358957
-0.00265653 0.00222788 0.00513662
-0.00466241 0.00268552 0.00547309
0 0 0
-0.0027208 0.00137955 0.00563358
0 0 0
-0.00630227 0.0041325 -0.00614645
-0.00307653 0.00549943 -0.00347597
0 0 0
-0.00267613 0.00560984 -0.00218391
0 0 0
-0.00248274 0.0052295 0.000245011
-0.00265678 0.00553999 0.00141914
-0.00280511 0.00573493 -0.000938187
0 0 0
-0.00255168 0.00533929 0.00252864
0 0 0
-0.00295783 0.00531514 0.00373741
-0.00639314 0.00395621 0.00641603
-0.00940355 -0.00719559 -0.00571511
-0.0144976 -0.00833519 -0.00828277
-0.0135218 -0.00663125 -0.00857005
-0.00908977 -0.00529691 -0.0076347
-0.0134275 -0.00831904 -0.00666267
-0.0123946 -0.00653512 -0.00684261
-0.00735455 -0.00516574 -0.00574995
-0.01225 -0.00847592 -0.00255174
-0.0123577 -0.00846735 -0.00478856
-0.00779066 -0.00720537 -0.00195962
-0.011739 -0.00868182 -0.000113358
-0.00772514 -0.00732472 0.0018634
-0.0123396 -0.00695034 0.00696985
-0.0136676 -0.0088376 0.00676014
-0.0127752 -0.00909743 0.00450629
-0.0118531 -0.00931522 0.00236919
-0.00727251 -0.00547279 0.00576653
-0.00952079 -0.00743557 0.00575006
-0.013574 -0.00699195 0.00864141
-0.0147514 -0.00877276 0.00837475
-0.00907361 -0.00556121 0.00771955
-0.0129605 -0.00442458 -0.00883248
-0.00768864 -0.00157116 -0.00731719
-0.00773499 -0.00188251 0.00734857
-0.0128273 -0.00470112 0.00890445
-0.01202 -0.00237188 -0.0090575
-0.0116171 0.000135183 -0.00908803
-0.00703291 0.00226731 -0.00725658
-0.0116018 0.00257836 -0.00935226
-0.00738989 0.00181552 0.00744783
-0.011934 -0.000205082 0.0088632
-0.0121862 -0.00255898 0.00892197
-0.0120083 0.00207067 0.00907781
-0.0083782 0.00604919 -0.00741856
-0.00661117 0.00572301 -0.00541771
-0.0119873 0.00534121 -0.00885197
-0.00674 0.00543679 0.00583517
-0.00860144 0.00562858 0.00787378
-0.0120416 0.00468714 0.00911406
-0.00944205 0.00746107 -0.00533139
-0.0144346 0.0094385 -0.00775806
-0.0130214 0.00773553 -0.00830857
-0.0119981 0.0086583 -0.0020304
-0.00765988 0.00715796 -0.00162261
-0.0132972 0.00924967 -0.00621456
-0.0116296 0.0074056 -0.00660555
-0.0123695 0.00903267 -0.00427312
-0.0113307 0.00870955 0.000296571
-0.00746277 0.00715506 0.00212378
-0.00930454 0.00730101 0.00588676
-0.0117275 0.00689678 0.00719647
-0.0124314 0.0089849 0.00495079
-0.013223 0.0087564 0.00709866
-0.0114896 0.00911032 0.0026437
-0.0144735 0.00865416 0.00860358
-0.0131753 0.00694006 0.00886004
-0.017546 -0.00742702 -0.00972141
-0.017149 -0.00941157 -0.00779634
-0.0203775 -0.00841698 -0.00873297
-0.0210462 -0.00852817 -0.00709179
-0.017065 -0.00774398 -0.00790105
-0.0217895 -0.00872184 -0.00499042
-0.0166408 -0.0102353 -0.00296395
-0.022886 -0.00463972 -0.0072448
-0.0170863 -0.00531727 -0.00782668
-0.0170953 -0.00528453 0.00513215
-0.0291741 -0.00395156 0.00208291
-0.0291717 -0.00414819 8.14161e-05
-0.0232348 -0.00457751 -0.00495448
-0.0169463 -0.00527122 -0.0050813
-0.0170403 -0.0107536 0.00229787
-0.0222177 -0.00890446 -0.0026065
-0.0226114 -0.00933991 0.00213272
-0.0237318 -0.00487309 0.00517439
-0.0229184 -0.00886792 -7.63536e-05
-0.0177848 -0.00798154 0.00799236
-0.0177706 -0.00980568 0.00756966
-0.0172493 -0.0052294 0.00806777
-0.0229315 -0.00894027 0.00457591
-0.0234068 -0.00515986 0.00738022
-0.017704 -0.00790303 0.00999455
-0.0206666 -0.00911705 0.00819436
-0.0216856 -0.00887808 0.00655682
-0.017363 -0.00263563 -0.0104122
-0.0212772 -0.00679198 -0.00885969
-0.0218939 -0.00668665 -0.0071842
-0.0218675 -0.00472776 -0.00907081
-0.0229462 -0.00251413 -0.00929143
-0.0216309 -0.00742377 0.00861474
-0.0226466 -0.00718003 0.00704099
-0.0169097 -0.00274721 0.0107514
-0.0226191 -0.00291902 0.0096445
-0.0218918 -0.00529555 0.00913469
-0.0293385 4.84837e-06 -0.00460272
-0.0233398 -4.73122e-05 -0.00938617
-0.0171766 0.00303088 -0.0105946
-0.029185 0.00199162 -0.00433087
-0.0233722 0.00530793 -0.00447989
-0.0166588 0.00558988 -0.00479197
-0.0296635 -0.000561048 0.00656257
-0.0295119 -0.000405583 0.00470308
-0.0300646 0.00164993 0.0047105
-0.0167668 0.00513695 0.00813241
-0.0169881 0.00496039 0.00508869
-0.0230103 0.00500096 0.00738151
-0.0237117 0.00484976 0.00483863
-0.0294189 0.00139768 0.00646301
-0.0227517 -0.000497895 0.00984801
-0.0165384 0.00266724 0.010889
-0.0173353 0.00841191 -0.00994035
-0.0170927 0.00857095 -0.00771999
-0.022601 0.00755198 -0.00678404
-0.021626 0.00774413 -0.00859014
-0.0231083 0.00523288 -0.00897154
-0.0285836 0.00400479 -0.00387369
-0.0230823 0.00752286 -0.00461278
-0.0167291 0.00833008 -0.00509375
-0.0231231 0.0027311 -0.00898916
-0.0174716 0.00750493 0.00838692
-0.017335 0.00759117 0.0106143
-0.0226064 0.00706004 0.00734337
-0.0214204 0.00687782 0.00903494
-0.0285964 0.00322116 0.00637864
-0.0222023 0.0043783 0.00959359
-0.0224339 0.00179364 0.00989838
-0.0172382 0.0104391 -0.00732672
-0.0210392 0.00934904 -0.00646889
-0.0202425 0.0095325 -0.00804054
-0.0164172 0.010652 -0.00231556
-0.0220348 0.0094775 -0.00454944
-0.0167836 0.0104469 0.00292365
-0.027898 0.00597984 0.000228554
-0.0221291 0.00951883 0.00038638
-0.0281351 0.00437828 0.000141006
-0.0224664 0.00916397 0.00292522
-0.0220352 0.00961926 -0.00219562
-0.0174787 0.00959328 0.00806568
-0.0229791 0.00865285 0.00524814
-0.021433 0.00860826 0.00706512
-0.0201798 0.00866141 0.00864412
-0.0251973 -0.00815599 -0.00607055
-0.0257585 -0.00598394 -0.00849521
-0.0281677 -0.00435764 -0.00716943
-0.0299893 -0.00316895 -0.00652674
-0.0271117 -0.00593502 -0.00631996
-0.0326763 -0.00234824 -0.00292342
-0.0326607 -0.00435032 -0.00128771
-0.0328239 -0.00263379 -0.00133821
-0.0279167 -0.00396236 -0.00608913
-0.0316405 -0.00568087 -0.00434601
-0.0322039 -0.00387575 -0.0045851
-0.0273559 -0.00781107 -0.00182961
-0.0322317 -0.0055384 -0.00278025
-0.0324844 -0.00390518 -0.00294855
-0.0320915 -0.00609725 -0.00131633
-0.0327677 -0.00452848 -4.25462e-05
-0.0275558 -0.00778641 0.00200688
-0.0331904 -0.00353815 0.00115693
-0.0330418 -0.0031865 4.24483e-05
-0.028544 -0.00395268 -0.00405442
-0.0322617 -0.00573578 3.80577e-05
-0.0327156 -0.00452641 0.00115555
-0.032857 -0.0024102 0.00267326
-0.0254786 -0.00824111 0.00562008
-0.0323582 -0.00546535 0.00252038
-0.0326283 -0.00385487 0.00267426
-0.0275333 -0.00623826 0.00616511
-0.0323221 -0.00400857 0.00422198
-0.0317626 -0.00581492 0.00395736
-0.0282697 -0.00447456 0.0061353
-0.0320528 -0.00634104 0.00123105
-0.026018 -0.00658385 0.00825615
-0.0301305 -0.00347273 0.00612501
-0.0283472 -0.00462506 0.00673158
-0.0276783 -0.00160769 -0.00829887
-0.0319215 -0.00234748 -0.00599595
-0.0326634 -0.00110484 -0.00446995
-0.0325533 -0.00255294 -0.00447769
-0.0319461 -0.00270503 0.00561758
-0.0327941 -0.00144835 0.00412579
-0.0326885 -0.00279824 0.00411867
-0.027356 -0.00227672 0.00837811
-0.0330559 0.000147048 -0.0032706
-0.0332028 0.00122936 -0.00375143
-0.0323601 -0.00118591 -0.00618528
-0.0330327 -0.00011123 -0.00462752
-0.0325579 -0.000177934 -0.00624412
-0.0281199 0.00230015 -0.00790512
-0.0328705 0.00114147 -0.0049084
-0.0325577 0.000739118 -0.00619603
-0.0324643 -1.9427e-05 0.00598028
-0.0329964 0.000533934 0.00419383
-0.0328939 -0.000339185 0.00405206
-0.0323267 -0.00157044 0.00584675
-0.0324139 -0.000752879 0.00613807
-0.0273016 0.00138748 0.00818664
-0.0263207 0.00586769 -0.00767709
-0.0275587 0.00582259 -0.00583384
-0.0325964 0.00259322 -0.00313612
-0.0280899 0.00593799 -0.00380099
-0.0317222 0.00240135 -0.00562385
-0.0323637 0.00256275 -0.00448742
-0.03157 0.00162231 0.00554224
-0.0260119 0.00531591 0.00804539
-0.0277236 0.00536003 0.00616811
-0.0324953 0.00178047 0.00425073
-0.0250651 0.00755745 -0.00550221
-0.02835 0.00457142 -0.00702704
-0.0300864 0.00335437 -0.00632696
-0.0314444 0.00596444 -0.00426313
-0.0320718 0.00406892 -0.00436635
-0.0319552 0.00607048 -0.0026067
-0.0325054 0.00410528 -0.0016334
-0.0319932 0.00603189 -0.00113745
-0.0268339 0.00774056 -0.00149897
-0.0323493 0.00402875 -0.00298592
-0.0270706 0.0077238 0.00199602
-0.0318364 0.00366758 0.00014017
-0.0319947 0.00530233 0.000256083
-0.0324524 0.00340609 0.00404295
-0.0322648 0.00543601 0.00273883
-0.032486 0.00322398 0.00297198
-0.0326984 0.00304996 0.0018413
-0.0251843 0.0072461 0.00593966
-0.0317551 0.0053178 0.00419027
-0.0323825 0.00513597 0.00157712
-0.0300932 0.00260867 0.00606132
-0.0284419 0.00390616 0.00694242
-0.035 0 0
-0.035 0 0
-0.035 0 0
-0.035 0 0
-0.035 0 0
-0.035 0 0
-0.035 0 0
-0.035 0 0
-0.035 0 0
-0.035 0 0
-0.035 0 0
-0.035 0 0
-0.035 0 0
-0.035 0 0
-0.035 0 0
-0.035 0 0
-0.035 0 0
-0.035 0 0
-0.035 0 0
-0.035 0 0
-0.035 0 0
-0.035 0 0
-0.035 0 0
-0.035 0 0
-0.035 0 0
-0.035 0 0
-0.035 0 0
-0.035 0 0
-0.035 0 0
-0.035 0 0
-0.035 0 0
-0.035 0 0
-0.035 0 0
-0.035 0 0
-0.035 0 0
-0.035 0 0
-0.035 0 0
-0.035 0 0
-0.035 0 0
-0.035 0 0
-0.035 0 0
-0.035 0 0
-0.035 0 0
-0.035 0 0
-0.035 0 0
-0.035 0 0
-0.035 0 0
-0.035 0 0
-0.035 0 0
-0.035 0 0
-0.035 0 0
-0.035 0 0
-0.035 0 0
-0.035 0 0
-0.035 0 0
-0.035 0 0

CELL_DATA 236
TENSORS stress float
-8763.17 -95.8149 -184.229
-95.8149 -1900.81 316.85
-184.229 316.85 268.289

-8266.08 -5.16005 127.414
-5.16005 -1292.29 489.791
127.414 489.791 -637.584

-10423.8 -1685.37 1436.21
-1685.37 -6335.03 -1126.89
1436.21 -1126.89 -6986.58

-6634.39 84.8181 -774.446
84.8181 -197.551 442.328
-774.446 442.328 302.327

-8991.93 -1619.47 -1255.01
-1619.47 -4099.06 827.836
-1255.01 827.836 -5269.88

-11274.4 673.633 -1072.55
673.633 -8636.52 -376.67
-1072.55 -376.67 -7923.32

-12835.8 122.199 -176.345
122.199 -8536.83 -147.068
-176.345 -147.068 -8800.66

-7309.02 -197.707 137.714
-197.707 -421.988 -80.9144
137.714 -80.9144 -431.18

-8995.8 450.828 489.481
450.828 -2063.09 -17.5762
489.481 -17.5762 -2416.73

-16605.6 -287.552 -166.176
-287.552 -13574.6 -29.3234
-166.176 -29.3234 -13628

-6755.97 -406.306 173.659
-406.306 715.977 188.361
173.659 188.361 325.427

-8029.14 -324.872 -2030.68
-324.872 -5837.12 -76.7962
-2030.68 -76.7962 -3897.88

-6650.6 448.875 -1692.25
448.875 -1598.73 -328.847
-1692.25 -328.847 393.217

-8831.56 -159.835 309.778
-159.835 -1951.72 -88.1766
309.778 -88.1766 75.7496

-7076.61 336.279 508.485
336.279 1225.2 -163.045
508.485 -163.045 -406.179

-6869.17 -480.056 -348.65
-480.056 2116.73 -124.95
-348.65 -124.95 1608.3

-6843.97 170.561 184.161
170.561 431.694 -157.47
184.161 -157.47 268.894

-7587.49 977.985 224.046
977.985 -805.344 241.668
224.046 241.668 -2530.18

-9506.88 371.097 278.379
371.097 -1553.29 223.752
278.379 223.752 -1255.55

-7990.46 -1113.51 -1045.85
-1113.51 -1680.31 295.965
-1045.85 295.965 -2265.53

-7016.73 222.593 454.501
222.593 1701.39 46.6675
454.501 46.6675 941.166

-11431 537.732 -1035.62
537.732 -9654.62 -183.014
-1035.62 -183.014 -8898

-10292.2 273.736 -1820.4
273.736 -8236.16 -356.43
-1820.4 -356.43 -5572.71

-7627.18 -100.954 11.4065
-100.954 -2551.64 -239.605
11.4065 -239.605 -678.586

-7900.13 -127.69 79.5432
-127.69 -168.059 -316.831
79.5432 -316.831 -82.6045

-10377.5 -1652.27 -1235.94
-1652.27 -6361.35 1095.67
-1235.94 1095.67 -7425.95

-7121.31 -27.8222 -177.527
-27.8222 920.017 389.147
-177.527 389.147 1435.48

-9828.37 475.928 -359.511
475.928 -4928.04 499.787
-359.511 499.787 -5253.08

-7621.77 -112.396 -227.511
-112.396 -872.614 -480.425
-227.511 -480.425 -1243.99

-9062.17 -1576.33 -1634.39
-1576.33 -4918.26 681.936
-1634.39 681.936 -5989.32

-8677.97 -284.836 -294.682
-284.836 -1791.92 -236.378
-294.682 -236.378 -2595.73

-6970.6 -365.168 -296.2
-365.168 1141.59 319.351
-296.2 319.351 900.549

-8638.96 426.497 -1887.37
426.497 -6391.05 -195.961
-1887.37 -195.961 -4141.94

-9194.43 -326.964 -235.248
-326.964 -2553 -414.733
-235.248 -414.733 -2321.27

-7800.21 -1842.15 1417.5
-1842.15 -3246.43 -829.82
1417.5 -829.82 -4325.45

-6651.8 493.623 -286.534
493.623 2382.9 243.381
-286.534 243.381 1630.82

-8735.88 -88.7783 -202.164
-88.7783 -957.974 -70.8604
-202.164 -70.8604 -1047.81

-6316.03 519.435 514.49
519.435 -462.378 -328.998
514.49 -328.998 1495.09

-7749.69 65.0006 170.416
65.0006 -1596.97 -109.243
170.416 -109.243 -302.164

-6637.01 258.793 89.9765
258.793 518.365 -393.523
89.9765 -393.523 429.663

-7285.77 -19.6886 -451.543
-19.6886 553.28 -287.144
-451.543 -287.144 538.506

-8265.73 -143.198 -717.705
-143.198 -1811.17 -557.157
-717.705 -557.157 -1720.75

-7794.66 -129.752 9.34217
-129.752 -2651.79 107.902
9.34217 107.902 -767.622

-6285.61 233.045 -966.496
233.045 506.346 203.818
-966.496 203.818 581.932

-8635.85 1594.74 -1266.26
1594.74 -3595.16 -659.093
-1266.26 -659.093 -4703.48

-10660 -1599.15 1188.03
-1599.15 -6720.86 -1116.32
1188.03 -1116.32 -7823.67

-8436.72 859.381 613.867
859.381 -4738.12 -45.7454
613.867 -45.7454 -4964.07

-8804.71 169.02 289.333
169.02 -1809.65 -6.50587
289.333 -6.50587 -255.816

-10311.4 1569.71 -1173.16
1569.71 -6164.44 -878.719
-1173.16 -878.719 -7425.03

-12396.2 429.556 952.504
429.556 -10735.6 184.049
952.504 184.049 -9781.98

-7383.65 377.721 449.521
377.721 -617.462 414.495
449.521 414.495 -515.829

-5312.93 1258.15 -1595.4
1258.15 -221.759 -383.185
-1595.4 -383.185 503.487

-7476.14 1734.99 1511.66
1734.99 -2851.07 698.145
1511.66 698.145 -3728.35

-7634.51 -192.351 -1940.06
-192.351 -5519.67 16.3446
-1940.06 16.3446 -3919.78

-8483.79 113.864 -2063.89
113.864 -6418.42 -198.489
-2063.89 -198.489 -3968.89

-9396.07 285.359 1856.45
285.359 -7183.45 175.045
1856.45 175.045 -4681.69

-6781 -240.079 -41.9701
-240.079 731.147 -389.279
-41.9701 -389.279 1034.34

-8864.41 162.899 -294.815
162.899 -1978.75 -80.1155
-294.815 -80.1155 -219.568

-7714.87 -227.724 95.6577
-227.724 -300.333 24.8539
95.6577 24.8539 -729.111

-10952.2 1552.01 -402.411
1552.01 -7825.52 -313.049
-402.411 -313.049 -9327.14

-8335.07 2213.63 -484.045
2213.63 -3992.31 -253.093
-484.045 -253.093 -5988.96

-8875.82 -101.699 -156.17
-101.699 -2743.19 7.2336
-156.17 7.2336 -2952.76

-8816.97 -2173.4 -532.531
-2173.4 -4374.92 278.543
-532.531 278.543 -6561.23

-7821.47 687.189 542.262
687.189 -1775.59 303.351
542.262 303.351 -877.866

-6838.69 535.651 1129.19
535.651 -2210.67 89.5719
1129.19 89.5719 8.0058

-8030.95 -871.213 -129.855
-871.213 -1171.97 309.976
-129.855 309.976 -3053

-8410.19 -409.351 684.911
-409.351 -2534.55 588.733
684.911 588.733 -1915.34

-7613.08 -176.364 344.74
-176.364 -1929.67 -238.763
344.74 -238.763 -1066.24

-8270.39 2141.67 709.891
2141.67 -4147.5 347.473
709.891 347.473 -6011.63

-8215.48 1873.36 832.074
1873.36 -4781.38 406.194
832.074 406.194 -6135.42

-7674.74 149.976 -16.7386
149.976 -495.116 -51.1255
-16.7386 -51.1255 -695.975

-6354.91 649.387 -1161.86
649.387 -1685.37 -62.5334
-1161.86 -62.5334 216.179

-5999.21 1124.67 1555.03
1124.67 -826.513 330.409
1555.03 330.409 -59.0771

-10482.3 1510.6 1253.35
1510.6 -6573.59 932.59
1253.35 932.59 -7620.9

-8140.55 -1031.65 941.969
-1031.65 -2072.86 -435.351
941.969 -435.351 -2498.71

-8897.28 -165.456 -360.264
-165.456 -2050.46 133.794
-360.264 133.794 40.0188

-9061.94 -186.482 -203.483
-186.482 -3286.48 -1127.69
-203.483 -1127.69 -2278.99

-10103.1 -1316.56 -880.858
-1316.56 -5645.8 405.175
-880.858 405.175 -7079.8

-13582.6 407.621 335.578
407.621 -10034.1 105.556
335.578 105.556 -9967.26

-8310.55 -745.903 -985.449
-745.903 -2308.8 212.258
-985.449 212.258 -2686.29

-8055.26 56.2869 184.277
56.2869 -1864.2 104.956
184.277 104.956 -600.669

-6540.36 -378.969 59.0865
-378.969 650.778 208.117
59.0865 208.117 464.134

-9759.4 -146.886 299.056
-146.886 -4195.44 63.4999
299.056 63.4999 -4212.22

-12396.5 -81.7389 106.461
-81.7389 -6610.96 -171.131
106.461 -171.131 -6942.51

-8842.49 -347.977 1792.5
-347.977 -6584.16 -6.57399
1792.5 -6.57399 -4994.27

-9711.45 112.483 2030.1
112.483 -7710.79 203.285
2030.1 203.285 -5430.98

-7384.38 62.6987 -122.946
62.6987 -1037.15 -186.338
-122.946 -186.338 -1983.36

-7702.35 -155.503 -148.709
-155.503 -1474.39 -21.7917
-148.709 -21.7917 -241.744

-7829.12 -139.829 -303.569
-139.829 -817.449 191.615
-303.569 191.615 -810.045

-10895.1 -1551.62 -465.749
-1551.62 -7558.28 326.541
-465.749 326.541 -9087.86

-7312.74 2217.98 -959.435
2217.98 -2836.49 -60.8711
-959.435 -60.8711 -3835.06

-10312.7 -1946.85 545.493
-1946.85 -6025.03 -211.719
545.493 -211.719 -7893.21

-7191.79 -505.915 384.151
-505.915 655.532 -127.105
384.151 -127.105 374.738

-7874.98 -954.51 172.46
-954.51 -889.109 -130.282
172.46 -130.282 -2805.36

-6869.19 239.099 -151.379
239.099 705.746 228.779
-151.379 228.779 239.42

-7428.76 -1995.02 838.857
-1995.02 -3676.69 -414.916
838.857 -414.916 -5144.07

-6937.54 306.612 -497.345
306.612 1895.71 -9.39103
-497.345 -9.39103 1130.94

-6744.76 -26.6744 -219.681
-26.6744 1511.57 37.3239
-219.681 37.3239 357.294

-7413.41 -618.464 286.465
-618.464 -136.193 -485.241
286.465 -485.241 316.493

-8838.92 -208.539 158.027
-208.539 -2361.9 -95.1537
158.027 -95.1537 -2356.49

-9730.22 -1630.62 -1553.08
-1630.62 -5789.34 1028.54
-1553.08 1028.54 -6367.72

-7639.78 -238.224 -244.601
-238.224 698.46 -29.6789
-244.601 -29.6789 643.483

-8963.77 -43.929 2076.01
-43.929 -6910.47 175.951
2076.01 175.951 -4254.23

-6765.16 -401.818 -116.885
-401.818 639.351 -171.085
-116.885 -171.085 180.316

-8490.11 -2107.03 632.978
-2107.03 -4227.57 -340.326
632.978 -340.326 -6349.57

-6647.38 -343.584 67.5715
-343.584 628.772 -101.98
67.5715 -101.98 478.803

-8784.86 -298.364 227.137
-298.364 -1954.63 247.221
227.137 247.221 -1980.86

-8706.66 -295.939 124.004
-295.939 -1014.84 -0.0716447
124.004 -0.0716447 -959.655

-7953.7 34.6832 109.429
34.6832 351.085 -21.8878
109.429 -21.8878 1022.54

-7130.56 97.0805 53.4393
97.0805 -100.958 -543.664
53.4393 -543.664 167.812

-8736.71 -37.5115 -12.671
-37.5115 -1576.38 163.844
-12.671 163.844 -2209.71

-7501.08 302.288 -779.254
302.288 -735.509 574.327
-779.254 574.327 -357.16

-9288.02 -368.408 283.582
-368.408 -978.22 27.2098
283.582 27.2098 -867.09

-8493.8 -392.581 551.931
-392.581 -1301.6 267.134
551.931 267.134 -2043.86

-6384.52 -475.613 -8.80972
-475.613 257.984 689.578
-8.80972 689.578 -457.751

-13745.6 -411.319 256.041
-411.319 -10291.3 10.511
256.041 10.511 -10140.1

-6988.16 -714.58 810.719
-714.58 -233.418 -453.625
810.719 -453.625 981.158

-12892.9 -300.18 142.873
-300.18 -9051.48 187.499
142.873 187.499 -8912.08

-7676.13 123.374 191.213
123.374 -1859.49 431.154
191.213 431.154 -961.008

-6292.02 -12.6943 621.609
-12.6943 2080.72 -508.744
621.609 -508.744 1567.56

-9704.63 71.5937 -2104.08
71.5937 -7856.33 -354.196
-2104.08 -354.196 -5016.27

-8163.58 158.438 -18.7879
158.438 -2647.13 -109.456
-18.7879 -109.456 -1192.57

-8730.05 342.041 323.582
342.041 -1930.11 200.021
323.582 200.021 163.014

-6725.65 326.252 426.12
326.252 2541.55 -547.109
426.12 -547.109 1500.42

-8333.96 -364.202 -995.269
-364.202 -2860.87 -338.294
-995.269 -338.294 -1927.78

-7058.99 1194.98 -1418.08
1194.98 -1882.01 -628.708
-1418.08 -628.708 -940.026

-10550.5 1684.83 -1321
1684.83 -6664.09 -1142.22
-1321 -1142.22 -7467.1

-8594.83 1857.78 -1581.86
1857.78 -4692 -823.097
-1581.86 -823.097 -4976.34

-8028.59 -151.556 276.822
-151.556 -493.142 -301.015
276.822 -301.015 74.7649

-7785.85 347.894 513.557
347.894 -1336.42 -26.6004
513.557 -26.6004 -860.754

-7202.58 518.597 375.981
518.597 -724.891 -462.532
375.981 -462.532 -1177.17

-8719.56 153.516 279.888
153.516 -945.626 -159.049
279.888 -159.049 -533.818

-7692.58 267.83 -265.733
267.83 -607.184 -52.63
-265.733 -52.63 -840.574

-5977.83 205.057 95.048
205.057 2615.6 116.106
95.048 116.106 1248.75

-8056.46 345.351 643.485
345.351 -702.407 -247.451
643.485 -247.451 -1659.42

-11690.3 506.076 414.655
506.076 -7909.75 -29.3458
414.655 -29.3458 -7922.65

-6894.99 41.6507 55.733
41.6507 1021.56 -306.724
55.733 -306.724 1506.8

-6754.68 -605.361 -550.184
-605.361 1981.98 147.29
-550.184 147.29 1492.63

-6942.1 -508.861 557.258
-508.861 1728.6 -132.092
557.258 -132.092 1158.78

-7364.22 -155.224 368.837
-155.224 838.292 378.176
368.837 378.176 953.133

-6626.68 185.211 -231.841
185.211 4907.55 -121.141
-231.841 -121.141 4310.05

-6436.06 -357.202 561.185
-357.202 2504.21 221.484
561.185 221.484 1985.03

-7343.55 261.912 -394.324
261.912 1438.73 413.203
-394.324 413.203 2150.32

-9099.62 101.406 -97.0193
101.406 -751.94 -101.648
-97.0193 -101.648 -733.167

-7429.75 -535.65 -516.414
-535.65 -471.857 -500.901
-516.414 -500.901 -325.249

-6908.23 -143.001 67.0772
-143.001 -215.97 512.364
67.0772 512.364 119.808

-8343.41 -1056.08 266.897
-1056.08 -726.513 -222.124
266.897 -222.124 -2083.06

-8928.05 144.526 -90.7521
144.526 -751.531 311.989
-90.7521 311.989 -668.461

-8246.18 42.1047 -190.387
42.1047 -188.264 292.029
-190.387 292.029 931.619

-7303.1 -188.328 -170.734
-188.328 1121.92 -42.8032
-170.734 -42.8032 -289.81

-5793.43 -529.382 -470.769
-529.382 4262.27 361.146
-470.769 361.146 5356.91

-8130.67 0.0189456 -194.565
0.0189456 -1479.74 -220.127
-194.565 -220.127 -717.172

-8821.56 271.09 -298.16
271.09 -2000.24 -359.04
-298.16 -359.04 311.522

-7748.94 900.273 -34.0048
900.273 -973.932 -288.787
-34.0048 -288.787 -2737.45

-8334.72 -508.937 65.3949
-508.937 -966.406 133.894
65.3949 133.894 -1075.16

-7597.63 -68.9413 -52.8766
-68.9413 293.017 373.708
-52.8766 373.708 71.2369

-7796.21 321.154 -460.736
321.154 -1131.45 -268.296
-460.736 -268.296 -468.997

-8749.63 447.495 -425.849
447.495 -3385.21 -23.3137
-425.849 -23.3137 -2381.84

-6462.53 811.405 -1343.75
811.405 -741.21 -691.047
-1343.75 -691.047 -442.636

-8614.39 -0.478016 -155.091
-0.478016 -2114.51 239.352
-155.091 239.352 -2304.69

-8686.03 -1296.19 -378.816
-1296.19 -957.616 -355.753
-378.816 -355.753 -2805.9

-7563.36 -408.666 -360.009
-408.666 1426.54 152.409
-360.009 152.409 2678.71

-10318.6 -1721.82 -684.237
-1721.82 -6281.58 434.066
-684.237 434.066 -7997.34

-8106.84 -853.816 1063.35
-853.816 -2575.86 -257.575
1063.35 -257.575 -2600.54

-8672.01 -501.627 -683.345
-501.627 -1567.55 -296.056
-683.345 -296.056 -755.141

-6267.35 185.762 1954.03
185.762 -1476.89 90.0062
1954.03 90.0062 707.752

-9358.6 -572.485 657.508
-572.485 -4738.23 309.29
657.508 309.29 -4866.17

-8434.15 -330.357 335.29
-330.357 -1286.59 465.469
335.29 465.469 -821.578

-7753.7 106.402 -184.78
106.402 -2015.14 -32.3879
-184.78 -32.3879 -733.259

-8044.09 68.6227 -205.143
68.6227 -2030.75 -126.595
-205.143 -126.595 -608.798

-9129.24 237.777 -177.927
237.777 -1314.59 -87.9256
-177.927 -87.9256 -815.381

-9117.95 -1772.84 1595.68
-1772.84 -4871.72 -738.611
1595.68 -738.611 -5748.76

-8027.74 38.6572 -8.41146
38.6572 -2057.17 -12.7293
-8.41146 -12.7293 -659.722

-8488.65 157.607 82.3842
157.607 -696.286 -101.048
82.3842 -101.048 -204.029

-13121.5 -174.171 -237.946
-174.171 -9008.5 -128.224
-237.946 -128.224 -9045.11

-9112.27 127.573 -35.1747
127.573 -957.972 -531.273
-35.1747 -531.273 -1107.16

-7300.71 -642.741 1155.27
-642.741 -1182.1 463.724
1155.27 463.724 -1244.65

-9076.11 -496.348 2213.05
-496.348 -6861.58 -255.132
2213.05 -255.132 -5444.83

-7330.57 103.942 171.715
103.942 1404.82 108.022
171.715 108.022 1531.96

-9143.64 -82.1468 37.9593
-82.1468 -1154.23 -613.024
37.9593 -613.024 -984.568

-8890.24 -91.7777 290.469
-91.7777 -1883.96 -209.399
290.469 -209.399 200.939

-9014.63 -1802.09 997.143
-1802.09 -4522.94 -351.336
997.143 -351.336 -5960.33

-5978.72 -430.359 513.057
-430.359 4921.14 -39.3375
513.057 -39.3375 5611.19

-6763.87 365.112 38.3399
365.112 864.374 238.725
38.3399 238.725 560.98

-8286.39 -511.178 -472.746
-511.178 -1968.16 -424.297
-472.746 -424.297 -1102.57

-6829.48 -1246.94 862.987
-1246.94 -1091.61 -88.6537
862.987 -88.6537 -1364.3

-11634.2 52.2936 -141.149
52.2936 -5905.55 -81.0262
-141.149 -81.0262 -5463.97

-10251.9 1137.87 -808.968
1137.87 -7749.44 -17.7004
-808.968 -17.7004 -7910.94

-7628.04 -25.3479 177.937
-25.3479 -315.44 526.946
177.937 526.946 244.679

-6586.48 -552.267 -622.14
-552.267 -34.8667 -37.9549
-622.14 -37.9549 -395.911

-7309.18 318.446 -384.778
318.446 -1064.84 -146.165
-384.778 -146.165 -837.385

-8890.85 118.529 -139.582
118.529 -2715.92 43.783
-139.582 43.783 -2126.87

-7826.44 76.6572 299.219
76.6572 -733.636 -288.48
299.219 -288.48 -1049.22

-7208.96 176.611 330.425
176.611 -35.4501 163.844
330.425 163.844 -1285.2

-8522.25 502.587 -343.204
502.587 -2322.79 183.167
-343.204 183.167 -1474.66

-6259.83 -7.90699 -497.781
-7.90699 -187.746 804.725
-497.781 804.725 -11.1192

-11540.2 384.926 -589.82
384.926 -7760.54 33.594
-589.82 33.594 -7670.99

-11570.9 207.386 -522.079
207.386 -7329.22 206.171
-522.079 206.171 -7735.07

-6413.54 164.581 -449.338
164.581 574.573 257.134
-449.338 257.134 -152.917

-13567.1 -214.968 -497.914
-214.968 -9752.61 -3.29086
-497.914 -3.29086 -9858.3

-8443.84 -244.458 166.157
-244.458 -935.586 165.714
166.157 165.714 -1185.97

-7934.45 -637.97 1912.19
-637.97 -5611.74 -355.52
1912.19 -355.52 -4928.58

-7563.19 962.491 7.47488
962.491 -2567.52 -354.773
7.47488 -354.773 -3171.22

-6254.66 153.098 -54.5281
153.098 2003.22 638.064
-54.5281 638.064 2573.75

-6744.45 63.8427 497.792
63.8427 716.976 -61.6955
497.792 -61.6955 -923.752

-6925.6 21.8286 192.989
21.8286 2574.48 396.04
192.989 396.04 1101

-8957.65 -34.8139 -127.056
-34.8139 -549.524 602.06
-127.056 602.06 -635.421

-7946.82 192.381 45.9755
192.381 -1263.49 -82.2512
45.9755 -82.2512 -697.583

-7360 -715.298 -371.564
-715.298 -136.748 317.314
-371.564 317.314 532.272

-7452.6 199.297 273.593
199.297 -205.83 -362.081
273.593 -362.081 204.916

-14772.1 -248.662 803.582
-248.662 -14224.5 -168.762
803.582 -168.762 -13706.1

-12065.7 490.941 978.455
490.941 -9280.17 284.007
978.455 284.007 -8442.25

-8194.41 -199.431 394.564
-199.431 1370.35 -476.838
394.564 -476.838 2290.91

-9115.96 1753.9 1674.54
1753.9 -5431.07 778.518
1674.54 778.518 -5466.29

-7833.94 -226.843 -131.981
-226.843 181.792 -101.8
-131.981 -101.8 274.94

-6812.31 -433.521 378.161
-433.521 -954.4 233.981
378.161 233.981 1055.7

-7991.52 -177.663 -64.1106
-177.663 -321.962 -80.2652
-64.1106 -80.2652 258.815

-8954.74 215.932 309.848
215.932 -3445.41 -197.175
309.848 -197.175 -2476.17

-9445.31 2206.54 607.623
2206.54 -5195.61 169.915
607.623 169.915 -6964.48

-7499.44 -114.443 498.387
-114.443 732.1 219.127
498.387 219.127 443.425

-7310.44 2166.12 1029.68
2166.12 -2623.23 201.065
1029.68 201.065 -3392.87

-8437.29 392.902 207.378
392.902 -2410.19 -345.452
207.378 -345.452 -2161.19

-7365.82 213.027 929.524
213.027 -2342.24 -108.336
929.524 -108.336 -1666.73

-9534.54 2212.48 -579.237
2212.48 -5116.32 -23.0522
-579.237 -23.0522 -7261.19

-8652.9 69.6807 -6.69945
69.6807 -1485.11 -206.661
-6.69945 -206.661 -1834.74

-8037.54 -169.177 -33.9024
-169.177 33.5353 55.5845
-33.9024 55.5845 588.732

-8829.07 98.8902 126.838
98.8902 -326.313 318.289
126.838 318.289 -97.0981

-6602.95 48.2322 435.397
48.2322 4169.44 65.6731
435.397 65.6731 3832.33

-11442.4 958.9 -368.435
958.9 -9290.47 -198.92
-368.435 -198.92 -9824.05

-7499.38 1221.85 58.2322
1221.85 -918.358 111.21
58.2322 111.21 -2162.99

-6670.79 1273.16 -148.051
1273.16 35.3604 -405.727
-148.051 -405.727 -1427.63

-6026.12 813.412 1518.73
813.412 -638.684 452.684
1518.73 452.684 -170.383

-8207.61 -159.192 2570.02
-159.192 -6191.52 -36.4105
2570.02 -36.4105 -3658.69

-10234.1 1057.81 806.197
1057.81 -7198.66 93.4426
806.197 93.4426 -7229.49

-7444.41 1030.44 1444.81
1030.44 -2091.64 463.686
1444.81 463.686 -1094.3

-10432.7 1650.66 1484.61
1650.66 -6601.38 1124.82
1484.61 1124.82 -7000.71

